! Generated from PyAEDT SolutionData; AEDT ExportNetworkData workaround
# GHz S MA R 50
9 0.240693952442 142.08665516 0.517237275534 -178.150966407 0.491341027 -93.1472378744 0.658115504484 45.9913441064 0.517237275534 -178.150966407 0.23971493885 142.452707632 0.49176565107 -93.090115972 0.658155675595 -133.853185666 0.491341027 -93.1472378744 0.49176565107 -93.090115972 0.718853336038 -175.79393183 0.000648753617939 6.93686068951 0.658115504484 45.9913441064 0.658155675595 -133.853185666 0.000648753617939 6.93686068959 0.365670163615 -114.453033953
9.025 0.23864003788 139.025803771 0.517044845924 178.977108696 0.493083269186 -97.5035319813 0.65771193511 43.0838154033 0.517044845924 178.977108696 0.237634182394 139.388290973 0.493507320634 -97.4465091889 0.657758008433 -136.760740174 0.493083269186 -97.5035319813 0.493507320634 -97.4465091889 0.71646569151 178.349110826 0.000656865938483 1.83795261028 0.65771193511 43.0838154033 0.657758008433 -136.760740174 0.000656865938483 1.83795260949 0.367108940707 -117.171451516
9.05 0.236563709193 135.956901893 0.516796200798 176.111340126 0.494884141592 -101.850972643 0.657304857075 40.1843081659 0.516796200798 176.111340126 0.235530952584 136.31550577 0.495307571466 -101.794044028 0.657356713529 -139.660328622 0.494884141592 -101.850972643 0.495307571466 -101.794044028 0.713978186798 172.506816252 0.000665055626175 -3.25572536847 0.657304857075 40.1843081659 0.657356713529 -139.660328622 0.000665055626176 -3.25572536956 0.368553965067 -119.884898022
9.075 0.234460712997 132.879769133 0.516489083162 173.252063851 0.496747133453 -106.190483964 0.656894284214 37.2926701796 0.516489083162 173.252063851 0.233401045723 133.234166969 0.497169899474 -106.133644003 0.656951743219 -142.552100012 0.496747133453 -106.190483964 0.497169899474 -106.133644002 0.711384931937 166.676926111 0.000673327479169 -8.3447939692 0.656894284214 37.2926701796 0.656951743219 -142.552100012 0.000673327479168 -8.34479397023 0.370005196805 -122.593471883
9.1 0.232326952172 129.794280571 0.516121510958 170.399640871 0.498675162816 -110.52300817 0.65648022531 34.4087531982 0.516121510958 170.399640871 0.231240416618 130.144144868 0.499097228823 -110.466250792 0.656543054515 -145.436199994 0.498675162816 -110.52300817 0.499097228823 -110.466250792 0.708680318976 160.857090854 0.000681685606989 -13.4299016138 0.65648022531 34.4087531982 0.656543054515 -145.436199994 0.000681685606987 -13.4299016145 0.371462597809 -125.297269467
9.125 0.23015849376 126.700365986 0.515691794446 167.554456034 0.500670566531 -114.8494995 0.656062685273 31.5324127394 0.515691794446 167.554456034 0.229045186317 127.045364331 0.501091901978 -114.792818125 0.656130607772 -148.312770913 0.500670566531 -114.8494995 0.501091901978 -114.792818125 0.705859106469 155.044884904 0.000690133395553 -18.5117163261 0.656062685273 31.5324127393 0.656130607772 -148.312770913 0.000690133395551 -18.5117163266 0.372926131674 -127.996385162
9.15 0.227951577473 123.598009289 0.515198553459 164.716916756 0.502735092376 -119.17091822 0.655641666056 28.6635078921 0.515198553459 164.716916756 0.226811650457 123.93780419 0.503155671885 -119.11430579 0.655714365649 -151.181951871 0.502735092376 -119.17091822 0.503155671885 -119.11430579 0.702916495066 149.237821047 0.000698673475372 -23.5909181447 0.655641666056 28.6635078921 0.655714365649 -151.181951871 0.00069867347537 -23.5909181448 0.374395763637 -130.690911443
9.175 0.225702624884 120.487248147 0.514640734486 161.887451604 0.504869893181 -123.488224765 0.655217167356 25.8019011366 0.514640734486 161.887451604 0.224536288242 120.821496843 0.505289696145 -123.431673778 0.655294292323 -154.043878775 0.504869893181 -123.488224765 0.505289696145 -123.431673778 0.699848195459 143.433364157 0.000707307692536 -28.6681920036 0.655217167356 25.8019011366 0.655294292323 -154.043878775 0.000707307692535 -28.6681920034 0.37587146051 -133.380938935
9.2 0.223408249291 117.368173775 0.514017627511 159.066508735 0.507075522869 -127.802374017 0.654789187123 22.9474581773 0.514017627511 159.066508735 0.222215772086 117.696528015 0.507494533101 -127.745876555 0.654870352915 -156.898684405 0.507075522869 -127.802374017 0.507494533101 -127.745876555 0.696650489852 137.628944318 0.000716037082256 -33.7442210368 0.654789187123 22.9474581773 0.654870352915 -156.898684405 0.000716037082255 -33.7442210365 0.377353190611 -136.066556472
9.225 0.221065266299 114.240930893 0.513328882511 156.254554158 0.509351934421 -132.114309699 0.654357721912 20.1000477871 0.513328882511 156.254554158 0.219846977922 114.563036682 0.509770139844 -132.057857457 0.654442513104 -159.74649847 0.509351934421 -132.114309699 0.509770139844 -132.057857457 0.693320288047 131.821969475 0.000724861844909 -38.8196802629 0.654357721912 20.1000477871 0.654442513104 -159.74649847 0.000724861844909 -38.8196802625 0.378840923695 -138.747851155
9.25 0.218670705082 111.105717798 0.51257452548 153.452069789 0.511698479847 -136.42495891 0.653922767099 17.2595416652 0.51257452548 153.452069789 0.217426996182 111.421215111 0.512115872221 -136.368543223 0.654010738885 -162.587447678 0.511698479847 -136.42495891 0.512115872221 -136.368543223 0.68985517904 126.009837703 0.000733781324717 -43.8952306051 0.653922767099 17.2595416652 0.654010738885 -162.587447678 0.000733781324718 -43.8952306047 0.380334630891 -141.424908414
9.275 0.216221820327 107.96278655 0.51175497378 150.65955127 0.514113912312 -140.735226782 0.653484316988 14.4258143059 0.51175497378 150.65955127 0.214953143418 108.271309012 0.514530487004 -140.678838656 0.653574996446 -165.421655806 0.514113912312 -140.735226782 0.514530487004 -140.678838656 0.686253478878 120.189949214 0.00074279399136 -48.9715132109 0.653484316988 14.4258143059 0.653574996446 -165.421655806 0.000742793991363 -48.9715132105 0.38183428463 -144.097812058
9.3 0.213716104794 104.812443221 0.510871050611 147.87750552 0.516596390635 -145.045991288 0.653042364838 11.5987428786 0.510871050611 147.87750552 0.21242297452 105.113617742 0.517012146421 -144.989621426 0.653135252154 -168.249243775 0.516596390635 -145.045991288 0.517012146421 -144.989621426 0.682514275282 114.359718203 0.000751897425 -54.0491440381 0.653042364838 11.5987428786 0.653135252154 -168.249243775 0.000751897425003 -54.0491440378 0.383339858589 -146.766644334
9.325 0.211151302439 101.655048165 0.509923998282 145.106447983 0.519143486457 -149.358098185 0.65259690281 8.778207119 0.509923998282 145.106447983 0.209834295466 101.948494544 0.519558425359 -149.301737019 0.6526914726 -171.070329721 0.519143486457 -149.358098185 0.519558425359 -149.301737019 0.678637469349 108.516584629 0.000761088305344 -59.128708684 0.65259690281 8.778207119 0.6526914726 -171.070329721 0.000761088305347 -59.128708684 0.384851327625 -149.431485974
9.35 0.20852542197 98.4910162649 0.50891548996 142.34689954 0.521752194397 -153.672356136 0.65214792188 5.96408922981 0.50891548996 142.34689954 0.207185176493 98.7763467453 0.522166321548 -153.615993854 0.652243624707 -173.885029082 0.521752194397 -153.672356136 0.522166321548 -153.615993854 0.674623814374 102.658026027 0.000770362405514 -64.2107574427 0.65214792188 5.96408922981 0.652243624707 -173.885029082 0.000770362405518 -64.2107574428 0.386368667717 -152.092416249
9.375 0.205836750724 95.3208171002 0.507847639451 139.599383057 0.524418945578 -157.989532003 0.651695411707 3.15627379143 0.507847639451 139.599383057 0.204473965552 95.5976358826 0.524832269124 -157.933158581 0.651791675873 -176.693454676 0.524418945578 -157.989532003 0.524832269124 -157.933158581 0.67047495162 96.7815694209 0.000779714591623 -69.2958005845 0.651695411707 3.15627379143 0.651791675873 -176.693454676 0.000779714591627 -69.2958005848 0.387891855913 -154.749513014
9.4 0.203083868661 92.1449749546 0.506723008551 136.864419547 0.527139624928 -162.31034636 0.651239360493 0.354647680743 0.506723008551 136.864419547 0.201699301878 92.4128776623 0.527552155958 -162.253951595 0.651335594128 -179.495716788 0.527139624928 -162.31034636 0.527552155958 -162.253951595 0.666193442566 90.884803412 0.000789138829014 -74.3843038645 0.651239360493 0.354647680743 0.651335594128 -179.495716788 0.000789138829016 -74.3843038649 0.389420870273 -157.402852759
9.425 0.200265662263 88.9640686031 0.505544611406 134.142523914 0.52990959267 -166.635469243 0.650779754821 -2.44090000202 0.505544611406 134.142523914 0.198860129449 89.222641694 0.530321345176 -166.579042781 0.650875348313 177.708076745 0.52990959267 -166.635469243 0.530321345176 -166.579042781 0.661782796975 84.9653904826 0.000798628196214 -79.4766842744 0.650779754821 -2.44090000202 0.650875348313 177.708076745 0.000798628196216 -79.4766842749 0.390955689824 -160.05251065
9.45 0.197381338054 85.7787307804 0.504315915291 131.434200289 0.532723710401 -170.96551618 0.650316579514 -5.23047799936 0.504315915291 131.434200289 0.195955710054 86.0275509045 0.533134701269 -170.909047555 0.650410908236 174.917820446 0.532723710401 -170.96551618 0.533134701269 -170.909047555 0.657247495837 79.0210795454 0.00080817490766 -84.5733060652 0.650316579514 -5.23047799936 0.650410908236 174.917820446 0.000808174907661 -84.5733060658 0.39249629451 -162.698560575
9.475 0.194430435434 82.5896472407 0.503040837143 128.739936945 0.535576372148 -175.301044554 0.649849817492 -8.01419295634 0.503040837143 128.739936945 0.192985635673 82.828280535 0.535986621184 -175.244523217 0.649942244836 172.133411107 0.535576372148 -175.301044554 0.535986621184 -175.244523217 0.652593008048 73.0497187418 0.000817770346218 -89.6744770768 0.649849817492 -8.01419295634 0.649942244836 172.133411107 0.000817770346218 -89.6744770774 0.394042665149 -165.341075188
9.5 0.191412838433 79.3975553012 0.501723735179 126.060200825 0.538461540731 -179.642550327 0.649379449651 -10.7921494749 0.501723735179 126.060200825 0.189949839782 79.6255566159 0.538871070714 -179.585965681 0.64946933031 169.354747704 0.538461540731 -179.642550327 0.538871070714 -179.585965681 0.647825799501 67.0492684667 0.000827405106475 -94.7804454199 0.649379449651 -10.7921494749 0.64946933031 169.354747704 0.000827405106474 -94.7804454204 0.395594783394 -167.980125943
9.525 0.188328785976 76.203241758 0.500369394913 123.395431703 0.541372789685 176.009534794 0.648905454772 -13.5644501633 0.500369394913 123.395431703 0.186848607174 76.4201538059 0.541781626453 176.06619336 0.648992138228 166.581731306 0.541372789685 176.009534794 0.541781626453 176.06619336 0.642953333095 61.0178145659 0.000837069049644 -99.8913965645 0.648905454772 -13.5644501633 0.648992138228 166.581731306 0.000837069049643 -99.891396565 0.397152631697 -170.615783139
9.55 0.18517888018 73.0075400544 0.498983008901 120.746036054 0.544303350907 171.654845717 0.648427809446 -16.331195682 0.498983008901 120.746036054 0.183682581833 73.2128924731 0.544711523472 171.711588792 0.648510643603 163.814264989 0.544303350907 171.654845717 0.544711523472 171.711588792 0.637984058091 54.9535816185 0.000846751370757 -105.007450894 0.648427809446 -16.331195682 0.648510643603 163.814264989 0.000846751370756 -105.007450895 0.398716193273 -173.248115957
9.575 0.181964092182 69.8113265785 0.497570149604 118.112380706 0.547246168061 167.293085771 0.647946488047 -19.0924847858 0.497570149604 118.112380706 0.180452772357 70.0046348924 0.547653708764 167.349923888 0.648024822941 161.05225375 0.547246168061 167.293085771 0.547653708764 167.349923888 0.632927387165 48.85494618 0.000856440678602 -110.12866179 0.647946488047 -19.0924847858 0.648024822941 161.05225375 0.0008564406786 -110.128661791 0.400285452071 -175.877192492
9.6 0.178685764956 66.6155159658 0.496136734852 115.494786389 0.550193955648 162.924027909 0.647461462721 -21.8484143637 0.496136734852 115.494786389 0.177160554406 66.7962804317 0.550600900341 162.98097151 0.647534654254 158.29560442 0.550193955648 162.924027909 0.550600900341 162.98097151 0.627793659582 42.7204498187 0.000866125088572 -115.255014316 0.647461462721 -21.8484143637 0.647534654254 158.29560442 0.000866125088571 -115.255014316 0.401860392742 -178.503079792
9.625 0.175345612563 63.4210552797 0.494688985523 112.893521306 0.553139263469 158.547515243 0.646972703416 -24.5990794765 0.494688985523 112.893521306 0.173807669624 63.5887595987 0.553545651723 158.604574643 0.647040117025 155.544225585 0.553139263469 158.547515243 0.553545651723 158.604574643 0.622594088997 36.5488117367 0.000875792328295 -120.386424558 0.646972703416 -24.5990794765 0.647040117025 155.544225585 0.000875792328294 -120.386424558 0.403441000621 178.874156109
9.65 0.171945715292 60.228916954 0.493233375231 110.308794902 0.556074546026 154.163460858 0.64648017795 -27.3445733937 0.493233375231 110.308794902 0.170396220492 60.383026824 0.556480421381 154.220646212 0.646541192158 152.798027505 0.556074546026 154.163460858 0.556480421381 154.220646212 0.617340694601 30.3389407193 0.000885429855512 -125.522739702 0.64648017795 -27.3445733937 0.646541192158 152.798027505 0.000885429855512 -125.522739702 0.405027261697 176.25445016
9.675 0.168488510134 57.0400903838 0.491776572042 107.740752 0.558992236239 149.771846855 0.6459838521 -30.084987629 0.491776572042 107.740752 0.16692866059 57.1800518654 0.559397646474 149.829168122 0.646037861876 150.05692204 0.558992236239 149.771846855 0.559397646474 149.829168122 0.612046214651 24.0899461119 0.000895024987327 -130.663738892 0.6459838521 -30.084987629 0.646037861876 150.05692204 0.000895024987328 -130.663738892 0.406619162597 173.637738262
9.7 0.164976776115 53.855572069 0.490325372505 105.189467517 0.561884822639 145.372722579 0.64548368973 -32.8204119758 0.490325372505 105.189467517 0.16340777977 53.9808097304 0.562289820073 145.430189485 0.645530109598 147.320822572 0.561884822639 145.372722579 0.562289820073 145.430189485 0.606724001823 17.8011474796 0.000904565039497 -135.809134912 0.64548368973 -32.8204119758 0.645530109598 147.320822572 0.000904565039499 -135.809134912 0.408216690564 171.023957236
9.725 0.161413614053 50.6763542307 0.488886628562 102.654941978 0.564744929006 140.966201998 0.644979652943 -35.5509345428 0.488886628562 102.654941978 0.159836683835 50.786269028 0.565149570824 141.023824008 0.645017919784 144.589643941 0.564744929006 140.966201998 0.565149570824 141.023824008 0.601387900332 11.4720825621 0.000914037474046 -140.958576755 0.644979652943 -35.5509345428 0.645017919784 144.589643941 0.000914037474049 -140.958576755 0.409819833446 168.413044798
9.75 0.157802420388 47.5034118417 0.487467168264 100.137098054 0.56756539525 136.552460223 0.644471702258 -38.2766417906 0.487467168264 100.137098054 0.156218768382 47.5973786849 0.567969743848 136.610246502 0.644501277751 141.863302379 0.56756539525 136.552460223 0.567969743848 136.610246502 0.596052105382 5.10251310616 0.000923430053071 -146.111653072 0.644471702258 -38.2766417906 0.644501277751 141.863302379 0.000923430053075 -146.111653072 0.411428579677 165.804939526
9.775 0.154146854868 44.3376880426 0.486073711502 97.6357783349 0.570339358164 132.131729157 0.643959796805 -40.9976185684 0.486073711502 97.6357783349 0.152557686582 44.4150529843 0.570743481514 132.189688537 0.643980169475 139.141715445 0.570339358164 132.131729157 0.570743481514 132.189688537 0.590731006196 -1.30757186904 0.000932730996243 -151.267896528 0.643959796805 -40.9976185684 0.643980169475 139.141715445 0.000932730996247 -151.267896528 0.413042918267 163.199580841
9.8 0.150450802004 41.180077943 0.484712782333 95.1507445603 0.573060330538 127.704292284 0.643443894545 -43.7139481528 0.484712782333 95.1507445603 0.148857310838 41.2401549136 0.573464302563 127.762433233 0.643454581363 136.424801972 0.573060330538 127.704292284 0.573464302563 127.762433233 0.585439014602 -7.75795582497 0.000941929139195 -156.426789046 0.643443894545 -43.7139481528 0.643454581363 136.424801972 0.000941929139199 -156.426789046 0.41466283879 160.596908972
9.825 0.146718326349 38.0314108407 0.48339061976 92.6816784771 0.575722277037 123.270478637 0.642923952491 -46.4257122874 0.48339061976 92.6816784771 0.145121688368 38.0734778392 0.576126178002 123.328809225 0.642924500022 133.712482012 0.575722277037 123.270478637 0.576126178002 123.328809225 0.580190381936 -14.2481979212 0.000951014089721 -161.587767908 0.642923952491 -46.4257122874 0.642924500022 133.712482012 0.000951014089725 -161.587767907 0.416288331373 157.996864942
9.85 0.14295362187 34.8924309293 0.482113089082 90.2281844734 0.578319685184 118.830655989 0.64239992695 -49.1329912243 0.482113089082 90.2281844734 0.141354990975 34.9157255578 0.578723602081 118.889183857 0.642389912014 131.004676789 0.578319685184 118.830655989 0.578723602081 118.889183857 0.574999007796 -20.7776401131 0.000959976378559 -166.750232668 0.64239992695 -49.1329912243 0.642389912014 131.004676789 0.000959976378563 -166.750232668 0.417919386688 155.399390536
9.875 0.139160955813 31.7637765974 0.480885596155 87.7897940816 0.580847629795 114.385223324 0.641871773763 -51.8358637674 0.480885596155 87.7897940816 0.137561459442 31.7674908028 0.581251656731 114.443955653 0.641850803607 128.301308654 0.580847629795 114.385223324 0.581251656731 114.443955653 0.569878244881 -27.345418494 0.000968807601441 -171.913552803 0.641871773763 -51.8358637674 0.641850803607 128.301308654 0.000968807601445 -171.913552803 0.419555995946 152.804428284
9.9 0.135344607724 28.6459584579 0.479713006978 85.3659723865 0.583301829242 109.934602699 0.641339448538 -54.5344073175 0.479713006978 85.3659723865 0.133745343159 28.6292323149 0.583706067819 109.993546179 0.641307160525 125.602301047 0.583301829242 109.934602699 0.583706067819 109.993546179 0.564840704783 -33.9504791679 0.000977500549137 -177.077076012 0.641339448538 -54.5344073175 0.641307160525 125.602301047 0.000977500549139 -177.077076012 0.421198150887 150.211921436
9.925 0.131508804397 25.5393362693 0.478599575072 82.956126307 0.585678692058 105.479230567 0.640802906894 -57.2286979187 0.478599575072 82.956126307 0.129910835804 25.5012506018 0.586083251734 105.538391366 0.640758967703 122.907578459 0.585678692058 105.479230567 0.586083251734 105.538391366 0.5598980701 -40.591598835 0.000986049322332 177.759862934 0.640802906894 -57.2286979187 0.640758967703 122.907578459 0.000986049322333 177.759862933 0.422845843772 147.621813943
9.95 0.127657651773 22.4440949344 0.477548879052 80.5596146535 0.587975352501 101.0195487 0.640262104678 -59.9188103075 0.477548879052 80.5596146535 0.126062008056 22.3836625253 0.588380350934 101.078932439 0.640206209058 120.217066402 0.587975352501 101.0195487 0.588380350934 101.078932439 0.555060918539 -47.2674101463 0.000994449428447 172.597932921 0.640262104678 -59.9188103075 0.640206209058 120.217066402 0.000994449428446 172.597932921 0.424499067384 145.03405044
9.975 0.12379506493 19.3602197612 0.476563772567 78.1757597898 0.590189693959 96.5559948324 0.639716998182 -62.604817963 0.476563772567 78.1757597898 0.122202738493 19.2763748454 0.590595257323 96.6156065551 0.639648867257 117.530691382 0.590189693959 96.5559948324 0.590595257323 96.6156065551 0.550338564786 -53.9764317322 0.00100269785779 167.437796922 0.639716998182 -62.604817963 0.639648867257 117.530691382 0.00100269785779 167.437796922 0.426157815012 142.448576221
10 0.119924697454 16.287471161 0.475646348556 75.8038606652 0.592320359249 92.0889931634 0.639167544334 -65.2867931586 0.475646348556 75.8038606652 0.11833664395 16.1790568191 0.592726622514 92.1488373087 0.639086923524 114.848380874 0.592320359249 92.0889931634 0.592726622514 92.1488373087 0.545738925829 -60.7171026499 0.0010107931369 162.280102276 0.639167544334 -65.2867931586 0.639086923524 114.848380874 0.00101079313689 162.280102276 0.427822080455 139.865337226
10.025 0.116049871579 13.2253589157 0.474797919384 73.4432069243 0.594366747197 87.6189448568 0.638613700873 -67.9648070155 0.474797919384 73.4432069243 0.11446701072 13.0911118967 0.594773854371 87.6790252346 0.638520357449 112.170063301 0.594366747197 87.6189448568 0.594773854371 87.6790252346 0.541268415009 -67.4878208233 0.00101873535736 157.125470948 0.638613700873 -67.9648070155 0.638520357449 112.170063301 0.00101873535736 157.125470947 0.429491858009 137.284280023
10.05 0.112173510567 10.1731160721 0.474019013996 71.0930937566 0.596328995112 83.1462186925 0.638055426494 -70.6389295574 0.474019013996 71.0930937566 0.110596728053 10.0116484517 0.596737099444 83.2065384584 0.637949146838 109.495668016 0.596328995112 83.1462186925 0.596737099444 83.2065384584 0.536931869535 -74.2869848792 0.00102652617897 151.974489932 0.638055426494 -70.6389295574 0.637949146838 109.495668016 0.00102652617896 151.974489932 0.431167142463 134.705351789
10.075 0.1082980748 7.12967240436 0.473309392764 68.7528371177 0.598207947123 78.671142006 0.637492680967 -73.3092297657 0.473309392764 68.7528371177 0.106728225424 6.93944932881 0.598617211245 78.7317036383 0.637373267578 106.825125289 0.598207947123 78.671142006 0.598617211245 78.7317036383 0.532732515385 -81.1130386307 0.00103416880645 146.827701927 0.637492680967 -73.3092297657 0.637373267578 106.825125289 0.00103416880644 146.827701927 0.432847929094 132.128500297
10.1 0.104425503059 4.09362720249 0.472668080227 66.4217889374 0.600005108574 74.1939920597 0.636925425229 -75.9757756361 0.472668080227 66.4217889374 0.102863415054 3.87293976333 0.6004157046 74.254797337 0.63679269354 104.158366293 0.600005108574 74.1939920597 0.6004157046 74.254797337 0.528671972563 -87.9645173191 0.00104166793987 141.685596426 0.636925425229 -75.9757756361 0.63679269354 104.158366293 0.00104166793987 141.685596425 0.43453421366 129.5536739
10.125 0.100557160408 1.06322089355 0.472093415446 64.0993519335 0.60172258699 69.714987975 0.636353621439 -78.6386342348 0.472093415446 64.0993519335 0.0990036410764 0.810152902167 0.602134696549 69.7760379558 0.636207396517 101.495323094 0.60172258699 69.714987975 0.602134696549 69.7760379558 0.524750302636 -94.840094623 0.00104902969888 136.548601344 0.636353621439 -78.6386342348 0.636207396517 101.495323094 0.00104902969887 136.548601344 0.43622599239 126.980821518
10.15 0.0966937940003 -1.96369536258 0.471583119273 61.7849936652 0.603363020325 65.2342833488 0.635777232997 -81.297871756 0.471583119273 61.7849936652 0.095149636716 -2.25130830105 0.603776834532 65.2955783523 0.635617346193 98.83592864 0.603363020325 65.2342833488 0.603776834532 65.2955783523 0.520966099343 -101.738629371 0.00105626152174 131.417075317 0.635777232997 -81.297871756 0.635617346193 98.83592864 0.00105626152173 131.417075316 0.437923261977 124.40989262
10.175 0.0928354980023 -4.98969346186 0.471134377459 59.4782594911 0.604929493444 60.7519596616 0.635196224531 -83.9535535775 0.471134377459 59.4782594911 0.0913014906856 -5.31431468506 0.605345212809 60.8134992499 0.635022510147 96.1801167569 0.604929493444 60.7519596616 0.605345212809 60.8134992499 0.517316622011 -108.659210864 0.00106337204043 126.291300751 0.635196224531 -83.9535535775 0.635022510147 96.1801167569 0.00106337204042 126.291300751 0.439626019568 121.840837217
10.2 0.088981688694 -8.01780759175 0.470743938237 57.1787841365 0.606425443917 56.2680205755 0.634610561848 -86.6057443176 0.470743938237 57.1787841365 0.0874586239133 -8.38226274181 0.606843278182 56.3298035373 0.634422853903 93.5278221378 0.606425443917 56.2680205755 0.606843278182 56.3298035373 0.51379797047 -115.601201715 0.00107037093324 121.171477741 0.634610561848 -86.6057443175 0.634422853903 93.5278221378 0.00107037093323 121.171477741 0.441334262753 119.273605843
10.225 0.0851310906401 -11.051581965 0.470408222808 54.8863016211 0.607854558346 51.7823872013 0.634020211838 -89.2545078894 0.470408222808 54.8863016211 0.0836197775759 -11.4591387837 0.608274726246 51.8444115381 0.633818341007 90.8789803378 0.607854558346 51.7823872013 0.608274726246 51.8444115381 0.510405299313 -122.564277167 0.0010772687567 116.057718919 0.634020211838 -89.2545078894 0.633818341007 90.8789803378 0.0010772687567 116.057718918 0.443047989555 116.708149549
10.25 0.0812817346794 -14.0951315145 0.47012344704 52.6006533459 0.609220660501 47.2948944067 0.633425142357 -91.8999075552 0.47012344704 52.6006533459 0.0797830133079 -14.5496013009 0.609643389454 47.3571573193 0.633208933154 88.2335277669 0.609220660501 47.2948944067 0.609643389454 47.3571573193 0.507133068624 -129.548459884 0.00108407675887 110.9500453 0.633425142357 -91.8999075552 0.633208933154 88.2335277669 0.00108407675886 110.9500453 0.44476719841 114.144419886
10.275 0.077430968356 -17.1532220643 0.469885752639 50.321794185 0.610527592579 42.8052882179 0.63282532206 -94.5420059779 0.469885752639 50.321794185 0.0759457263936 -17.6590900894 0.610953118296 42.8677860957 0.63259459034 85.5914016819 0.610527592579 42.8052882179 0.610953118296 42.8677860957 0.50397532779 -136.554149347 0.00109080667578 105.848383195 0.63282532206 -94.5420059779 0.63259459034 85.5914016819 0.00109080667577 105.848383195 0.446491888158 111.582368899
10.3 0.0735754793454 -20.2313795479 0.469691346104 48.0497964656 0.611779090904 38.3132243604 0.632220720205 -97.1808652719 0.469691346104 48.0497964656 0.0721046727701 -20.793974776 0.612207656913 38.3759527723 0.631975271059 82.9525401787 0.611779090904 38.3132243604 0.612207656913 38.3759527723 0.500926028698 -143.582145 0.00109747051326 100.752562209 0.632220720205 -97.1808652719 0.631975271059 82.9525401787 0.00109747051326 100.752562209 0.448222058021 109.021949111
10.325 0.0697113324457 -23.3360424984 0.469536643831 45.7848517538 0.612978657341 33.8182679741 0.631611306428 -99.8165470501 0.469536643831 45.7848517538 0.0682560108339 -23.9617615745 0.613410514428 33.8812216606 0.631350932536 80.3168821815 0.612978657341 33.8182679741 0.613410514428 33.8812216606 0.497979364436 -150.633662447 0.00110408031603 95.6623143778 0.631611306428 -99.8165470501 0.631350932536 80.3168821815 0.00110408031603 95.6623143777 0.449957707581 106.463113515
10.35 0.0658340208775 -26.4747793251 0.469418421875 43.5272703809 0.61412942768 29.3198945281 0.630997050476 -102.449112469 0.469418421875 43.5272703809 0.0643953594349 -27.17138689 0.614564833233 29.3830673962 0.630721530981 77.6843674313 0.61412942768 29.3198945281 0.614564833233 29.3830673962 0.495130129619 -157.71034198 0.00111064792592 90.5772744737 0.630997050476 -102.449112469 0.630721530981 77.6843674313 0.00111064792592 90.5772744737 0.451698836759 103.905815567
10.375 0.0619385330483 -29.6566036359 0.46933396895 41.2774786523 0.615234038164 24.817491959 0.630377921925 -105.078622272 0.46933396895 41.2774786523 0.0605178742284 -30.4336422367 0.615673255431 24.8808770783 0.630087021889 75.0549364717 0.615234038164 24.817491959 0.615673255431 24.8808770783 0.49237409845 -164.814248822 0.00111718473105 85.4969814879 0.630377921925 -105.078622272 0.630087021889 75.0549364717 0.00111718473105 85.4969814879 0.453445445788 101.35000917
10.4 0.0580194367692 -32.8924403612 0.469281241369 39.0360136787 0.616294491343 20.3103640509 0.629753889868 -107.705136826 0.469281241369 39.0360136787 0.0566183460015 -33.7618013779 0.616737788576 20.3739536519 0.629447360356 72.4285306323 0.616294491343 20.3103640509 0.616737788576 20.3739536519 0.489708416679 -171.947864379 0.00112370140775 80.4208813305 0.629753889868 -107.705136826 0.629447360356 72.4285306323 0.00112370140775 80.4208813305 0.455197535181 98.7956486685
10.425 0.0540709844519 -36.1958288904 0.46925901865 36.80351575 0.617312022368 15.7977350755 0.629124922578 -110.328716158 0.46925901865 36.80351575 0.0526913272134 -37.172566193 0.617759671867 15.8615205499 0.62880250142 69.8050920086 0.617312022368 15.7977350755 0.617759671867 15.8615205499 0.487132003487 -179.114067829 0.00113020765674 75.3483307618 0.629124922578 -110.328716158 0.62880250142 69.8050920086 0.00113020765674 75.3483307619 0.456955105698 96.2426888378
10.45 0.0500872456772 -39.5840089392 0.469267058472 34.5807181491 0.618286966904 11.2787557124 0.628490987165 -112.949419986 0.469267058472 34.5807181491 0.0487312978083 -40.6875292606 0.618739243941 11.3427276153 0.62815240043 67.1845634393 0.618286966904 11.2787557124 0.618739243941 11.3427276153 0.484645959075 173.683892796 0.00113671193536 70.2786025818 0.628490987165 -112.949419986 0.62815240043 67.1845634393 0.00113671193536 70.2786025818 0.458718158308 93.6910848751
10.475 0.0460622789074 -43.0796450776 0.469306249522 32.3684342719 0.619218631855 6.75251026991 0.627852049215 -115.567307745 0.469306249522 32.3684342719 0.0447328904337 -44.3355027644 0.61967581348 6.81665832395 0.627497013416 64.5668884789 0.619218631855 6.75251026991 0.61967581348 6.81665832395 0.482253973093 166.442440918 0.00114322118747 65.2108921032 0.627852049215 -115.567307745 0.627497013416 64.5668884789 0.00114322118747 65.2108921033 0.460486694143 91.1407923901
10.5 0.0419903646384 -46.7136595716 0.469378760533 30.1675418864 0.620105170253 2.21802523154 0.627208072422 -118.182438613 0.469378760533 30.1675418864 0.0406912130553 -48.1563586847 0.620567533968 2.28233833343 0.626836297486 61.9520113681 0.620105170253 2.21802523154 0.620567533968 2.28233833343 0.479962728108 159.157724173 0.00114974057303 60.1443249388 0.627208072422 -118.182438613 0.626836297486 61.9520113681 0.00114974057303 60.1443249389 0.462260714455 88.5917673956
10.525 0.0378663439368 -50.5300802947 0.469488183385 27.9789643378 0.620943461801 -2.32572084668 0.626559018224 -120.794871527 0.469488183385 27.9789643378 0.0366023439684 -52.2076317417 0.621411284092 -2.26125461783 0.626170211217 59.3398769977 0.620943461801 -2.32572084668 0.621411284092 -2.26125461783 0.477782290792 151.825680774 0.00115627319946 55.0779661319 0.626559018224 -120.794871527 0.626170211217 59.3398769977 0.00115627319946 55.0779661319 0.464040220555 86.0439662989
10.55 0.0336861537485 -54.5947618778 0.469639667622 25.80364849 0.62172900081 -6.87978606069 0.62590484544 -123.404665195 0.469639667622 25.80364849 0.0324641560104 -56.5764606694 0.622202555541 -6.81517943278 0.625498715049 56.7304308703 0.62172900081 -6.87978606069 0.622202555541 -6.81517943278 0.475726481546 144.442120689 0.00116281985747 50.0108306622 0.62590484544 -123.404665195 0.625498715049 56.7304308703 0.00116281985748 50.0108306623 0.465825213761 83.4973458924
10.575 0.0294477626968 -59.0120683852 0.469840043038 23.6425391963 0.622455793594 -11.4452524802 0.625245509922 -126.011878113 0.469840043038 23.6425391963 0.0282778220682 -61.4025489352 0.622935350247 -11.3805189754 0.624821771678 54.1236190563 0.622455793594 -11.4452524802 0.622935350247 -11.3805189754 0.473813210661 137.002822825 0.00116937876445 44.9418953549 0.625245509922 -126.011878113 0.624821771678 54.1236190563 0.00116937876445 44.941895355 0.467615695324 80.9518633442
10.6 0.0251530033359 -63.9593209543 0.47009792616 21.4965501251 0.62311626773 -16.0232120488 0.624580964223 -128.616568561 0.47009792616 21.4965501251 0.0240508655674 -66.9257474934 0.623602089486 -15.9583659683 0.624139346437 51.5193881451 0.62311626773 -16.0232120488 0.623602089486 -15.9583659683 0.472064766048 129.503649202 0.00117594531936 39.8701122148 0.624580964223 -128.616568561 0.624139346437 51.5193881451 0.00117594531937 39.8701122148 0.469411666358 78.4074761892
10.625 0.0208116518429 -69.7651407918 0.470423805531 19.3665308368 0.623701196013 -20.6147510542 0.623911157286 -131.21879461 0.470423805531 19.3665308368 0.0198041203021 -73.5941166908 0.624193537676 -20.5498074615 0.623451407652 48.9176851925 0.623701196013 -20.6147510542 0.624193537676 -20.5498074615 0.470508034009 121.94067671 0.00118251187387 34.7944231961 0.623911157286 -131.21879461 0.623451407652 48.9176851925 0.00118251187387 34.7944231962 0.471213127759 75.8641423195
10.65 0.0164520097161 -77.1110396699 0.470830099678 17.2532301268 0.624199638422 -25.22093318 0.623236034172 -133.818614116 0.470830099678 17.2532301268 0.0155900112468 -82.3375050966 0.624698744187 -25.1559078807 0.622757926987 46.3184576621 0.624199638422 -25.22093318 0.624698744187 -25.1559078807 0.469174630802 114.310346318 0.00118906752528 29.7137764004 0.623236034172 -133.818614116 0.622757926987 46.3184576621 0.00118906752528 29.7137764004 0.473020080114 73.3218199744
10.675 0.0121541767801 -87.6369987109 0.471331180691 15.1572558301 0.624598905844 -29.8427811726 0.62255553582 -136.416084709 0.471331180691 15.1572558301 0.0115493332344 -95.3380867474 0.625105006901 -29.7776906932 0.622058879751 43.7216533628 0.624598905844 -29.8427811726 0.625105006901 -29.7776906932 0.468100919206 106.609628537 0.00119559793824 24.6271436681 0.62255553582 -136.416084709 0.622058879751 43.7216533628 0.00119559793824 24.6271436681 0.474832523604 70.7804677309
10.7 0.00818335546059 -106.049528535 0.471943355394 13.0790315224 0.624884549779 -34.4812571974 0.621869598851 -139.011263786 0.471943355394 13.0790315224 0.00811659770195 -118.07955489 0.625397861783 -34.4161187605 0.621354245173 41.1272203814 0.624884549779 -34.4812571974 0.625397861783 -34.4161187605 0.467327881404 98.8362024762 0.00120208520278 19.5335394966 0.621869598851 -139.011263786 0.621354245173 41.1272203814 0.00120208520278 19.5335394965 0.476650457891 68.2400444931
10.725 0.00559507802337 -144.831818182 0.472684795485 11.0187508726 0.625040382632 -39.1372419988 0.62117815543 -141.604208492 0.472684795485 11.0187508726 0.00658864653735 -158.073918229 0.625561103032 -39.0720734969 0.620644006632 38.5351070096 0.625040382632 -39.1372419988 0.625561103032 -39.0720734969 0.466900818061 90.9886439252 0.00120850773794 14.4320411709 0.62117815543 -141.604208492 0.620644006632 38.5351070096 0.00120850773794 14.4320411708 0.478473882009 65.7005094817
10.75 0.00662089066394 164.657629357 0.473575407678 8.9763307758 0.625048533459 -43.8115130383 0.620481133177 -144.194975698 0.473575407678 8.9763307758 0.00830989721045 161.95550116 0.625576838718 -43.7463330048 0.619928151845 35.9452616682 0.625048533459 -43.8115130383 0.625576838718 -43.7463330048 0.466868844228 83.0666156506 0.00121484025059 9.3218099401 0.620481133177 -144.194975698 0.619928151845 35.9452616682 0.00121484025059 9.32180994006 0.480302794224 63.161822223
10.775 0.0103829534 137.440659845 0.474636635191 6.9513648312 0.624889544115 -48.5047218508 0.619778455152 -146.783621983 0.474636635191 6.9513648312 0.0120841182576 139.141937082 0.625425586856 -48.4395494288 0.619206672991 33.3576328246 0.624889544115 -48.5047218508 0.625425586856 -48.4395494288 0.467284156645 75.0710506789 0.00122105376029 4.20211300593 0.619778455152 -146.783621983 0.619206672991 33.3576328246 0.00122105376029 4.20211300591 0.482137191902 60.6239425372
10.8 0.015051376399 123.536249722 0.475891182921 4.94307918978 0.624542510618 -53.2173709373 0.6190700399 -149.370203606 0.475891182921 4.94307918978 0.016661945249 125.942077722 0.625086416719 -53.1522258455 0.618479566783 30.7721689082 0.624542510618 -53.2173709373 0.625086416719 -53.1522258455 0.46820105497 67.004316989 0.0012271157012 -0.92765398396 0.6190700399 -149.370203606 0.618479566783 30.7721689082 0.0012271157012 -0.927653983938 0.483977071351 58.086830526
10.825 0.0200847322422 114.541780358 0.477362660608 2.95029324382 0.62398527402 -57.9497905952 0.618355801579 -151.954776475 0.477362660608 2.95029324382 0.0216135173898 116.895198658 0.624537139723 -57.8846930925 0.617746834473 28.1888182204 0.62398527402 -57.9497905952 0.624537139723 -57.8846930925 0.469674711968 58.8703502067 0.00123299011196 -6.06794432785 0.618355801579 -151.954776475 0.617746834473 28.1888182204 0.00123299011196 -6.06794432777 0.485822427653 55.5504465604
10.85 0.025330656756 107.665966521 0.479075141308 0.97138801158 0.623194664219 -62.7021161804 0.617635650161 -154.537396124 0.479075141308 0.97138801158 0.0267923903256 109.830200261 0.623754553296 -62.6370870276 0.617008481783 25.6075288407 0.623194664219 -62.7021161804 0.623754553296 -62.6370870276 0.471759704881 50.6747400343 0.00123863792364 -11.2190380243 0.617635650161 -154.537396124 0.617008481783 25.6075288407 0.00123863792364 -11.2190380242 0.487673254485 53.0147512664
10.875 0.0307311011139 101.853517032 0.481052636624 -0.995714683585 0.622146798803 -67.4742663831 0.616909491709 -157.118117673 0.481052636624 -0.995714683585 0.0321365286905 103.823129548 0.622714739854 -67.4093268021 0.616264518766 23.028248529 0.622146798803 -67.4742663831 0.622714739854 -67.4093268021 0.474508341264 42.4247567863 0.00124401735462 -16.3810204535 0.616909491709 -157.118117673 0.616264518766 23.028248529 0.00124401735462 -16.3810204532 0.48952954392 50.4797055112
10.9 0.0362564531948 96.6332639148 0.48331849542 -2.95355910446 0.620817437183 -72.2659231822 0.61617722874 -159.696995798 0.48331849542 -2.95355910446 0.0376128270377 98.4303873939 0.621393421136 -72.2010948139 0.615514959586 20.4509246243 0.620817437183 -72.2659231822 0.621393421136 -72.2010948139 0.47796883586 34.1293069108 0.00124908441816 -21.5537626319 0.61617722874 -159.696995798 0.615514959586 20.4509246243 0.00124908441816 -21.5537626315 0.491391286212 47.9452703875
10.925 0.0418870051767 91.7666090985 0.485894738817 -4.90514567007 0.619182387963 -77.0765142175 0.615438760644 -162.274084691 0.485894738817 -4.90514567007 0.0431992234788 93.4163663452 0.619766365861 -77.0118190769 0.61475982222 17.8755039375 0.619182387963 -77.0765142175 0.619766365861 -77.0118190769 0.482183418052 25.7988109067 0.00125379354555 -26.7369037569 0.615438760644 -162.274084691 0.61475982222 17.8755039375 0.00125379354556 -26.7369037565 0.493258469563 45.4114071978
10.95 0.0476065254269 87.1210869857 0.488801350931 -6.85390189193 0.617217964715 -81.905198363 0.614693984171 -164.849438024 0.488801350931 -6.85390189193 0.0488779464035 88.6457988066 0.617809845873 -81.8406587923 0.613999128087 15.3019326386 0.617217964715 -81.905198363 0.617809845873 -81.8406587923 0.487186468598 17.4450033454 0.0012580983226 -31.9298368069 0.614693984171 -164.849438024 0.613999128087 15.3019326386 0.00125809832261 -31.9298368064 0.495131079872 42.8780774364
10.975 0.0533996763668 82.6180418423 0.492055551321 -8.80363279718 0.614901482193 -86.750855304 0.613942793924 -167.42310889 0.492055551321 -8.80363279718 0.0546326396709 84.0363165538 0.615501132821 -86.6864939241 0.613232901592 12.7301561351 0.614901482193 -86.750855304 0.615501132821 -86.6864939241 0.493002796431 9.08066209254 0.00126195233215 -37.1316979823 0.613942793924 -167.42310889 0.613232901592 12.7301561351 0.00126195233216 -37.1316979817 0.497009100455 40.3452427715
11 0.0592508865434 78.2084514617 0.495671080926 -10.758450722 0.61221178173 -91.6120799 0.613185082842 -169.995149738 0.495671080926 -10.758450722 0.0604470459759 79.5355310994 0.612819024086 -91.5479195595 0.61246116962 10.1601189338 0.61221178173 -91.6120799 0.612819024086 -91.5479195595 0.499646168278 0.719281235091 0.00126531008872 -42.3413607568 0.613185082842 -169.995149738 0.61246116962 10.1601189338 0.00126531008873 -42.3413607562 0.498892511751 37.812865025
11.025 0.0651438594984 73.860737976 0.499657537455 -12.722685867 0.609129771238 -96.4871820429 0.612420742583 -172.565612251 0.499657537455 -12.722685867 0.0663043999191 75.1090889429 0.609744383417 -96.4232457651 0.611683960963 7.59176447513 0.609129771238 -96.4871820429 0.609744383417 -96.4232457651 0.507118194168 -7.62529159119 0.00126812804501 -47.5574352465 0.612420742583 -172.565612251 0.611683960963 7.59176447514 0.00126812804503 -47.5574352459 0.500781290998 35.2809061518
11.05 0.0710614015853 69.5541728343 0.504019798089 -14.7007806212 0.605638962306 -101.374192602 0.611649663768 -175.134547126 0.504019798089 -14.7007806212 0.072187184297 70.7340418421 0.606260678708 -101.31050353 0.610901305711 5.0250349066 0.605638962306 -101.374192602 0.606260678708 -101.31050353 0.515407650808 -15.9392289502 0.00127036564301 -52.7782734927 0.611649663768 -175.134547126 0.610901305711 5.02503490661 0.00127036564302 -52.7782734922 0.502675411875 32.7493282175
11.075 0.0769854309274 65.275092664 0.508757566318 -16.6971722046 0.60172598451 -106.270875875 0.610871736345 -177.702003605 0.508757566318 -16.6971722046 0.0780770938447 66.3949653611 0.602354497047 -106.207457215 0.610113234524 2.45987072699 0.60172598451 -106.270875875 0.602354497048 -106.207457215 0.5244902945 -24.2090831652 0.00127198637669 -58.0019810947 0.610871736346 -177.702003605 0.610113234524 2.459870727 0.0012719863767 -58.0019810943 0.504574844127 30.2180933742
11.1 0.0828971009372 61.0146156185 0.513865075437 -18.7161694449 0.597381055662 -111.174748733 0.610086852015 179.731971628 0.513865075437 -18.7161694449 0.0839551293435 62.0815784087 0.598016015731 -111.111623693 0.609319777394 -0.103789887275 0.597381055662 -111.174748733 0.598016015731 -111.111623693 0.534329179551 -32.422108892 0.00127295882826 -63.2264354177 0.610086852015 179.731971628 0.609319777394 -0.103789887264 0.00127295882826 -63.2264354177 0.50647955314 27.687163835
11.125 0.0887770017718 56.7671999718 0.519330973754 -20.761830319 0.592598386498 -116.083106398 0.609294919331 177.167336986 0.519330973754 -20.761830319 0.0898017793449 57.7872212151 0.59323940772 -116.020298128 0.608520959582 -2.66601260718 0.592598386498 -116.083106398 0.59323940772 -116.020298128 0.544875461492 -40.5665310514 0.00127325763684 -68.4493103525 0.609294919332 177.167336986 0.608520959583 -2.66601260717 0.00127325763684 -68.4493103529 0.508389499498 25.156501848
11.15 0.0946054160375 52.529695918 0.5251384064 -22.837847112 0.587376499548 -120.993054496 0.60849594201 174.604060406 0.5251384064 -22.837847112 0.0955972622031 53.5078439337 0.588023161249 -120.930586019 0.607716781404 -5.22687102465 0.587376499548 -120.993054496 0.588023161249 -120.930586019 0.556069631363 -48.6317472683 0.0012728643578 -73.6681073252 0.608495942012 174.604060406 0.607716781404 -5.22687102464 0.00127286435778 -73.6681073261 0.510304638482 22.6260696668
11.175 0.100362610602 48.3006969026 0.531265296584 -24.9474456301 0.581718444585 -125.901546717 0.607690303148 172.042110792 0.531265296584 -24.9474456301 0.101321808102 49.2413095323 0.582370295968 -125.839440864 0.606907088171 -7.78645827525 0.581718444585 -125.901546717 0.582370295968 -125.839440864 0.567843101303 -56.6084611949 0.00127176817283 -78.8801919711 0.607690303148 172.042110792 0.606907088171 -7.78645827524 0.00127176817281 -78.8801919726 0.512224919543 20.0958295212
11.2 0.106029148716 44.0800788848 0.537684816465 -27.0933038793 0.575631897191 -130.805427158 0.606878734233 169.481369826 0.537684816465 -27.0933038793 0.106955963937 44.9868961698 0.576288462126 -130.743706493 0.606090618835 -10.3448859907 0.575631897191 -130.805427158 0.576288462126 -130.743706493 0.580120044608 -64.4887496081 0.00126996641577 -84.0828356061 0.606878734233 169.481369826 0.606090618834 -10.3448859907 0.00126996641573 -84.0828356083 0.514150285715 17.5657435856
11.225 0.111586207737 39.8686612048 0.544366025679 -29.2774941199 0.569129132284 -135.70147616 0.606060154689 166.921663698 0.544366025679 -29.2774941199 0.112480905514 40.7449299469 0.569789914595 -135.640162904 0.605265321806 -12.9017796449 0.569129132284 -135.70147616 0.569789914595 -135.640162904 0.592819386021 -72.2660711576 0.00126746488634 -89.2732603873 0.606060154693 166.921663698 0.605265321806 -12.9017796448 0.00126746488627 -89.2732603903 0.516080672989 15.0357739459
11.25 0.117015888608 35.6679486524 0.551274645233 -31.5014504118 0.562226870552 -140.586458253 0.605233279505 164.363039115 0.551274645233 -31.5014504118 0.117878742693 36.5165054421 0.562891359692 -140.525574204 0.604440557643 -15.4573072117 0.562226870552 -140.586458253 0.562891359692 -140.525574204 0.605856839242 -79.9352277237 0.00126427793401 -94.4486868595 0.605233279511 164.363039115 0.604440557644 -15.4573072117 0.00126427793391 -94.4486868632 0.518016009621 12.5058825652
11.275 0.122301504311 31.479929661 0.558373926904 -33.7659618882 0.554946002251 -145.457170734 0.604398587561 161.805526083 0.558373926904 -33.7659618882 0.123132804346 32.3032672989 0.555613679224 -145.396737183 0.603611018909 -18.0120919458 0.554946002251 -145.457170734 0.555613679224 -145.396737183 0.619146897111 -87.4922905399 0.0012604283051 -99.6063824593 0.604398587566 161.805526082 0.60361101891 -18.0120919458 0.00126042830497 -99.6063824637 0.519956215395 9.97603124862
11.3 0.127427836068 27.3069148325 0.565625574131 -36.0711902593 0.547311199094 -150.310491341 0.603556506807 159.249075667 0.565625574131 -36.0711902593 0.128227891721 28.1072358467 0.547981542467 -150.250528977 0.602775261919 -20.5659575373 0.547311199094 -150.310491341 0.547981542467 -150.250528977 0.632604693508 -94.9345028822 0.00125594675813 -104.743709505 0.603556506811 159.249075667 0.602775261919 -20.5659575373 0.00125594675796 -104.74370951 0.52190120081 7.44618160594
11.325 0.132381348114 23.1514057329 0.572990669707 -38.4167086026 0.539350430512 -155.14342356 0.602707201023 156.693629487 0.572990669707 -38.4167086027 0.133150490844 23.9306657859 0.540022922397 -155.083952377 0.601933644603 -23.1189223962 0.539350430512 -155.14342356 0.540022922397 -155.083952377 0.646147672673 -102.260169691 0.00125087146395 -109.858171236 0.602707201027 156.693629487 0.601933644603 -23.1189223962 0.00125087146375 -109.858171241 0.52385086621 4.91629501449
11.35 0.137150354286 19.0159874633 0.58043056835 -40.8015574696 0.531094405002 -159.95313824 0.601850762551 154.139133082 0.58043056835 -40.8015574696 0.137888937175 19.7759307715 0.531768536843 -159.894177436 0.601086282464 -25.671052696 0.531094405001 -159.95313824 0.531768536843 -159.894177436 0.659697019741 -109.46854248 0.00124524721727 -114.947454591 0.601850762554 154.139133081 0.601086282464 -25.671052696 0.00124524721704 -114.947454597 0.525805100834 2.38633258062
11.375 0.141725132427 14.9032407244 0.58790771772 -43.224313759 0.522575960146 -164.737010391 0.60098728723 151.585534717 0.58790771772 -43.2243137591 0.142433528403 15.6454291186 0.523251238212 -164.678578263 0.600233159026 -28.2224236787 0.522575960146 -164.737010391 0.523251238212 -164.678578263 0.67317882409 -116.559705693 0.00123912449427 -120.009468593 0.600987287232 151.585534716 0.600233159027 -28.2224236787 0.00123912449402 -120.009468598 0.527763781794 -0.14374489908
11.4 0.146097985342 10.8156704541 0.595386378929 -45.6831676701 0.51382942616 -169.492650304 0.600116897163 149.032783713 0.595386378929 -45.6831676702 0.146776584106 11.5415073358 0.514505376624 -169.434764133 0.599374191224 -30.7731136568 0.51382942616 -169.492650304 0.514505376623 -169.434764133 0.686524963765 -123.534468647 0.00123255839646 -125.042377447 0.600116897165 149.032783713 0.599374191225 -30.7731136568 0.0012325583962 -125.042377452 0.529726772973 -2.67397697663
11.425 0.150263249684 6.75564892005 0.602833226257 -48.1760032747 0.504889987427 -174.217928423 0.599239748974 146.480829413 0.602833226256 -48.1760032747 0.150912453607 7.46639909335 0.505566160962 -174.160604361 0.598509251617 -33.3232028621 0.504889987427 -174.217928423 0.505566160962 -174.160604361 0.69967371372 -130.39426548 0.00122560752333 -130.04462775 0.599239748975 146.480829413 0.598509251617 -33.3232028621 0.00122560752308 -130.044627754 0.531693923828 -5.20440359135
11.45 0.154217256455 2.72537160919 0.610217814566 -50.700478763 0.495793064596 -178.91099369 0.598356038249 143.92962052 0.610217814566 -50.700478763 0.154837475692 3.42217775601 0.496469040434 -178.85424664 0.597638175496 -35.8727731601 0.495793064596 -178.91099369 0.496469040434 -178.85424664 0.712570092628 -137.141064168 0.00121833281598 -135.014969461 0.59835603825 143.92962052 0.597638175497 -35.8727731601 0.00121833281578 -135.014969464 0.533665068113 -7.73506510796
11.475 0.157958248657 -1.27317550213 0.617512911319 -53.2541031062 0.486573736792 176.429714616 0.597466003 141.379104605 0.617512911319 -53.2541031062 0.158549895699 -0.589279095565 0.4872491262 176.485871128 0.596760762467 -38.4219079335 0.486573736792 176.429714616 0.4872491262 176.485871128 0.72516597216 -143.777284798 0.00121079641099 -139.952470575 0.597466003001 141.379104605 0.596760762467 -38.4219079335 0.00121079641087 -139.952470577 0.535640022497 -10.2660023535
11.5 0.161486262958 -5.2382385983 0.624694697286 -55.8343066519 0.477266219565 171.805461304 0.596569926933 138.829227676 0.624694697286 -55.8343066519 0.162049746805 -4.56631457745 0.477940668756 171.861015255 0.595876775762 -40.9706919907 0.477266219565 171.805461304 0.477940668756 171.861015255 0.737419979019 -150.305726622 0.00120306053861 -144.856525688 0.596569926933 138.829227676 0.595876775762 -40.9706919907 0.00120306053861 -144.856525688 0.537618585087 -12.7972566528
