! Generated from PyAEDT SolutionData; AEDT ExportNetworkData workaround
# GHz S MA R 50
9 0.405086905271 42.0284517833 0.243602104322 -129.468926473 0.697452080979 -67.2955296923 0.538630864958 37.1340953979 0.243602104322 -129.468926473 0.406664851085 42.087698302 0.69646920374 -67.257416394 0.538713617708 -142.810885155 0.697452080979 -67.2955296923 0.69646920374 -67.257416394 0.168792430736 15.6665208279 0.000598586733078 -58.3213046858 0.538630864958 37.1340953979 0.538713617708 -142.810885155 0.000598586733079 -58.3213046858 0.647814843226 -150.911014734
9.025 0.408090925062 39.4242167071 0.240556607544 -133.410004072 0.696961178689 -72.2925036307 0.538373614084 34.353375184 0.240556607544 -133.410004072 0.409655708348 39.4818079924 0.695981676052 -72.2541542243 0.538452488263 -145.592588259 0.696961178689 -72.2925036308 0.695981676052 -72.2541542243 0.172713066897 5.978457599 0.000595241100204 -63.4755451913 0.538373614085 34.3533751841 0.538452488263 -145.592588259 0.000595241100495 -63.4755451712 0.648245633865 -153.33651014
9.05 0.411157566366 36.8063280255 0.237544598026 -137.331916087 0.696395423821 -77.2700469967 0.538112229868 31.5800823976 0.237544598026 -137.331916088 0.412708781345 36.8624389948 0.695419511463 -77.231462916 0.538187043286 -148.366829249 0.696395423821 -77.2700469967 0.695419511464 -77.2314629159 0.177156326426 -3.48347956512 0.000591757429311 -68.6073708246 0.538112229869 31.5800823977 0.538187043286 -148.366829249 0.000591757429789 -68.6073707931 0.648682945841 -155.75699684
9.075 0.414281801514 34.1753809552 0.234565536162 -141.235594723 0.695758405289 -82.2285395483 0.537846881811 28.8140861052 0.234565536161 -141.235594723 0.415819081053 34.2301794115 0.694786290951 -82.1897225744 0.537917475846 -151.133739259 0.695758405289 -82.2285395484 0.694786290951 -82.1897225743 0.182051583341 -12.7186047299 0.00058815044622 -73.7166508276 0.537846881812 28.8140861054 0.537917475845 -151.133739259 0.0005881504468 -73.7166507912 0.649126453553 -158.172569451
9.1 0.41745895605 31.5319951675 0.231618517478 -145.121950484 0.695053373928 -87.1683785539 0.537577735106 26.0552581673 0.231618517477 -145.121950484 0.418981970234 31.5856409987 0.694085257817 -87.1293308272 0.537643972259 -153.893446815 0.695053373928 -87.168378554 0.694085257818 -87.1293308271 0.187334172214 -21.7316747481 0.000584432920732 -78.8033532556 0.537577735107 26.0552581674 0.537643972259 -153.893446815 0.000584432921347 -78.8033532189 0.649575842125 -160.583320728
9.125 0.420684742119 28.8768049404 0.228702324056 -148.991867455 0.694283249485 -92.0899729215 0.537304950724 23.3034731523 0.228702324055 -148.991867455 0.422193196143 28.9294495163 0.69331932465 -92.0506969524 0.537366712407 -156.646077876 0.694283249485 -92.0899729216 0.69331932465 -92.0506969523 0.192946271059 -30.5312434966 0.000580615807777 -83.8675207457 0.537304950725 23.3034731524 0.537366712407 -156.646077876 0.000580615808375 -83.8675207116 0.650030806976 -162.989341606
9.15 0.423955280673 26.21044932 0.225815471675 -152.846199327 0.693450631237 -96.9937379533 0.537028685501 20.5586082528 0.225815471674 -152.846199327 0.425448912235 26.2622350853 0.692491083904 -96.9542366294 0.537085870035 -159.391755884 0.693450631237 -96.9937379533 0.692491083905 -96.9542366293 0.198837162988 -39.1282688602 0.000576708410229 -88.9092490757 0.537028685501 20.5586082529 0.537085870034 -159.391755884 0.000576708410774 -88.9092490459 0.650491053423 -165.390721245
9.175 0.42726711225 23.5335626224 0.222956252845 -156.685766074 0.692557811622 -101.8800907 0.536749092216 17.8205432031 0.222956252845 -156.685766074 0.428745688647 23.5846228752 0.691602821498 -101.840367292 0.536801613048 -162.130601819 0.692557811622 -101.8800907 0.691602821498 -101.840367292 0.20496305766 -47.5350128359 0.00057271855487 -93.9286685308 0.536749092216 17.8205432032 0.536801613048 -162.130601819 0.000572718555337 -93.9286685062 0.650956296299 -167.787547068
9.2 0.430617196607 20.8467655705 0.220122775943 -160.511351204 0.691606792309 -106.749445888 0.536466319681 15.0891601982 0.220122775942 -160.511351204 0.432080511702 20.8972244102 0.690656532839 -106.709504055 0.536514103796 -164.862734254 0.691606792309 -106.749445888 0.69065653284 -106.709504055 0.21128663013 -55.7642227397 0.000568652774196 -98.9259280139 0.536466319681 15.0891601982 0.536514103796 -164.862734254 0.000568652774573 -98.9259279948 0.651426259581 -170.179904813
9.225 0.434002901919 18.1506573105 0.217313000683 -164.323699515 0.690599302191 -111.602212387 0.53618051282 12.3643438148 0.217313000683 -164.323699515 0.435450773141 18.2006297333 0.689653940784 -111.562056177 0.536223499337 -167.588269412 0.690599302191 -111.602212387 0.689653940785 -111.562056177 0.217776401033 -63.8285547067 0.000564516488075 -103.901181773 0.53618051282 12.3643438149 0.536223499337 -167.588269412 0.000564516488357 -103.901181759 0.651900676054 -172.567878572
9.25 0.437421984646 15.4458084959 0.214524770199 -168.12351529 0.68953681685 -116.438790185 0.535891812753 9.64598093453 0.214524770199 -168.12351529 0.438854250142 15.4954006141 0.688596515061 -116.398424033 0.535929951701 -170.307321227 0.68953681685 -116.438790185 0.688596515061 -116.398424033 0.224406048269 -71.7401916318 0.000560314180357 -108.854578576 0.535891812753 9.64598093456 0.535929951701 -170.307321227 0.000560314180546 -108.854578566 0.652379286972 -174.951550842
9.275 0.440872561439 12.7327555687 0.21175583998 -171.911460873 0.688420579085 -121.259567827 0.535600356881 6.93396066849 0.21175583998 -171.911460873 0.442289077484 12.7820649267 0.687485492757 -121.218996558 0.53563360813 -173.020001406 0.688420579085 -121.259567827 0.687485492757 -121.218996558 0.231153711325 -79.5106090276 0.000556049566679 -113.786253131 0.535600356881 6.9339606685 0.53563360813 -173.020001406 0.000556049566782 -113.786253125 0.652861841745 -177.331002566
9.3 0.444353074642 10.0119963022 0.209003903937 -175.688155581 0.687251620144 -126.064920299 0.535306278968 4.22817428456 0.209003903937 -175.688155581 0.44575371337 10.0611122657 0.686321899518 -126.024149121 0.535334611316 -175.72641949 0.687251620144 -126.064920299 0.686321899518 -126.024149121 0.238001326763 -87.1504485733 0.000551725750623 -118.69631953 0.535306278968 4.22817428456 0.535334611316 -175.72641949 0.000551725750652 -118.696319527 0.653348097638 -179.706313185
9.325 0.447862253042 7.28398661948 0.206266617828 -179.454174899 0.686030781362 -130.855207301 0.535009709229 1.52851513635 0.206266617828 -179.454174899 0.449246900528 7.33299081202 0.685106571147 -130.814241801 0.535033099619 -178.426682918 0.686030781362 -130.855207301 0.685106571147 -130.814241801 0.244934016878 -94.669466981 0.000547345366263 -123.584866485 0.535009709229 1.52851513635 0.535033099619 -178.426682918 0.000547345366232 -123.584866484 0.653837819485 177.922439324
9.35 0.451399069476 4.54913864692 0.203541620299 176.789950073 0.684758735915 -135.630771884 0.534710774413 -1.16512140562 0.203541620299 176.789950073 0.452767624197 4.59810541383 0.683840175325 -135.589618025 0.534729207275 178.879102911 0.684758735915 -135.630771884 0.683840175325 -135.589618025 0.251939542149 -102.076535403 0.000542910705857 -128.451954124 0.534710774413 -1.16512140563 0.534729207275 178.879102911 0.00054291070578 -128.451954124 0.654330779413 175.555178396
9.375 0.454962696868 1.80781992481 0.200826551742 173.043732954 0.683436010485 -140.391939421 0.534409597892 -3.85283802076 0.200826551742 173.043732954 0.456315068513 1.85681680543 0.682523233247 -140.350603531 0.534423064594 176.190834571 0.683436010485 -140.391939421 0.682523233247 -140.350603531 0.259007820606 -109.379671122 0.000538423832069 -133.297612111 0.534409597892 -3.85283802077 0.534423064594 176.190834571 0.00053842383196 -133.297612111 0.654826756577 173.191828838
9.4 0.458552464083 -0.939646335478 0.198119071173 169.306732236 0.682063006608 -145.139016871 0.534106299747 -6.53473550313 0.198119071173 169.306732236 0.459888572699 -0.890558141836 0.681156140939 -145.097505635 0.534114798141 173.508410554 0.682063006608 -145.139016871 0.681156140939 -145.097505635 0.266130512615 -116.586088475 0.000533886674643 -138.121838874 0.534106299747 -6.53473550314 0.534114798141 173.508410554 0.000533886674516 -138.121838875 0.655325536913 170.832316781
9.425 0.462167812817 -3.69298007954 0.195416871316 165.578551278 0.680640021561 -149.872292303 0.533800996858 -9.21091282426 0.195416871316 165.578551278 0.463487588254 -3.64374526532 0.679739190119 -149.830612756 0.533804530916 170.8317312 0.680640021561 -149.872292303 0.679739190119 -149.830612756 0.273300666861 -123.702259982 0.000529301111879 -142.924601737 0.533800996858 -9.21091282427 0.533804530916 170.8317312 0.000529301111745 -142.924601738 0.655826912891 168.476569638
9.45 0.465808256553 -6.45194246694 0.192717692044 161.858838163 0.679167268629 -154.592034669 0.533493802991 -11.881467194 0.192717692045 161.858838163 0.467111638153 -6.40251119411 0.678272588441 -154.550194183 0.533492382508 168.160698638 0.679167268629 -154.592034669 0.678272588441 -154.550194183 0.280512421959 -130.733981547 0.000524669037601 -147.705837746 0.533493802991 -11.881467194 0.533492382508 168.160698638 0.00052466903747 -147.705837746 0.656330683288 166.124516062
9.475 0.469473342353 -9.2163333054 0.190019332332 158.147285447 0.67764489663 -159.298493773 0.533184828891 -14.5464941194 0.190019332333 158.147285447 0.470760278849 -9.1666608144 0.676756478999 -159.256500048 0.533178469254 165.495216726 0.67764489663 -159.298493773 0.676756478999 -159.256500048 0.287760757592 -137.686437787 0.000519992414609 -152.465455031 0.533184828891 -14.5464941194 0.533178469254 165.495216726 0.00051999241449 -152.465455031 0.656836652963 163.776085902
9.5 0.4731626161 -11.9859880077 0.187319660834 154.443629808 0.676073008601 -163.991900433 0.532874182372 -17.2060874622 0.187319660834 154.443629808 0.47443306567 -11.9360342603 0.675190958995 -163.949761481 0.532862904378 162.835190992 0.676073008601 -163.991900433 0.675190958995 -163.949761481 0.295041289036 -144.564264983 0.000515273315773 -157.203334554 0.532874182372 -17.2060874622 0.532862904378 162.835190992 0.000515273315672 -157.203334553 0.657344632643 161.431210161
9.525 0.476875591552 -14.7607742085 0.184616625204 150.74765163 0.67445167956 -168.672466796 0.532561968407 -19.8603394937 0.184616625204 150.74765163 0.478129521994 -14.7105035656 0.673576097483 -168.630190934 0.532545798123 160.180528574 0.67445167956 -168.672466796 0.673576097482 -168.630190934 0.302350099246 -151.371610218 0.000510513954089 -161.919332081 0.532561968407 -19.8603394937 0.532545798123 160.180528574 0.000510513954009 -161.91933208 0.657854438719 159.089820962
9.55 0.480611723458 -17.5405881677 0.181908260248 147.059174522 0.67278097326 -173.340386803 0.532248289223 -22.5093409492 0.181908260248 147.059174522 0.481849112435 -17.4899691002 0.671911952114 -173.297982635 0.532227257878 157.531138163 0.67278097326 -173.340386803 0.671911952114 -173.297982635 0.309683603128 -158.112185945 0.000505716703078 -166.61328031 0.532248289223 -22.5093409493 0.532227257878 157.531138163 0.000505716703022 -166.613280309 0.658365893042 156.751851499
9.575 0.484370384774 -20.3253510707 0.179192694999 143.378064809 0.671060957894 -177.995836763 0.531933244391 -25.15318108 0.179192694999 143.378064809 0.485591220114 -20.2743559033 0.670198584834 -177.953313166 0.531907388289 154.886929948 0.671060957894 -177.995836763 0.670198584834 -177.953313166 0.317038439141 -164.7893197 0.000500884108951 -171.284991028 0.531933244391 -25.15318108 0.531907388289 154.886929948 0.000500884108919 -171.284991026 0.658878822739 154.417236006
9.6 0.488150847956 -23.1150053233 0.176468158769 139.704230993 0.669291720695 177.361023964 0.531616930918 -27.7919477039 0.176468158769 139.704230993 0.489355127959 -23.063610006 0.668436076466 177.403657853 0.531586291371 152.24781556 0.669291720695 177.361023964 0.668436076466 177.403657853 0.324411383939 -171.405998965 0.00049601889592 -175.934257246 0.531616930918 -27.7919477039 0.531586291371 152.24781556 0.000496018895911 -175.934257244 0.659393060021 152.085909717
9.625 0.491952270166 -25.9095109201 0.173732986254 136.037623224 0.667473381393 172.730052199 0.531299443343 -30.425727255 0.173732986254 136.037623224 0.493140003915 -25.857694826 0.666624540171 172.772786998 0.531264066607 149.613708022 0.667473381393 172.730052199 0.666624540171 172.772786998 0.331799286272 -177.964911361 0.000491123965998 179.439144729 0.531299443343 -30.425727255 0.531264066607 149.613708022 0.000491123966008 179.439144731 0.659908442008 149.757808829
9.65 0.495773682181 -28.7088419523 0.170985621738 132.378232775 0.665606104504 168.111120105 0.530980873827 -33.0546048316 0.170985621738 132.378232775 0.496944889828 -28.6565876976 0.664764133733 168.153946204 0.530940811041 146.984521692 0.665606104504 168.111120105 0.664764133733 168.153946204 0.3391990169 175.531519517 0.000486202394511 174.835453333 0.530980873827 -33.0546048316 0.530940811041 146.984521692 0.000486202394538 174.835453334 0.660424810551 147.432870468
9.675 0.499613980746 -31.5129833051 0.168224622438 128.726091574 0.663690110437 163.504114287 0.530661312244 -35.678664243 0.168224622438 128.726091574 0.500768693766 -31.4602765876 0.662855070666 163.547021863 0.530616619369 144.360172217 0.663690110437 163.504114287 0.662855070666 163.547021863 0.346607431701 169.081102309 0.000481257422452 170.254919888 0.530661312244 -35.678664243 0.530616619369 144.360172217 0.000481257422491 170.254919889 0.66094201207 145.111032655
9.7 0.50347192407 -34.3219275832 0.165448661044 125.081271781 0.661725685398 158.908934848 0.530340846275 -38.2979880554 0.165448661044 125.081271781 0.504610185478 -34.2687570363 0.660897630118 158.951913883 0.530291584021 141.740576484 0.661725685398 158.908934848 0.660897630118 158.951913883 0.354021345594 162.681849746 0.000476292446647 165.697806866 0.530340846275 -38.2979880554 0.530291584021 141.740576484 0.000476292446695 165.697806866 0.661459897385 142.79223427
9.725 0.507346130168 -37.1356722891 0.162656527473 121.443885461 0.6597131901 154.325494407 0.5300195615 -40.9126576366 0.162656527473 121.443885461 0.508467994686 -37.0820293478 0.65889216559 154.368534702 0.52996579524 139.12565257 0.6597131901 154.325494407 0.65889216559 154.368534702 0.361437515259 156.331953817 0.000471311008566 161.164386237 0.5300195615 -40.9126576366 0.52996579524 139.12565257 0.000471311008618 161.164386237 0.66197832156 140.476415025
9.75 0.511235077725 -39.954217272 0.159847129886 117.814084372 0.657653067275 149.753717084 0.529697541483 -43.5227531994 0.159847129886 117.814084372 0.512340611901 -39.9000960491 0.656839112445 149.796808279 0.529639341152 136.515319698 0.657653067275 149.753717084 0.656839112445 149.796808279 0.368852628949 150.029763886 0.00046631678244 156.654937899 0.529697541483 -43.5227531994 0.529639341152 136.515319698 0.000466316782494 156.654937898 0.66249714375 138.163515425
9.775 0.515137109183 -42.7775624548 0.157019495002 114.192059893 0.655545847991 145.193537475 0.529374867865 -46.1283538451 0.157019495002 114.192059893 0.516226391466 -42.7229596236 0.654738994246 145.236669066 0.529312307844 133.909498192 0.655545847991 145.193537475 0.654738994246 145.236669066 0.376263301999 143.77376744 0.000461313563222 152.16974814 0.529374867865 -46.1283538451 0.529312307844 133.909498192 0.000461313563274 152.16974814 0.663016227049 135.853476748
9.8 0.51905043577 -45.6057058406 0.154172767728 110.578043132 0.653392156816 140.644899611 0.529051620452 -48.729537605 0.154172767728 110.578043132 0.520123556533 -45.5506205227 0.65259242792 140.688060965 0.528984779425 131.308109431 0.653392156816 140.644899611 0.65259242792 140.688060965 0.383666076851 137.562573167 0.000456305254738 147.709108116 0.529051620452 -48.729537605 0.528984779425 131.308109431 0.000456305254785 147.709108115 0.663535438343 133.546241004
9.825 0.522973144172 -48.4386417949 0.151306210163 106.972305258 0.651192715825 136.107755908 0.528727877301 -51.3263814822 0.151306210163 106.972305258 0.524030205688 -48.3830754516 0.650400127782 136.150936285 0.528656838094 128.711075811 0.651192715825 136.107755908 0.650400127782 136.150936285 0.391057426645 131.394896099 0.000451295858275 143.27331228 0.528727877301 -51.3263814822 0.528656838094 128.711075811 0.000451295858314 143.273312279 0.664054648169 131.241750918
9.85 0.526903204615 -51.2763595952 0.148419199987 103.375158088 0.648948347494 131.582066126 0.528403714801 -53.9189614917 0.148419199987 103.375158088 0.527944320992 -51.2203159204 0.648162908439 131.625254694 0.528328564201 126.118320701 0.648948347494 131.582066126 0.648162908439 131.625254694 0.398433761587 125.269544566 0.000446289461709 138.862656761 0.528403714801 -53.9189614917 0.528328564201 126.118320701 0.00044628946174 138.86265676 0.664573730575 128.939949895
9.875 0.530838480104 -54.1188422373 0.145511228291 99.7869549987 0.646659976519 127.067796323 0.528079207763 -56.5073527012 0.145511228291 99.7869549987 0.531863777171 -54.062327051 0.645881686623 127.110982179 0.528000036308 123.529768402 0.646659976519 127.067796323 0.645881686623 127.110982179 0.405791437474 119.185408754 0.000441290229185 134.477437622 0.528079207763 -56.5073527012 0.528000036308 123.529768402 0.000441290229207 134.477437621 0.665092562985 126.640781996
9.9 0.534776736601 -56.9660654841 0.142581896881 96.2080921981 0.644328630591 122.564917836 0.527754429498 -59.0916292704 0.142581896881 96.2080921981 0.535786351759 -56.9090866257 0.643557481983 122.608090021 0.527671331253 120.945344111 0.644328630591 122.564917836 0.643557481983 122.608090021 0.413126765837 113.141450663 0.00043630239126 130.117948998 0.527754429498 -59.0916292704 0.527671331253 120.945344111 0.000436302391272 130.117948997 0.665611026063 124.344191913
9.925 0.538715653957 -59.8179971425 0.139630915101 92.6390104515 0.641955440179 118.073406257 0.527429451894 -61.6718644898 0.139630915101 92.6390104515 0.539709735993 -59.7605643632 0.641191416887 118.11655378 0.527342524201 118.36497388 0.641955440179 118.073406257 0.641191416887 118.11655378 0.420436025315 107.136695301 0.000431330235376 125.784481065 0.527429451894 -61.6718644898 0.527342524201 118.36497388 0.00043133023538 125.784481065 0.666129003586 122.050124943
9.95 0.542652837402 -62.6745965525 0.136658096224 89.0801973207 0.63954163738 113.593240444 0.5271043455 -64.24813082 0.136658096224 89.0801973207 0.543631546257 -62.6167214059 0.638784715278 113.636352297 0.527013688711 115.788584581 0.63954163738 113.593240444 0.638784715278 113.636352297 0.427715473912 101.170222955 0.000426378096477 121.477317851 0.5271043455 -64.24813082 0.527013688711 115.788584581 0.000426378096473 121.477317851 0.666646382311 119.758526967
9.975 0.546585829426 -65.5358142716 0.133663353453 85.5321900212 0.637088553871 109.124401548 0.526779179596 -66.8204999298 0.133663353453 85.5321900212 0.547549335943 -65.4775100026 0.636338700662 109.167466725 0.52668489679 113.216103867 0.637088553871 109.124401548 0.636338700662 109.167466725 0.43496136186 95.2411624072 0.000421450347555 117.196734846 0.526779179596 -66.8204999298 0.52668489679 113.216103867 0.000421450347544 117.196734846 0.667163051854 117.469344421
10 0.55051212192 -68.4015919388 0.1306466956 81.9955790055 0.634597618055 104.66687206 0.526454022269 -69.3890427343 0.1306466956 81.9955790055 0.551460607545 -68.3428733705 0.633854793253 104.70987958 0.526356218951 110.647460139 0.634597618055 104.66687206 0.633854793253 104.70987958 0.442169944884 89.3486849862 0.000416551389914 112.94299645 0.526454022269 -69.3890427343 0.526356218951 110.647460139 0.000416551389899 112.942996451 0.667678904565 115.182524281
10.025 0.554429168407 -71.2718623019 0.127608222488 78.4710124045 0.632070351428 100.220634898 0.526128940485 -71.9538294328 0.127608222488 78.4710124045 0.555362824871 -71.2127457201 0.631334506371 100.263573819 0.526027724276 108.082582507 0.632070351428 100.220634898 0.63133450637 100.263573819 0.449337497648 83.4919993339 0.000411685642961 108.716353236 0.526128940485 -71.9538294328 0.526027724276 108.082582507 0.000411685642943 108.716353237 0.668193835405 112.898014036
10.05 0.558334396272 -74.1465493905 0.124548120149 74.9592014858 0.62950836427 95.7856725076 0.525804000157 -74.5149295465 0.124548120149 74.9592014858 0.559253425237 -74.0870524261 0.628779442145 95.82853195 0.525699480475 105.521400759 0.62950836427 95.7856725076 0.628779442145 95.82853195 0.456460327264 77.6703468124 0.000406857533331 104.517039063 0.525804000157 -74.5149295466 0.525699480475 105.521400759 0.000406857533311 104.517039065 0.668707741827 110.61576167
10.075 0.562225218847 -77.0255688216 0.121466655872 71.4609273214 0.626913350698 91.3619660121 0.525479266212 -77.0724119561 0.121466655872 71.4609273214 0.563129831525 -76.9657103312 0.626191286592 91.404735175 0.525371553944 102.963845323 0.626913350698 91.3619660121 0.626191286592 91.404735175 0.463534786676 71.8829974636 0.000402071483214 100.345268059 0.525479266212 -77.0724119561 0.525371553944 102.963845323 0.000402071483194 100.34526806 0.669220523657 108.335715638
10.1 0.566099047261 -79.9088282214 0.118364173191 67.9770488959 0.624287083181 86.9494943818 0.525154802657 -79.626344939 0.118364173192 67.9770488959 0.566989464006 -79.8486281655 0.62357180414 86.9921625636 0.525044009836 100.409847235 0.624287083181 86.9494943818 0.62357180414 86.9921625636 0.470557287833 66.1292464549 0.000397331897778 96.2012315005 0.525154802657 -79.6263449391 0.525044009836 100.409847235 0.00039733189776 96.2012315016 0.669732082979 106.057824852
10.125 0.569953301953 -82.7962277488 0.115241086878 64.5085129427 0.621631406559 82.5482336469 0.524830672642 -82.176796207 0.115241086878 64.5085129427 0.570829751832 -82.7357070687 0.620922831675 82.5907902636 0.524716912116 97.8593381068 0.621631406559 82.5482336469 0.620922831675 82.5907902636 0.4775243145 60.4084109495 0.000392643151651 92.0850946405 0.524830672642 -82.176796207 0.524716912116 97.8593381068 0.000392643151635 92.0850946416 0.670242324015 103.782038658
10.15 0.573785423763 -85.6876607076 0.11209787802 61.0563658576 0.618948231674 78.1581561435 0.524506938518 -84.7238329431 0.11209787802 61.0563658576 0.574648144097 -85.6268412008 0.618246272182 78.2005907478 0.524390323635 95.3122500872 0.618948231674 78.1581561435 0.618246272182 78.2005907478 0.48443243462 54.7198273497 0.00038800957443 87.9969935102 0.524506938518 -84.7238329431 0.524390323635 95.3122500872 0.000388009574418 87.9969935111 0.670751153014 101.50830682
10.175 0.57759288452 -88.5830142352 0.108935089303 57.6217681279 0.616239528651 73.7792297984 0.524183661901 -87.2675218397 0.108935089303 57.6217681279 0.578442120406 -88.5219184293 0.615544088048 73.8215320979 0.524064306194 92.7685158328 0.616239528651 73.7792297984 0.615544088048 73.8215320979 0.491278312106 49.062848867 0.000383435435286 83.937031752 0.524183661901 -87.2675218397 0.524064306194 92.7685158328 0.000383435435278 83.9370317526 0.671258478135 99.2365795003
10.2 0.58137319705 -91.482170053 0.105753320575 54.2060118212 0.61350731993 69.4114174511 0.523860903724 -89.8079291354 0.105753320575 54.2060118212 0.582209200866 -91.4208210796 0.612818294106 69.4535773268 0.523738920617 90.2280684722 0.61350731993 69.4114174511 0.612818294106 69.4535773268 0.498058717972 43.4368433794 0.000378924926728 79.9052775277 0.523860903724 -89.8079291354 0.523738920617 90.2280684722 0.000378924926724 79.905277528 0.671764209337 96.9668072442
10.225 0.585123924555 -94.3850052702 0.102553224836 50.8105418207 0.610753673098 65.0546762148 0.523538724297 -92.3451206528 0.102553224836 50.8105418207 0.585946955439 -94.3234267376 0.610070950489 65.0966837385 0.523414226822 87.6908415725 0.610753673098 65.0546762148 0.610070950489 65.0966837385 0.504770540715 37.8411915424 0.00037448214766 75.9017605503 0.523538724297 -92.3451206528 0.523414226822 87.6908415725 0.000374482147661 75.9017605502 0.672268258259 94.6989409626
10.25 0.588842689293 -97.2913932278 0.0993355047789 47.4369816788 0.607980693606 60.7089568756 0.523217183355 -94.8791618363 0.0993355047789 47.4369816788 0.589653012606 -97.2296090944 0.607304155351 60.7508023281 0.523090283897 85.1567691049 0.607980693606 60.7089568756 0.607304155351 60.7508023281 0.51141079585 32.2752851224 0.000370111085867 71.9264692879 0.523217183355 -94.8791618363 0.523090283897 85.1567691049 0.000370111085871 71.9264692875 0.672770538113 92.4329319164
10.275 0.592527180521 -100.201204374 0.0961009100616 44.0871651981 0.605190517427 56.3742033312 0.522896340118 -97.4101177898 0.0961009100616 44.0871651981 0.593325067299 -100.139238822 0.604520037549 56.4158772186 0.522767150178 82.6257854103 0.605190517427 56.3742033312 0.604520037549 56.4158772186 0.517976634537 26.7385255283 0.000365815600105 67.9793483869 0.522896340118 -97.4101177898 0.522767150178 82.6257854103 0.000365815600113 67.9793483862 0.673270963567 90.1687317013
10.3 0.596175161657 -103.114307163 0.0928502355121 40.7631751736 0.602385303716 52.0503520663 0.522576253335 -99.9380533152 0.092850235512 40.7631751736 0.596960888041 -103.052184473 0.601720749307 52.0918451366 0.522444883329 80.0978251648 0.602385303716 52.0503520663 0.601720749307 52.0918451366 0.524465351216 21.2303225183 0.000361599401976 64.0602963572 0.522576253335 -99.9380533152 0.522444883329 80.0978251648 0.000361599401986 64.0602963562 0.673769450634 87.9062922329
10.325 0.599784476641 -106.030568964 0.0895843205203 37.4673911517 0.599567227544 47.7373316665 0.52225698134 -102.463032951 0.0895843205203 37.4673911517 0.600558323302 -105.96831339 0.598908458966 47.7786349258 0.522123540426 77.5728233434 0.599567227544 47.7373316665 0.598908458966 47.7786349258 0.530874390223 15.7500930628 0.000357466037761 60.1691635607 0.52225698134 -102.463032951 0.522123540426 77.5728233434 0.000357466037773 60.1691635595 0.674265916553 85.6455657326
10.35 0.603353055465 -108.949856979 0.0863040499448 34.2025486357 0.596738472739 43.435062368 0.521938582097 -104.98512101 0.0863040499448 34.2025486357 0.604115307008 -108.887492627 0.596085343833 43.4761670953 0.52180317804 75.0507151847 0.596738472739 43.435062368 0.596085343833 43.4761670953 0.537201351319 10.2972603461 0.000353418870401 56.3057505406 0.521938582097 -104.98512101 0.52180317804 75.0507151847 0.000353418870414 56.3057505393 0.674760279676 83.3865047139
10.375 0.60687891886 -111.872039158 0.0830103569529 30.9718129474 0.593901224911 39.1434556425 0.521621113252 -107.504381621 0.0830103569529 30.9718129474 0.607629863225 -111.809589867 0.593253583213 39.1843534042 0.521483852329 72.5314361538 0.593901224911 39.1434556425 0.593253583213 39.1843534042 0.543443994125 4.87125289305 0.000349461061779 52.4698067229 0.521621113252 -107.504381621 0.521483852329 72.5314361538 0.000349461061792 52.4698067215 0.675252459354 81.1290619694
10.4 0.610360182143 -114.796985112 0.0797042283497 27.7788720166 0.591057664678 34.8624138148 0.52130463218 -110.020878765 0.0797042283496 27.7788720166 0.611100109997 -114.734474334 0.590415351643 34.9030964783 0.52116561913 70.0149219047 0.591057664678 34.8624138148 0.590415351643 34.9030964783 0.549600241444 -0.528496192974 0.000345595555445 48.6610295197 0.52130463218 -110.020878765 0.52116561913 70.0149219047 0.000345595555457 48.6610295184 0.675742375815 78.8731905585
10.425 0.61379505823 -117.724567003 0.0763867131359 24.6280538532 0.588209961151 30.5918297123 0.520989196036 -112.53467632 0.0763867131359 24.6280538533 0.614524262344 -117.662017693 0.587572812383 30.6322894588 0.520848534049 67.5011082422 0.588209961151 30.5918297123 0.587572812383 30.6322894588 0.555668181484 -5.90254989252 0.000341825059923 44.8790638586 0.520989196037 -112.53467632 0.520848534049 67.5011082422 0.000341825059933 44.8790638574 0.676229950044 76.6188437953
10.45 0.617181859813 -120.654660433 0.0730589353059 21.5244765213 0.585360265709 26.3315863428 0.520674861801 -115.045838099 0.0730589353059 21.5244765213 0.617900634438 -120.592094936 0.584728111195 26.3718156789 0.520532652567 64.989931082 0.585360265709 26.3315863428 0.584728111195 26.3718156789 0.561646069002 -11.2514678425 0.000338152032672 41.1235021581 0.520674861801 -115.045838099 0.520532652567 64.989931082 0.00033815203268 41.1235021571 0.676715103666 74.3659752375
10.475 0.620519000743 -123.587145301 0.0697221122773 18.4742413701 0.582510706088 22.0815565985 0.520361686334 -117.55442789 0.0697221122773 18.4742413701 0.621227640978 -123.524585245 0.581883370433 22.1215483671 0.520218030132 62.4813264103 0.582510706088 22.0815565985 0.581883370433 22.1215483671 0.567532325402 -16.5758068289 0.000334578664783 37.3938847672 0.520361686334 -117.55442789 0.520218030132 62.4813264103 0.000334578664789 37.3938847666 0.677197758818 72.1145386758
10.5 0.623804996633 -126.521906644 0.0663775809057 15.4846844796 0.579663380812 17.8416029827 0.520049726419 -120.060509504 0.0663775809057 15.4846844796 0.624503797787 -126.459372844 0.579040683478 17.8813503724 0.51990472227 59.9752302423 0.579663380812 17.8416029827 0.579040683478 17.8813503724 0.573325537856 -21.8761212072 0.000331106866447 33.6897008838 0.520049726419 -120.060509504 0.51990472227 59.9752302423 0.000331106866451 33.6897008835 0.677677838024 69.8644881237
10.525 0.627038464718 -129.458835457 0.0630268338635 12.5647073883 0.576820353981 13.6115773565 0.519739038823 -122.564146813 0.0630268338635 12.5647073883 0.627727721664 -129.396347813 0.576202109524 13.6510739096 0.519592784693 57.4715785784 0.576820353981 13.6115773565 0.576202109524 13.6510739096 0.579024457496 -27.1529632607 0.000327738253201 30.0103899635 0.519739038823 -122.564146813 0.519592784693 57.4715785784 0.000327738253202 30.0103899635 0.678155264066 67.6157778086
10.55 0.63021812302 -132.397829487 0.059671570396 9.72521715717 0.573983650433 9.39132069953 0.519429680345 -125.065403798 0.059671570396 9.72521715717 0.630898129545 -132.335406894 0.573369668739 9.43056031967 0.519282273407 54.9703073604 0.573983650433 9.39132069953 0.573369668739 9.43056031967 0.584627996785 -32.4068835013 0.000324474132956 26.3553436316 0.519429680345 -125.065403798 0.519282273407 54.9703073604 0.000324474132956 26.3553436319 0.678629959852 65.3683621626
10.575 0.633342788849 -135.338794002 0.0563137673527 6.97971924343 0.571155251283 5.1806628834 0.51912170787 -127.564344594 0.0563137673527 6.97971924343 0.634013836997 -135.276454268 0.570545337801 5.2196398406 0.518973244831 52.4713524245 0.571155251283 5.1806628834 0.570545337801 5.2196398406 0.590135226129 -37.6384309226 0.000321315493772 22.7239081087 0.51912170787 -127.564344594 0.518973244831 52.4713524245 0.00032131549377 22.7239081093 0.679101848278 63.1221958152
10.6 0.636411376706 -138.281642545 0.0529557793033 4.34512694347 0.568337089842 0.979422450161 0.518815178434 -130.061033533 0.0529557793033 4.34512694347 0.637073756116 -138.21940231 0.567731045813 1.01813138502 0.518665755912 49.974649454 0.568337089842 0.979422450162 0.567731045813 1.01813138502 0.595545369853 -42.8481532106 0.000318262992341 19.1153871605 0.518815178434 -130.061033533 0.518665755912 49.974649454 0.000318262992338 19.1153871611 0.679570852091 60.8772335855
10.625 0.639422895624 -141.226297667 0.0496004811503 1.84288228481 0.565531047916 -3.21259360752 0.518510149275 -132.555535199 0.0496004811503 1.84288228481 0.64007689286 -141.164172331 0.564928670597 -3.17415768143 0.518359864257 47.4801339291 0.565531047916 -3.21259360752 0.564928670597 -3.17415768143 0.60085780164 -48.0365969185 0.000315316943139 15.5290455852 0.518510149275 -132.555535199 0.518359864257 47.4801339291 0.000315316943136 15.5290455858 0.680036893744 58.6334304761
10.65 0.642376446014 -144.172691646 0.0462514740445 -0.499468450552 0.562738952478 -7.39559007098 0.518206677904 -135.047914474 0.0462514740445 -0.499468450554 0.643022343885 -144.110695302 0.562140035359 -7.35743176654 0.518055628254 44.9877410751 0.562738952478 -7.39559007098 0.562140035359 -7.35743176654 0.606072039536 -53.204307612 0.000312477308214 11.9641132525 0.518206677904 -135.047914474 0.518055628254 44.9877410751 0.000312477308211 11.9641132528 0.680499895246 56.3907416674
10.675 0.64527121606 -147.120767196 0.0429133875664 -2.64602564647 0.559962572701 -11.5697837308 0.51790482217 -137.538236588 0.0429133875664 -2.64602564647 0.645909292931 -147.058912574 0.559366905713 -11.5319072887 0.517753107209 42.4974058085 0.559962572701 -11.5697837308 0.559366905713 -11.5319072887 0.611187740649 -58.351829991 0.000309743687562 8.41978970968 0.51790482217 -137.538236588 0.517753107209 42.4974058085 0.000309743687561 8.41978970955 0.680959778008 54.1491225128
10.7 0.648106477715 -150.070478175 0.0395923315007 -4.54927547163 0.557203617334 -15.7354036397 0.517604640329 -140.026567176 0.0395923315007 -4.54927547164 0.648737006814 -150.008776588 0.556610987046 -15.6978129316 0.517452361482 40.00906268 0.557203617334 -15.7354036397 0.556610987046 -15.6978129316 0.616204695628 -63.4797079915 0.000307115310098 4.89524937452 0.517604640329 -140.026567176 0.517452361482 40.00906268 0.000307115310099 4.89524937384 0.681416462686 51.9085285344
10.725 0.650881582361 -153.02179029 0.036296585354 -6.14529210379 0.554463732411 -19.8926913895 0.517306191122 -142.512972333 0.036296585354 -6.14529210379 0.651504831063 -152.960251594 0.553873922223 -19.8553899241 0.517153452637 37.522645816 0.554463732411 -19.8926913895 0.553873922223 -19.8553899241 0.621122823052 -68.5884848752 0.000304591025229 1.38964733718 0.517306191122 -142.512972333 0.517153452637 37.522645816 0.000304591025231 1.38964733585 0.68186986901 49.6689154201
10.75 0.653595956163 -155.974681823 0.0330376742682 -7.34659380142 0.551744499263 -24.0419014209 0.517009533855 -144.997518672 0.0330376742682 -7.34659380142 0.65421218527 -155.91331438 0.551157289581 -24.0048923513 0.516856443584 35.0380888562 0.551744499263 -24.0419014209 0.551157289581 -24.0048923513 0.625942163812 -73.6787033077 0.000302169295074 -2.09787420462 0.517009533855 -144.997518672 0.516856443584 35.0380888562 0.000302169295078 -2.09787420664 0.682319915614 47.4302390215
10.775 0.656249095168 -158.92914437 0.0298320860145 -8.03144754695 0.549047432817 -28.1833013733 0.516714728483 -147.480273382 0.0298320860145 -8.03144754694 0.656858558172 -158.86795502 0.548462601216 -28.1465875082 0.516561398747 32.5553248887 0.549047432817 -28.1833013733 0.548462601216 -28.1465875082 0.630662875579 -78.7509054318 0.000299848187434 -5.56817884857 0.516714728483 -147.480273382 0.516561398747 32.5553248887 0.00029984818744 -5.5681788512 0.682766519854 45.1924553522
10.8 0.658840560186 -161.885183612 0.0267040677761 -8.0280054422 0.546373980147 -32.3171724843 0.516421835701 -149.961304296 0.0267040677761 -8.02800544219 0.659443502511 -161.824177655 0.54579130152 -32.2807563013 0.516268384219 30.0742863816 0.546373980147 -32.3171724843 0.54579130152 -32.2807563013 0.635285227444 -83.8056329369 0.000297625369636 -9.02212819803 0.516421835701 -149.961304296 0.516268384219 30.0742863816 0.000297625369643 -9.02212820106 0.683209597615 42.9555205878
10.825 0.661369971472 -164.842820126 0.023690243884 -7.09179433411 0.543725519253 -36.4438100484 0.516130917043 -152.440679955 0.023690243884 -7.0917943341 0.661966629699 -164.782001316 0.543144765946 -36.4076937105 0.515977467941 27.5949051113 0.543725519253 -36.4438100484 0.543144765946 -36.4076937105 0.639809594791 -88.8434271272 0.000295498103435 -12.4605733462 0.516130917043 -152.440679955 0.515977467941 27.5949051113 0.000295498103442 -12.4605733493 0.683649063112 40.7193910668
10.85 0.663837003229 -167.80209026 0.0208472060816 -4.87799797349 0.541103358038 -40.5635239442 0.51584203498 -154.918469678 0.0208472060816 -4.87799797348 0.664427604303 -167.741460798 0.540524299969 -40.5277093198 0.515688719885 25.117112086 0.541103358038 -40.5635239442 0.540524299969 -40.5277093198 0.644236454458 -93.8648289902 0.000293463241217 -15.8843455986 0.51584203498 -154.918469678 0.515688719885 25.117112086 0.000293463241221 -15.8843456012 0.684084828679 38.4840232918
10.875 0.66624137794 -170.763047058 0.0182633890176 -0.922905711822 0.538508733453 -44.6766392425 0.515555253039 -157.394743637 0.0182633890176 -0.922905711826 0.666826138349 -170.702607604 0.537931138208 -44.6411279291 0.515402212241 22.6408374661 0.538508733453 -44.6766392425 0.537931138208 -44.6411279291 0.648566380225 -98.8703792651 0.000291517223762 -19.2942463957 0.515555253039 -157.394743637 0.515402212241 22.6408374661 0.000291517223763 -19.2942463971 0.684516804541 36.2493739331
10.9 0.668582860526 -173.725761282 0.0160746846151 5.31063452357 0.535942810769 -48.7834969061 0.515270635912 -159.869572933 0.0160746846151 5.31063452353 0.669161985451 -173.665510974 0.535366443681 -48.7482902579 0.515118019625 20.1660104791 0.535942810769 -48.7834969061 0.535366443681 -48.7482902579 0.652800038654 -103.86061851 0.000289656079901 -22.6910363976 0.515270635912 -159.869572933 0.515118019625 20.1660104791 0.000289656079895 -22.691036397 0.684944898578 34.0153998327
10.925 0.67086125229 -176.690322526 0.0144740458969 14.1897243639 0.533406682947 -52.8844545941 0.514988249584 -162.343029683 0.0144740458969 14.1897243638 0.671434934736 -176.630259007 0.532831307156 -52.8495537543 0.514836219294 17.6925593295 0.533406682947 -52.8844545941 0.532831307156 -52.8495537543 0.656938185276 -108.836087168 0.000287875428358 -26.0754236887 0.514988249584 -162.343029683 0.514836219294 17.6925593295 0.000287875428342 -26.0754236851 0.685369016071 31.78205801
10.95 0.673076384637 -179.656840446 0.013684026025 25.3543753916 0.530901370072 -56.9798875842 0.514708161468 -164.8151871 0.013684026025 25.3543753915 0.673644804517 -179.596959905 0.530326746561 -56.9452935221 0.514556891374 15.2204111039 0.530901370072 -56.9798875842 0.530326746561 -56.9452935221 0.660981661136 -113.797325625 0.000286170482114 -29.4480510605 0.514708161467 -164.8151871 0.514556891374 15.2204111039 0.000286170482086 -29.4480510528 0.685789059424 29.5493056686
10.975 0.675228112486 177.374553877 0.0138597759747 37.2753128512 0.528427818816 -61.0701898286 0.514430440544 -167.286119591 0.0138597759747 37.2753128509 0.675791435675 177.434256657 0.527853706418 -61.0359033819 0.514280119106 12.7494916694 0.528427818816 -61.0701898286 0.527853706418 -61.0359033819 0.664931389642 -118.744874257 0.000284536055521 -32.8094823276 0.514430440544 -167.286119591 0.514280119106 12.7494916694 0.000284536055478 -32.8094823148 0.686204927878 27.3171002058
11 0.677316307312 174.403706421 0.0149834128146 47.9218632782 0.525986901884 -65.155775157 0.514155157513 -169.755902854 0.0149834128145 47.9218632779 0.677874684656 174.463237996 0.52541305727 -65.1217970803 0.514005989108 10.2797255656 0.525986901884 -65.155775157 0.52541305727 -65.1217970803 0.668788373697 -123.679273465 0.000282966574288 -36.1601876282 0.514155157513 -169.755902854 0.514005989108 10.2797255656 0.000282966574228 -36.1601876095 0.686616517192 25.0853992226
11.025 0.679340849708 171.430438521 0.0168825004107 56.080232241 0.523579417417 -69.2370786465 0.513882384953 -172.224613981 0.0168825004106 56.0802322407 0.679894415986 171.489806717 0.52300559505 -69.2034096664 0.513734591653 7.81103588962 0.523579417417 -69.2370786465 0.52300559505 -69.2034096664 0.672553693045 -128.601063683 0.000281456088224 -39.5005276567 0.513882384953 -172.224613981 0.513734591653 7.81103588963 0.000281456088147 -39.5005276317 0.687023719312 22.8541605372
11.05 0.681301621344 168.454544987 0.0193454354874 61.6569992155 0.521206088307 -73.314558174 0.513612197493 -174.69233157 0.0193454354873 61.6569992152 0.68185049417 168.513758803 0.520632040372 -73.2811990517 0.513466020973 5.34334417365 0.521206088307 -73.314558174 0.520632040372 -73.2811990517 0.676228501761 -133.510785354 0.000279998286283 -42.8307367716 0.513612197493 -174.69233157 0.513466020973 5.34334417365 0.000279998286188 -42.8307367404 0.687426422003 20.6233421998
11.075 0.683198496159 165.475791972 0.0222005380101 65.1085324221 0.518867561392 -77.3886961732 0.513344671989 -177.159135842 0.02220053801 65.1085324218 0.683742774823 165.534861486 0.518293037682 -77.3556477745 0.513200375586 2.8765702533 0.518867561392 -77.3886961732 0.518293037682 -77.3556477745 0.679814025804 -138.408978868 0.00027858651288 -46.1509049193 0.513344671989 -177.159135842 0.513200375586 2.87657025331 0.000278586512769 -46.150904883 0.68782450847 18.3929025111
11.1 0.685031330586 162.493914607 0.0253306316743 66.9641461635 0.516564406479 -81.4600016155 0.51307988772 -179.625108771 0.0253306316741 66.9641461633 0.685571094819 162.552850847 0.515989154258 -81.4272649909 0.51293775864 0.410632127441 0.516564406479 -81.4600016155 0.515989154258 -81.4272649909 0.683311560525 -143.296184445 0.000277213783668 -49.4609583222 0.51307988772 -179.625108771 0.51293775864 0.410632127449 0.000277213783549 -49.4609582833 0.688217856939 16.1628000439
11.125 0.686799952599 159.508614339 0.0286608878046 67.6547181621 0.514297115165 -85.5290122401 0.512817926584 177.909665788 0.0286608878045 67.654718162 0.687335261244 159.567429152 0.513720878983 -85.4965887143 0.512678278299 -2.05455419246 0.514297115165 -85.5290122401 0.513720878983 -85.4965887143 0.686722468041 -148.172941958 0.000275872797788 -52.7606389076 0.512817926584 177.909665788 0.512678278299 -2.05455419246 0.000275872797672 -52.7606388703 0.688606340221 13.9329936676
11.15 0.688504149269 156.519555955 0.0321444751312 67.4943911056 0.512066099411 -89.5962970575 0.512558873316 175.445101947 0.0321444751311 67.4943911055 0.689035038855 156.578261847 0.511488620881 -89.5641883305 0.512422048154 -4.51907484386 0.512066099411 -89.5962970575 0.511488620881 -89.5641883305 0.690048174344 -153.039790675 0.000274555941957 -56.049482529 0.512558873316 175.445101947 0.512422048154 -4.51907484386 0.000274555941864 -56.0494824998 0.688989825249 11.7034425777
11.175 0.690143652528 153.52636425 0.0357522695816 66.7046482645 0.509871689818 -93.6624591546 0.51230281571 172.98111164 0.0357522695816 66.7046482645 0.690670135718 153.584974207 0.509292707346 -93.6306674154 0.512169187671 -6.98301828673 0.509871689818 -93.6624591546 0.509292707346 -93.6306674154 0.693290166036 -157.897268909 0.000273255279506 -59.326796208 0.51230281571 172.98111164 0.512169187671 -6.98301828673 0.000273255279465 -59.3267961958 0.689368172596 9.47410632996
11.2 0.691718122733 150.528620301 0.039466390005 65.4411709614 0.50771413356 -97.7281388316 0.512049844858 170.517604451 0.039466390005 65.4411709615 0.69224018662 150.587147585 0.507133382024 -97.6966668858 0.511919822678 -9.44647549033 0.50771413356 -97.7281388316 0.507133382024 -97.6966668858 0.696449986567 -162.745913569 0.00027196251438 -62.5916349814 0.512049844858 170.517604451 0.511919822678 -9.44647549034 0.000271962514434 -62.591634998 0.689741235975 7.24494487881
11.225 0.693227129565 147.525857295 0.0432762869827 63.8144436912 0.505593591924 -101.794017104 0.5118000554 168.054487443 0.0432762869829 63.8144436913 0.693744733793 147.584315216 0.505010802303 -101.762868518 0.511674085898 -11.9095401344 0.505593591923 -101.794017104 0.505010802303 -101.762868518 0.699529231846 -167.586259583 0.000270668916204 -65.8427796451 0.5118000554 168.054487443 0.511674085898 -11.9095401344 0.000270668916416 -65.8427797051 0.69010886172 5.01591862221
11.25 0.694670129731 144.517555871 0.0471763853412 61.9040171724 0.503510137402 -105.860819607 0.511553545787 165.591664971 0.0471763853416 61.9040171725 0.695183204404 144.575957524 0.502925036338 -105.829998868 0.511432117534 -14.372308826 0.503510137402 -105.860819608 0.502925036338 -105.829998868 0.702529545109 -172.418839182 0.000269365187754 -69.0787180023 0.511553545787 165.591664971 0.511432117534 -14.372308826 0.000269365188209 -69.0787181224 0.69047088828 2.78698845181
11.275 0.696046440805 141.503138916 0.0511646537168 59.7680764597 0.501463750269 -109.929320942 0.511310418556 163.129038473 0.0511646537174 59.7680764599 0.696554884136 141.561496884 0.500876059567 -109.898833641 0.511194065905 -16.8348813339 0.501463750269 -109.929320942 0.500876059567 -109.898833641 0.705452610915 -177.244181038 0.000268041251414 -72.2976345869 0.511310418556 163.129038473 0.511194065905 -16.8348813339 0.000268041252226 -72.2976347843 0.690827145697 0.558115809412
11.3 0.697355210463 138.481965749 0.0552417326171 57.4498331239 0.49945431458 -114.000349508 0.511070780623 160.666506263 0.0552417326179 57.4498331241 0.697858886111 138.540291766 0.498863750636 -113.970202544 0.510960088146 -19.2973608414 0.49945431458 -114.000349508 0.498863750636 -113.970202544 0.708300148176 177.937190778 0.000266685928445 -75.4974179032 0.511070780624 160.666506263 0.510960088146 -19.2973608414 0.000266685929758 -75.4974181926 0.691177455113 -1.67073725047
11.325 0.698595380205 135.453325636 0.0594104072878 54.981828169 0.497481613515 -118.074792874 0.510834743588 158.203963297 0.059410407289 54.9818281693 0.699094114235 135.511630206 0.49688788666 -118.044994683 0.510730350977 -21.7598542203 0.497481613514 -118.074792874 0.49688788666 -118.044994683 0.711073902093 173.12475802 0.000265286489157 -78.6757008493 0.510834743588 158.203963297 0.510730350977 -21.7598542203 0.000265286491142 -78.6757012378 0.691521628295 -3.89960799211
11.35 0.699765642508 132.416430544 0.0636753010363 52.3888653763 0.495545323977 -122.153603739 0.510602424049 155.741300921 0.0636753010378 52.3888653765 0.700259219893 132.474722507 0.494948137737 -122.124164554 0.510505031547 -24.2224723274 0.495545323976 -122.153603739 0.494948137738 -122.124164554 0.713775634931 168.318009695 0.000263828073859 -81.8299599576 0.51060242405 155.741300921 0.510505031547 -24.2224723274 0.000263828076687 -81.8299604376 0.691859467188 -6.12853292435
11.375 0.700864390149 129.37040707 0.0680427161124 49.690040218 0.49364501036 -126.237806547 0.510373943945 153.278406612 0.0680427161142 49.6900402182 0.701352550704 129.428693105 0.493044060615 -126.208738687 0.510284318365 -26.6853303258 0.49364501036 -126.237806547 0.493044060615 -126.208738687 0.716407115535 163.516443712 0.000262293042889 -84.9577120924 0.510373943946 153.278406612 0.510284318365 -26.6853303259 0.00026229304669 -84.9577126327 0.692190763524 -8.3575477213
11.4 0.701889656199 126.314287426 0.0725205793629 46.9001640396 0.491780117363 -130.328504821 0.510149430899 150.815163689 0.0725205793649 46.9001640398 0.702372089845 126.37257149 0.491175091393 -130.299823023 0.510068412326 -29.148548034 0.491780117363 -130.328504821 0.491175091393 -130.299823023 0.718970107539 158.719568758 0.000260660438868 -88.0568593793 0.5101494309 150.815163689 0.510068412326 -29.1485480341 0.000260660443635 -88.0568599181 0.692515298468 -10.5866871387
11.425 0.702839042936 123.246999393 0.0771184680195 44.0307778717 0.489949961727 -134.426889299 0.509929018587 148.351451011 0.0771184680217 44.0307778719 0.703315384125 123.30528208 0.489340537142 -134.398611085 0.509857527845 -31.6122503042 0.489949961726 -134.426889299 0.489340537142 -134.398611085 0.721466356228 153.926906428 0.00025890596576 -91.1262318763 0.509929018588 148.351451012 0.509857527844 -31.6122503043 0.000258905971195 -91.1262323238 0.692832842324 -12.815984927
11.45 0.703709637542 120.167355123 0.0818477023866 41.0908833178 0.488153722755 -138.534246946 0.509712847119 145.887142647 0.0818477023885 41.090883318 0.704179458668 120.225632928 0.487539566286 -138.506393045 0.509651894104 -34.0765674345 0.488153722754 -138.534246946 0.487539566286 -138.506393045 0.723897574024 149.137993601 0.000257003197073 -94.1663351942 0.509712847119 145.887142647 0.509651894104 -34.0765674346 0.000257003202388 -94.1663354578 0.6931431543 -15.0454737414
11.475 0.704497912093 117.074038652 0.086721499821 38.0874751472 0.486390431443 -142.651970949 0.509501063438 143.422107526 0.0867214998223 38.0874751473 0.704960715665 117.132303135 0.485771197582 -142.62456577 0.509451756444 -36.5416356169 0.486390431443 -142.651970949 0.485771197583 -142.62456577 0.726265424625 144.352385088 0.000254926968509 -97.1801849993 0.509501063438 143.422107526 0.509451756444 -36.5416356169 0.000254926972246 -97.1801850512 0.693445982323 -17.2751850512
11.5 0.70519960483 113.965591988 0.091755189975 35.0259325247 0.484658958033 -146.781571798 0.509293821737 140.95620906 0.091755189975 35.0259325248 0.705654814128 114.023828818 0.4840342875 -146.754643967 0.50925737789 -39.007597425 0.484658958033 -146.781571798 0.4840342875 -146.754643967 0.728571505815 139.569656546 0.00025265966731 -100.173878471 0.509293821737 140.95620906 0.50925737789 -39.007597425 0.000252659667342 -100.173878468 0.693741062911 -19.5051490483
