! Generated from PyAEDT SolutionData; AEDT ExportNetworkData workaround
# GHz S MA R 50
9 0.42004202441 10.8614556299 0.280491743987 -65.219315917 0.587092388738 -13.7421792235 0.632622799439 43.9752174703 0.280491743987 -65.219315917 0.417993678704 11.025810408 0.587239218335 -13.8113979011 0.633842067527 -136.152488452 0.587092388738 -13.7421792235 0.587239218335 -13.8113979011 0.557198804941 170.764208732 0.0014557841891 -112.33987064 0.632622799439 43.9752174703 0.633842067527 -136.152488452 0.0014557841891 -112.33987064 0.445006188445 -140.856153012
9.025 0.418316713538 7.83975211093 0.280027567197 -68.8274990472 0.588953210888 -18.3156206844 0.63224219589 41.1059507256 0.280027567197 -68.8274990472 0.416243443114 8.00808558799 0.589096892427 -18.3834909404 0.63347548853 -139.022432588 0.588953210888 -18.3156206844 0.589096892427 -18.3834909404 0.553264159663 164.89360748 0.00146720961399 -117.108183896 0.63224219589 41.1059507256 0.63347548853 -139.022432588 0.00146720961395 -117.108183895 0.44606779366 -143.506396439
9.05 0.416642957086 4.82900564867 0.279601689325 -72.4184143323 0.590752289447 -22.8744834292 0.631857388506 38.2444553399 0.279601689325 -72.4184143323 0.414544293658 5.0012367184 0.59089294568 -22.9410014732 0.633104991384 -141.884617886 0.590752289447 -22.8744834292 0.59089294568 -22.9410014732 0.549418455185 159.040107737 0.00147867399831 -121.873954801 0.631857388506 38.2444553399 0.633104991384 -141.884617886 0.00147867399826 -121.8739548 0.447137726734 -146.151493672
9.075 0.415018327549 1.82872293607 0.279214446749 -75.9925966239 0.592492316024 -27.4189050739 0.631468413786 35.3905895194 0.279214446749 -75.9925966239 0.412893795332 2.0047635148 0.592630076148 -27.4840677787 0.632730602846 -144.739187865 0.592492316024 -27.4189050739 0.592630076148 -27.4840677787 0.545660269092 153.204099815 0.00149017613014 -126.637250304 0.631468413786 35.3905895194 0.632730602846 -144.739187865 0.00149017613009 -126.637250303 0.448215825092 -148.791543974
9.1 0.413440280672 -1.161554407 0.278866050663 -79.5505893177 0.594175990751 -31.9490347721 0.631075306202 32.5442147997 0.278866050663 -79.5505893177 0.411289398402 -0.981799051905 0.594310989902 -32.0128396958 0.632352346502 -147.586282652 0.594175990751 -31.9490347721 0.594310989902 -32.0128396958 0.541987547809 147.385934096 0.00150171488364 -131.398137777 0.631075306202 32.5442147997 0.632352346502 -147.586282652 0.00150171488361 -131.398137776 0.449301932369 -151.426644329
9.125 0.411906181309 -4.14224984631 0.278556587727 -83.0929416281 0.595806015828 -36.4650326525 0.63067809844 29.7051959317 0.278556587727 -83.0929416281 0.409728464322 -3.95888077703 0.595938394565 -36.5274780593 0.631970242998 -150.426039092 0.595806015828 -36.4650326525 0.595938394565 -36.5274780593 0.538397706222 141.585920478 0.00151328922761 -136.156684866 0.63067809844 29.7051959317 0.631970242998 -150.426039092 0.0015132892276 -136.156684865 0.450395898233 -154.056889511
9.15 0.410413327008 -7.11375210294 0.278286021639 -86.6202059803 0.59738508897 -40.9670692961 0.63027682159 26.8734007697 0.278286021639 -86.6202059803 0.408208289352 -6.92687639964 0.597514992741 -41.0281541771 0.631584310253 -153.258590851 0.59738508897 -40.9670692961 0.597514992741 -41.0281541771 0.534887716331 135.804327651 0.00152489823218 -140.912959399 0.63027682159 26.8734007697 0.631584310253 -153.258590851 0.00152489823218 -140.912959398 0.451497578198 -156.682372159
9.175 0.408958969531 -10.0764154612 0.278054195514 -90.132935537 0.598915896795 -45.4553252473 0.629871505299 24.0487001638 0.278054195514 -90.132935537 0.406726126084 -9.88614591712 0.599043475401 -45.5150493398 0.631194563636 -156.084068516 0.598915896795 -45.4553252473 0.599043475401 -45.5150493398 0.531454185525 130.041382311 0.00153654107388 -145.667029335 0.629871505299 24.0487001638 0.631194563636 -156.084068516 0.00153654107388 -145.667029335 0.452606833451 -159.303182851
9.2 0.407540334469 -13.0305601983 0.277860834933 -93.6316818694 0.600401108238 -49.9299905479 0.629462177897 21.2309678541 0.277860834933 -93.6316818694 0.40527920306 -12.8370150199 0.600526515278 -49.9883543548 0.630801016126 -158.902599696 0.600401108238 -49.9299905479 0.600526515278 -49.9883543548 0.528093425177 124.297268375 0.00154821703898 -150.418962754 0.629462177897 21.2309678541 0.630801016126 -158.902599696 0.00154821703899 -150.418962754 0.453723530675 -161.919410167
9.225 0.406154639144 -15.9764731203 0.277705551542 -97.1169927799 0.601843368026 -54.3912642908 0.629048866482 18.4200803698 0.277705551542 -97.1169927799 0.403864742653 -15.7797756322 0.601966760333 -54.4482690979 0.630403678448 -161.714309111 0.601843368026 -54.3912642908 0.601966760333 -54.4482690979 0.52480151037 118.572126264 0.00155992552545 -155.168827862 0.629048866482 18.4200803698 0.630403678448 -161.714309111 0.00155992552547 -155.168827863 0.45484754188 -164.531140765
9.25 0.40479910894 -18.9144081931 0.277587847113 -100.589410282 0.60324529029 -58.8393541862 0.628631597 15.6159169307 0.277587847113 -100.589410282 0.402479977371 -18.7146865448 0.603366827363 -58.8950020786 0.630002559208 -164.519318687 0.60324529029 -58.8393541862 0.603366827363 -58.8950020786 0.521574331559 112.866052307 0.00157166604344 -159.916693023 0.628631597 15.6159169307 0.630002559208 -164.519318687 0.00157166604345 -159.916693024 0.455978744237 -167.138459439
9.275 0.403470992206 -21.8445872552 0.27750711796 -104.049468741 0.604609452357 -63.2744761373 0.628210394279 12.8183593525 0.27750711796 -104.049468741 0.401122164715 -21.6419741306 0.604729295778 -63.3287700147 0.629597664998 -167.317747641 0.604609452357 -63.2744761373 0.604729295778 -63.3287700147 0.518407639039 107.179098306 0.00158343821457 -164.662626785 0.628210394279 12.8183593525 0.629597664998 -167.317747641 0.00158343821458 -164.662626786 0.457117019916 -169.741449187
9.3 0.402167573845 -24.7672008035 0.27746265963 -107.497693173 0.605938388781 -67.6968538216 0.627785282068 10.0272919552 0.27746265963 -107.497693173 0.399788600716 -24.5618331303 0.606056701625 -67.7497974123 0.629189000507 -170.109712566 0.605938388781 -67.6968538216 0.606056701625 -67.7497974123 0.51529708103 101.511271267 0.00159524177019 -169.406697918 0.627785282068 10.0272919552 0.629189000507 -170.109712566 0.0015952417702 -169.406697918 0.458262255929 -172.340191276
9.325 0.400886187708 -27.6824088423 0.277453671806 -110.934597703 0.607234585646 -72.1067182774 0.627356283043 7.24260147502 0.277453671806 -110.934597703 0.398476632272 -27.4744275006 0.60735153189 -72.1583161505 0.628776568613 -172.89532751 0.607234585646 -72.1067182774 0.60735153189 -72.1583161505 0.512238236185 95.8625333438 0.00160707654874 -174.148975435 0.627356283043 7.24260147502 0.628776568613 -172.89532751 0.00160707654873 -174.148975435 0.45941434398 -174.934765296
9.35 0.399624227886 -30.5903417868 0.277479263355 -114.36068418 0.608500475193 -76.504307492 0.626923418813 4.46417697968 0.277479263355 -114.36068418 0.39718366836 -30.3798913169 0.608616219109 -76.554565068 0.628360370485 -175.674704058 0.608500475193 -76.504307492 0.608616219109 -76.554565068 0.509226641283 90.2328019723 0.00161894249229 -178.889528615 0.626923418813 4.46417697968 0.628360370485 -175.674704058 0.00161894249228 -178.889528614 0.460573180316 -177.525249225
9.375 0.398379158988 -33.4911014139 0.277538457465 -117.776440946 0.609738430791 -80.8898659925 0.626486709902 1.69190978672 0.277538457465 -117.776440946 0.395907190243 -33.278329721 0.609853136335 -80.9387895528 0.627940405661 -178.447951404 0.609738430791 -80.8898659925 0.609853136335 -80.9387895528 0.5062578148 84.6219502077 0.0016308396427 176.371573003 0.626486709902 1.69190978672 0.627940405661 -178.447951404 0.00163083964268 176.371573003 0.461738665586 179.888280516
9.4 0.397148525472 -36.3847618534 0.277630196826 -121.182341746 0.610950762276 -85.2636444387 0.626046175736 -1.07430661496 0.277630196826 -121.182341746 0.394644760712 -36.1698199087 0.611064592477 -85.3112411328 0.627516672142 178.784823574 0.610950762276 -85.2636444387 0.611064592477 -85.3112411328 0.503327276998 79.0298072559 0.00164276813719 171.634259628 0.626046175736 -1.07430661496 0.627516672142 178.784823574 0.00164276813716 171.634259629 0.462910704701 177.305749009
9.425 0.395929960118 -39.2713706118 0.277753348823 -124.578844791 0.612139711691 -89.6258992181 0.625601834609 -3.83457664042 0.277753348823 -124.578844791 0.393394032464 -39.0544121493 0.612252828028 -89.6721770698 0.627089166472 176.023516247 0.612139711691 -89.6258992181 0.612252828028 -89.6721770698 0.500430567117 73.4561591813 0.00165472820384 166.898461261 0.625601834609 -3.83457664041 0.627089166472 176.023516247 0.00165472820382 166.898461262 0.464089206708 174.727082782
9.45 0.394721191673 -42.1509496232 0.277906710699 -127.966391944 0.613307449422 -93.9768920446 0.625153703651 -6.58900268109 0.277906710699 -127.966391944 0.392152755653 -41.932130832 0.613420011196 -94.0218599558 0.626657883827 173.268024165 0.613307449422 -93.9768920446 0.613420011196 -94.0218599558 0.497563258162 67.9007497777 0.00166672015697 162.164107743 0.625153703651 -6.58900268109 0.626657883827 173.268024165 0.00166672015695 162.164107744 0.465274084655 172.152209759
9.475 0.393520051758 -45.0234963219 0.278089014663 -131.34540805 0.614456070741 -98.3168895611 0.624701798792 -9.33768517429 0.278089014663 -131.34540805 0.390918784689 -44.8029755312 0.614568234445 -98.3605573143 0.62622281809 170.518246989 0.614456070741 -98.3168895611 0.614568234445 -98.3605573143 0.494720969728 62.3632815791 0.00167874439254 157.431128834 0.624701798792 -9.33768517428 0.62622281809 170.518246989 0.00167874439251 157.431128835 0.466465255473 169.581059208
9.5 0.392324481059 -47.8889847294 0.278298932921 -134.716300373 0.615587592761 -102.646162948 0.624246134715 -12.0807226698 0.278298932921 -134.716300373 0.389690084321 -47.6669220879 0.615699511444 -102.688541206 0.625783961946 167.774086433 0.615587592761 -102.646162948 0.615699511444 -102.688541206 0.491899379254 56.8434169899 0.00169080138383 152.699454312 0.624246134715 -12.0807226698 0.625783961946 167.774086433 0.00169080138381 152.699454313 0.467662639857 167.013561693
9.525 0.391132534865 -50.747366552 0.278535082607 -138.079458161 0.616703951793 -106.964987537 0.62378672481 -14.818211894 0.278535082607 -138.079458161 0.388464735057 -50.5239236999 0.616815774415 -107.006087844 0.625341306955 165.0354462 0.616703951793 -106.964987537 0.616815774415 -107.006087844 0.489094232001 51.340779509 0.00170289167748 147.969014091 0.62378672481 -14.818211894 0.625341306955 165.0354462 0.00170289167746 147.969014092 0.468866162151 164.449649024
9.55 0.389942387987 -53.5985722844 0.278796030599 -141.435252311 0.617807001088 -111.273642436 0.623323581128 -17.5502478108 0.278796030599 -141.435252311 0.387240937976 -53.3739120168 0.617918871877 -111.313477212 0.624894843645 162.302231922 0.617807001088 -111.273642436 0.617918871877 -111.313477212 0.486301350016 45.8549550251 0.00171501588989 143.239738357 0.623323581128 -17.5502478108 0.624894843645 162.302231922 0.00171501588988 143.239738357 0.470075750238 161.889254214
9.575 0.388752339114 -56.4425123127 0.279080298206 -144.784035138 0.618898508967 -115.572410162 0.622856714327 -20.2769236811 0.279080298206 -144.784035138 0.386017018952 -56.2167982353 0.619010566765 -115.610992699 0.624444561592 159.574351103 0.618898508967 -115.572410162 0.619010566765 -115.610992699 0.483516640305 40.3854931583 0.00172717470426 138.511557721 0.622856714327 -20.2769236811 0.624444561592 159.574351103 0.00172717470425 138.511557722 0.471291335436 159.332311432
9.6 0.387560814632 -59.2790780155 0.279386365708 -148.126140236 0.619980157303 -119.861576285 0.622386133624 -22.9983311186 0.279386365708 -148.126140236 0.38479143236 -59.0524741908 0.62009253491 -119.898920738 0.623990449511 156.851713063 0.619980157303 -119.861576285 0.62009253491 -119.898920738 0.480736102355 34.9319086241 0.00173936886821 133.784403397 0.622386133624 -22.9983311186 0.623990449511 156.851713063 0.00173936886821 133.784403397 0.472512852394 156.778755961
9.625 0.386366371952 -62.108142858 0.279712676753 -151.461882421 0.621053540343 -124.141429084 0.621911846741 -25.7145601439 0.279712676753 -151.461882421 0.383562764273 -61.8808134422 0.621166363856 -124.177550466 0.623532495337 154.134228882 0.621053540343 -124.141429084 0.621166363856 -124.177550466 0.477955835138 29.4936825991 0.00175159919215 129.058207383 0.621911846741 -25.7145601439 0.623532495337 154.134228882 0.00175159919215 129.058207383 0.473740238995 154.228524154
9.65 0.385167702396 -64.9295634755 0.280057642578 -154.79155775 0.62212016385 -128.412259221 0.621433859849 -28.4256992366 0.280057642578 -154.79155775 0.382329735229 -64.7016723459 0.622233551994 -128.447173389 0.623070686315 151.421811351 0.62212016385 -128.412259221 0.622233551994 -128.447173389 0.475172043682 24.0702640657 0.00176386654839 124.33290266 0.621433859849 -28.4256992366 0.623070686315 151.421811351 0.0017638665484 124.332902659 0.47497343626 151.681553394
9.675 0.383963633664 -67.7431807465 0.280419646079 -158.115443618 0.623181444535 -132.674359421 0.620952177521 -31.1318353844 0.280419646079 -158.115443618 0.381091202567 -67.5148911181 0.62329550799 -132.708083065 0.622605009084 148.714374915 0.623181444535 -132.674359421 0.62329550799 -132.708083065 0.472381045274 18.6610711175 0.00177617187112 119.608423405 0.620952177521 -31.1318353844 0.622605009084 148.714374915 0.00177617187113 119.608423404 0.476212388256 149.137782058
9.7 0.38275313194 -70.5488208505 0.280797045691 -161.433798898 0.624238709751 -136.928024181 0.620466802674 -33.8330541312 0.280797045691 -161.433798898 0.379846162413 -70.3202948829 0.624353550477 -136.960574808 0.62213544977 146.011835627 0.624238709751 -136.928024181 0.624353550477 -136.960574808 0.469579275325 13.2654922092 0.0017885161572 114.884705208 0.620466802674 -33.8330541312 0.62213544977 146.011835627 0.00178851615721 114.884705208 0.477457042009 146.597149473
9.725 0.38153530366 -73.3462963126 0.281188179102 -164.746864152 0.625293197431 -141.173549481 0.619977736516 -36.529439622 0.281188179102 -164.746864152 0.378593751321 -73.1176947059 0.625408907981 -141.204945402 0.621661994062 143.314111096 0.625293197431 -141.173549481 0.625408907981 -141.204945402 0.466763292933 7.8828873328 0.00180090046786 110.1616853 0.619977736516 -36.529439622 0.621661994062 143.314111096 0.00180090046788 110.161685299 0.478707347411 144.059595884
9.75 0.380309396994 -76.1354070325 0.281591366784 -168.054861874 0.626346056239 -145.411232526 0.619484978499 -39.2210746471 0.281591366784 -168.054861874 0.377333247637 -75.9068886123 0.62646271907 -145.441492833 0.621184627307 140.621120439 0.626346056239 -145.411232526 0.62646271907 -145.441492833 0.463929786139 2.51258911071 0.0018133259314 105.439302783 0.619484978499 -39.2210746471 0.621184627307 140.621120439 0.00181332593142 105.439302782 0.479963257145 141.525062415
9.775 0.37907480308 -78.9159413004 0.282004915337 -171.357996772 0.627398345907 -149.641371497 0.618988526262 -41.9080406831 0.282004915337 -171.357996772 0.376064072614 -78.6876625926 0.627516032682 -149.670516046 0.620703334589 137.932784236 0.627398345907 -149.641371497 0.627516032682 -149.670516046 0.461075576903 -2.84609620936 0.00182579374671 100.717498867 0.618988526262 -41.9080406831 0.620703334589 137.932784236 0.00182579374673 100.717498866 0.481224726594 138.993491036
9.8 0.377831057038 -81.6876768002 0.282427120661 -174.656456086 0.628451037732 -153.864265327 0.618488375581 -44.5904179338 0.282427120661 -174.656456086 0.374785791307 -81.4597915948 0.628569808619 -153.892314713 0.620218100814 135.249024481 0.628451037732 -153.864265327 0.628569808619 -153.892314713 0.458197625781 -8.19388786459 0.00183830518784 95.9962171125 0.618488375581 -44.5904179338 0.620218100814 135.249024481 0.00183830518785 95.9962171117 0.482491713767 136.464824531
9.825 0.37657783882 -84.4503816038 0.282856270945 -177.950409914 0.629505015215 -158.08021349 0.617984520323 -47.2682853676 0.282856270945 -177.950409914 0.373498113314 -84.2230405084 0.629624918176 -158.107189026 0.619728910792 132.56976454 0.629505015215 -158.08021349 0.629624918176 -158.107189026 0.455293036326 -13.5315298013 0.00185086160952 91.2754036712 0.617984520323 -47.2682853676 0.619728910792 132.56976454 0.00185086160953 91.2754036704 0.483764179216 133.939006463
9.85 0.375314973906 -87.2038151594 0.283290649486 178.759988435 0.630561074809 -162.289515815 0.617476952395 -49.9417207546 0.283290649486 178.759988435 0.372200893369 -86.9771651428 0.630682144885 -162.315439503 0.619235749316 129.894929102 0.630561074809 -162.289515815 0.630682144885 -162.315439503 0.452359059217 -18.8597900189 0.0018634644537 86.5550075285 0.617476952395 -49.9417207546 0.619235749316 129.894929102 0.00186346445371 86.5550075278 0.485042085964 131.415981142
9.875 0.374042433909 -89.9477292791 0.283728537335 175.474602092 0.631619926762 -166.492472314 0.616965661695 -52.6108007017 0.283728537335 175.474602092 0.370894131836 -89.7219132047 0.631742185346 -166.51736682 0.618738601242 127.22444414 0.631619926762 -166.492472314 0.631742185346 -166.51736682 0.449393096128 -24.1794600388 0.00187611525706 81.8349807491 0.616965661695 -52.6108007017 0.618738601242 127.22444414 0.00187611525706 81.8349807487 0.486325399426 128.8956936
9.9 0.372760337087 -92.6818691311 0.284168215793 172.193310276 0.632682196031 -170.689383036 0.616450636071 -55.2756006857 0.284168215793 172.193310276 0.369577975135 -92.4570252818 0.632805650141 -170.713271656 0.618237451563 124.558236864 0.632682196031 -170.689383036 0.632805650141 -170.713271656 0.446392703371 -29.4913545005 0.00188881565963 77.1152787219 0.616450636071 -55.2756006857 0.618237451563 124.558236864 0.00188881565963 77.1152787216 0.487614087332 126.378089557
9.925 0.371468948818 -95.4059742431 0.284607968756 168.91600795 0.633748423249 -174.880547935 0.615931861271 -57.936195086 0.284607968756 168.91600795 0.36825271612 -95.1822358381 0.633873064788 -174.903454565 0.617732285484 121.896235684 0.633748423249 -174.880547935 0.633873064788 -174.903454565 0.443355595339 -34.7963108891 0.00190156741444 72.3958604046 0.615931861271 -57.936195086 0.617732285484 121.896235684 0.00190156741444 72.3958604045 0.488908119662 123.863115394
9.95 0.370168682032 -98.1197795258 0.285046084919 165.642605492 0.634819065733 -179.066266759 0.615409320908 -60.592657215 0.285046084919 165.642605492 0.36691879443 -97.8972742298 0.634944870739 -179.088215863 0.617223088496 119.23837016 0.634819065733 -179.066266759 0.634944870739 -179.088215863 0.440279647807 -40.0951893933 0.00191437239832 67.6766885692 0.615409320908 -60.592657215 0.617223088496 119.23837016 0.00191437239832 67.6766885693 0.490207468564 121.350718127
9.975 0.368860097642 -100.823016323 0.285480859874 162.373028389 0.635894498505 176.753161043 0.614882996412 -63.2450593476 0.285480859874 162.373028389 0.365576796846 -100.60186575 0.6360214264 176.732144472 0.616709846437 116.584570971 0.635894498505 176.753161043 0.6360214264 176.732144472 0.437162901144 -45.3888728971 0.00192723262386 62.9577300479 0.614882996412 -63.2450593476 0.616709846437 116.584570971 0.00192723262385 62.9577300482 0.491512108287 118.840845381
10 0.367543904965 -103.515413501 0.285910598093 159.107216955 0.636975015331 172.577436389 0.614352866997 -65.8934727492 0.285910598093 159.107216955 0.364227457636 -103.295732713 0.637103008157 172.557326864 0.616192545568 113.934769865 0.636975015331 172.577436389 0.637103008157 172.557326864 0.434003563501 -50.6782671029 0.00194015025261 58.2389559789 0.614352866997 -65.8934727492 0.616192545568 113.934769865 0.00194015025261 58.2389559793 0.49282201511 116.333445362
10.025 0.366220962154 -106.196698583 0.286333614842 155.845126082 0.638060829754 168.406260623 0.613818909624 -68.5379677029 0.286333614842 155.845126082 0.362871658929 -105.978595586 0.6381898114 168.387032202 0.615671172628 111.288899627 0.638060829754 168.406260623 0.6381898114 168.387032202 0.43080001406 -55.9643007879 0.00195312760964 53.5203420536 0.613818909624 -68.5379677029 0.615671172628 111.288899627 0.00195312760963 53.5203420541 0.494137167269 113.828466838
10.05 0.36489227662 -108.866598947 0.286748238021 152.586725032 0.639152076113 164.239335544 0.613281098967 -71.1786135352 0.286748238021 152.586725032 0.361510431081 -108.650174188 0.639281951533 164.220961876 0.615145714902 108.646894034 0.639152076113 164.239335544 0.639281951533 164.220961876 0.42755080644 -61.2479261908 0.00196616719943 48.8018687646 0.613281098967 -71.1786135352 0.615145714902 108.646894034 0.00196616719943 48.8018687653 0.495457544888 111.325859108
10.075 0.363559005458 -111.52484309 0.287152809982 149.331997268 0.640248810544 160.076363427 0.612739407381 -73.8154786404 0.287152809982 149.331997268 0.360144953052 -111.310188952 0.64037946497 160.058817788 0.614616160273 106.008687817 0.640248810544 160.076363427 0.64037946497 160.058817788 0.424254672337 -66.5301195285 0.00197927172341 44.083521656 0.612739407381 -73.8154786404 0.614616160273 106.008687817 0.0019792717234 44.0835216567 0.496783129905 108.82557199
10.1 0.362222455845 -114.171161977 0.287545689332 146.080940331 0.641351011958 155.917047017 0.612193804876 -76.4486305048 0.287545689332 146.080940331 0.358776552761 -113.95836228 0.641482310097 155.900302361 0.61408249728 103.374216623 0.641351011958 155.917047017 0.641482310097 155.900302361 0.420910525534 -71.8118816423 0.00199244409899 39.3652915747 0.612193804876 -76.4486305048 0.61408249728 103.374216623 0.00199244409898 39.3652915753 0.498113906009 106.327555787
10.125 0.36088408539 -116.805290484 0.287925252752 142.833565777 0.642458582985 151.761089507 0.611644259091 -79.0781357286 0.287925252752 142.833565777 0.357406707402 -116.594419996 0.64259036821 151.745118508 0.613544715173 100.743416979 0.642458582985 151.761089507 0.64259036821 151.745118508 0.41751746636 -77.0942387681 0.00200568748058 34.6471749246 0.611644259091 -79.0781357286 0.613544715173 100.743416979 0.00200568748058 34.6471749252 0.499449858563 103.831761278
10.15 0.359545502402 -119.426968953 0.288289896876 139.589899155 0.643571350885 147.608194501 0.61109073527 -81.7040600483 0.288289896876 139.589899155 0.356037043687 -119.218092904 0.643703444411 147.592969603 0.613002803959 98.1162262498 0.643571350885 147.608194501 0.643703444411 147.592969603 0.414074786734 -82.3782434308 0.00201900528243 29.9291739238 0.61109073527 -81.7040600483 0.613002803959 98.1162262498 0.00201900528243 29.9291739243 0.500790974536 101.33813969
10.175 0.358208466043 -122.035944865 0.288638040237 136.349980054 0.644689068425 143.45806595 0.610533196247 -84.326468357 0.288638040237 136.349980054 0.354669337971 -121.829118482 0.644821268478 143.443559417 0.612456754453 95.4925826012 0.644689068425 143.45806595 0.644821268478 143.443559417 0.410581975904 -87.6649754571 0.00203240120368 25.2112968643 0.610533196247 -84.326468357 0.612456754453 95.4925826012 0.00203240120368 25.2112968647 0.502137242434 98.8466426819
10.2 0.356874886305 -124.631974644 0.288968125346 133.11386221 0.645811414716 139.310408077 0.609971602426 -86.9454247249 0.288968125346 133.11386221 0.353305516215 -124.427242697 0.645943495687 139.296592044 0.61190655832 92.8724249648 0.645811414716 139.310408077 0.645943495687 139.296592044 0.407038726987 -92.9555431011 0.0020458792558 20.493558375 0.609971602426 -86.9454247249 0.61190655832 92.8724249648 0.00204587925579 20.4935583752 0.503488652228 96.3572223269
10.225 0.355546823771 -127.214825611 0.289278620904 129.881613673 0.646937996014 135.164925275 0.609405911771 -89.5609924176 0.289278620904 129.881613673 0.351947653731 -127.012221988 0.647069707602 135.151771802 0.611352208124 90.255692999 0.646937996014 135.164925275 0.647069707602 135.151771802 0.403444944438 -98.2510842762 0.00205944379258 15.775979688 0.609405911771 -89.5609924176 0.611352208124 90.255692999 0.00205944379258 15.7759796881 0.504845195285 93.8698310934
10.25 0.354226489077 -129.784278088 0.28956802422 126.653317044 0.648068346492 131.021321993 0.608836079795 -92.1732339155 0.28956802422 126.653317044 0.350597974636 -129.583825392 0.648199412829 131.008803117 0.610793697363 87.6423270523 0.648068346492 131.021321993 0.648199412829 131.008803117 0.399800752551 -103.552767884 0.00207309954305 11.0585889084 0.608836079795 -92.1732339155 0.610793697363 87.6423270523 0.00207309954305 11.0585889084 0.506206864296 91.3844218285
10.275 0.352916242015 -132.34012768 0.289834863844 123.429069781 0.649201928969 126.879302591 0.608262059555 -94.7822109306 0.289834863844 123.429069781 0.349258850943 -132.141836856 0.649332047735 126.867390384 0.610231020515 85.0322681267 0.649201928969 126.879302591 0.649332047735 126.867390384 0.396106505089 -108.861795226 0.00208685164749 6.34142128715 0.608262059555 -94.7822109306 0.610231020515 85.0322681267 0.00208685164749 6.34142128701 0.507573653201 88.9009477421
10.3 0.351618590186 -134.882187718 0.290077702479 120.208984581 0.650338135613 122.738571182 0.60768380165 -97.3879844245 0.290077702479 120.208984581 0.347932801216 -134.68605772 0.650466977132 122.727237807 0.609664173071 82.4254578404 0.650338135613 122.738571182 0.650466977132 122.727237807 0.392362796153 -114.179401482 0.00210070569698 1.62451949676 0.60768380165 -97.3879844245 0.609664173071 82.4254578404 0.00210070569698 1.62451949652 0.508945557122 86.4193623914
10.325 0.350336187134 -137.410291896 0.290295140206 116.993189829 0.65147628862 118.598831445 0.607101254219 -99.990614624 0.290295140206 116.993189829 0.346622488682 -137.216309394 0.651603494935 118.588049217 0.609093151576 79.821838392 0.65147628862 118.598831445 0.651603494935 118.588049217 0.388570472368 -119.506857238 0.00211466777671 -3.09206608979 0.607101254219 -99.990614624 0.609093151576 79.821838392 0.00211466777671 -3.09206609011 0.51032257229 83.9396196657
10.35 0.349071829834 -139.924297095 0.290485818069 113.781830134 0.652615640864 114.459786416 0.606514362947 -102.590161037 0.290485818069 113.781830134 0.345330718722 -139.732436229 0.652740824796 114.449527859 0.608517953663 77.2213525233 0.652615640864 114.459786416 0.652740824796 114.449527859 0.384730646473 -124.84547003 0.00212874451361 -7.80827711826 0.606514362947 -102.590161037 0.608517953663 77.2213525233 0.00212874451361 -7.80827711861 0.511704695963 81.4616737724
10.375 0.347828455462 -142.424086392 0.290648422076 110.575066935 0.653755376529 110.321138257 0.605923071066 -105.18668247 0.290648422077 110.575066935 0.344060435619 -142.234308582 0.653878120716 110.311376167 0.607938578092 74.623943483 0.653755376529 110.321138257 0.653878120716 110.311376167 0.380844712366 -130.196585871 0.0021429431286 -12.5240469703 0.605923071066 -105.18668247 0.607938578092 74.623943483 0.0021429431286 -12.5240469707 0.513091926363 78.9854792232
10.4 0.346609137326 -144.909572274 0.290781687675 107.373079201 0.654894611738 106.182587984 0.605327319371 -107.780237038 0.290781687675 107.373079201 0.342814718463 -144.72182608 0.655014467642 106.17329549 0.607355024782 72.02955499 0.654894611738 106.182587984 0.655014467642 106.17329549 0.376914361679 -135.561590725 0.00215727149405 -17.2393004797 0.605327319371 -107.780237038 0.607355024782 72.02955499 0.00215727149406 -17.23930048 0.514484262589 76.5109908211
10.425 0.345417079827 -147.380700032 0.290884404748 104.176064207 0.656032395162 102.043835182 0.604727046224 -110.370882184 0.290884404748 104.176064207 0.341596776095 -147.19492109 0.656148882054 102.034985812 0.606767294852 69.4381311969 0.656032395162 102.043835182 0.656148882054 102.034985812 0.372941601903 -140.94191187 0.00217173819699 -21.9539536482 0.604727046224 -110.370882184 0.606767294852 69.4381311969 0.00217173819699 -21.9539536484 0.515881704544 74.0381636476
10.45 0.344255612361 -149.837451346 0.290955423216 100.984238405 0.657167708641 97.9045776758 0.604122187566 -112.958674691 0.290955423216 100.984238405 0.340409940951 -149.653562362 0.657280312555 97.8961454157 0.606175390657 66.849616653 0.657167708641 97.9045776758 0.657280312555 97.8961454157 0.368928776099 -146.339019079 0.00218635260861 -26.6679133623 0.604122187566 -112.958674691 0.606175390657 66.849616653 0.00218635260862 -26.6679133625 0.517284252857 71.5669530508
10.475 0.343128182004 -152.279848045 0.290993659308 97.7978383881 0.658299467808 93.7645111648 0.603512676935 -115.543670696 0.290993659308 97.7978383881 0.3392576617 -152.09775887 0.65840764046 93.7564705295 0.605579315826 64.2639562673 0.658299467808 93.7645111648 0.65840764046 93.7564705295 0.364878584199 -151.754425552 0.002201124961 -31.3810771121 0.603512676935 -115.543670696 0.605579315826 64.2639562673 0.002201124961 -31.3810771122 0.518691908797 69.0973146336
10.5 0.342038344865 -154.707956036 0.290998102593 94.6171219428 0.659426522736 89.6233288245 0.602898445474 -118.1259257 0.290998102593 94.6171219428 0.338143494516 -154.527563816 0.659529680402 89.6156549209 0.604979075306 61.6810952717 0.659426522736 89.6233288245 0.659529680402 89.6156549209 0.360794105875 -157.189688501 0.00221606643162 -36.0933327139 0.602898445474 -118.1259257 0.604979075306 61.6810952717 0.00221606643163 -36.0933327139 0.520104674192 66.6292042428
10.525 0.340989755958 -157.121889368 0.290967823854 91.4423692088 0.660547658613 85.480720859 0.602279421946 -120.705494585 0.290967823854 91.4423692088 0.337071092857 -156.943078777 0.660645180965 85.4733894534 0.604374675407 59.1009791826 0.660547658613 85.480720859 0.660645180965 85.4733894534 0.35667882496 -162.64640927 0.00223118923675 -40.8045580381 0.602279421946 -120.705494585 0.604374675407 59.1009791826 0.00223118923675 -40.804558038 0.521522551339 64.162577958
10.55 0.339986157457 -159.521814439 0.290901983924 88.2738839344 0.661661596455 81.3363740057 0.601655532746 -123.282431626 0.290901983924 88.2738839344 0.336044195597 -159.344457994 0.661752825348 81.3293615913 0.603766123854 56.5235537638 0.661661596455 81.3363740057 0.661752825348 81.3293615913 0.352536655339 -168.126232853 0.00224650673471 -45.5146207461 0.601655532746 -123.282431626 0.603766123854 56.5235537638 0.00224650673471 -45.514620746 0.522945542921 61.6973920816
10.575 0.339031365186 -161.907954291 0.290799843598 85.111994837 0.662766993885 77.1899709854 0.601026701911 -125.856790498 0.290799843598 85.111994837 0.335066613363 -161.73191275 0.662851232078 77.1832548502 0.603153429836 53.9487649873 0.662766993885 77.1899709854 0.662851232078 77.1832548502 0.348371968232 -173.630846667 0.00226203354025 -50.2233780379 0.601026701911 -125.856790498 0.603153429836 53.9487649873 0.00226203354025 -50.2233780377 0.524373651908 59.2336031285
10.6 0.338129253178 -164.280592976 0.290660774753 81.957057069 0.663862445969 73.0411898903 0.600392851125 -128.428624294 0.290660774753 81.957057069 0.334142212918 -164.105715828 0.663938955796 73.0347481861 0.602536604075 51.3765589948 0.663862445969 73.0411898903 0.663938955796 73.0347481861 0.344189620739 -179.161978379 0.00227778565143 -54.9306764153 0.600392851125 -128.428624294 0.602536604075 51.3765589948 0.00227778565143 -54.9306764151 0.525806881463 56.7711678165
10.625 0.337283736166 -166.640079964 0.290484272832 78.8094537887 0.664946486158 68.8897035028 0.599753899721 -130.997985533 0.290484272832 78.8094537887 0.333274899423 -166.466205992 0.66501448811 68.8835153136 0.601915658892 48.8068820573 0.664946486158 68.8897035028 0.66501448811 68.8835153136 0.339994985482 175.278607416 0.00229378059058 -59.6363514657 0.599753899721 -130.997985533 0.601915658892 48.8068820573 0.00229378059058 -59.6363514656 0.527245234842 54.3100430574
10.65 0.336498749823 -168.986834543 0.290269970874 75.6695978353 0.666017587334 64.7351785341 0.59910976468 -133.564926167 0.290269970874 75.6695978353 0.33246859642 -168.813792467 0.66607625856 64.7292239456 0.60129060829 46.2396805347 0.666017587334 64.7351785341 0.66607625856 64.7292239456 0.335793981119 169.689113918 0.00231003756129 -64.3402276721 0.59910976468 -133.564926167 0.60129060829 46.2396805347 0.00231003756129 -64.3402276721 0.528688715291 51.8501859473
10.675 0.335778228594 -171.321350168 0.290017655277 72.5379335047 0.667074162986 60.5772747727 0.598460360613 -136.129497598 0.290017655277 72.5379335047 0.33172722336 -171.148959361 0.667122635704 60.5715349418 0.600661468044 43.6749008341 0.667074162986 60.5772747727 0.667122635704 60.5715349418 0.331593103458 164.067718509 0.00232657762341 -69.0421182579 0.598460360613 -136.129497598 0.600661468044 43.6749008341 0.0023265776234 -69.042118258 0.530137325938 49.3915537584
10.7 0.33512608095 -173.644198721 0.289727283517 69.4149384195 0.668114568564 56.4156441303 0.597805599749 -138.691750682 0.289727283517 69.4149384195 0.331054670491 -173.472269983 0.668151928343 56.4101013544 0.600028255807 41.1124893665 0.668114568564 56.4156441303 0.668151928343 56.4101013544 0.327399456825 158.41258114 0.00234342388872 -73.741825076 0.597805599749 -138.691750682 0.600028255807 41.1124893665 0.00234342388871 -73.7418250762 0.531591069674 46.9341039299
10.725 0.334546161877 -175.95603462 0.289399004089 66.3011254838 0.669137103007 52.2499295675 0.597145391898 -141.251735739 0.289399004089 66.3011254838 0.330454770941 -175.784371001 0.669162386935 52.2445673542 0.59939099124 38.5523925023 0.669137103007 52.2499295675 0.669162386935 52.2445673542 0.323220785242 152.721855028 0.00236060174003 -78.4391385538 0.597145391898 -141.251735739 0.59939099124 38.5523925023 0.00236060174002 -78.4391385542 0.533049949043 44.4777940603
10.75 0.334042242429 -178.25759874 0.289033178944 63.1970449085 0.670140010511 48.0797638835 0.596479644406 -143.809502559 0.289033178944 63.1970449085 0.329931269799 -178.085996393 0.670152205207 48.0745670195 0.598749696146 35.9945565253 0.670140010511 48.0797638835 0.670152205207 48.0745670195 0.319065502897 146.99370008 0.0023781390771 -83.1338377101 0.596479644406 -143.809502559 0.598749696146 35.9945565253 0.00237813907709 -83.1338377105 0.534513966108 42.0225818983
10.775 0.333617976151 179.450277923 0.288630408752 60.1032862873 0.671121482551 43.9047683469 0.595808262097 -146.365100412 0.288630408752 60.1032862873 0.329487790001 179.622028874 0.671119522004 43.8997229676 0.598104394646 33.4389275839 0.671121482551 43.9047683469 0.671119522004 43.8997229676 0.314942723251 141.226299411 0.00239606659318 -87.8256902608 0.595808262097 -146.365100412 0.598104394646 33.4389275839 0.00239606659317 -87.8256902612 0.535983122329 39.5684253352
10.8 0.333276862179 177.166670886 0.288191561358 57.0204806971 0.672079660207 39.7245511433 0.59513114719 -148.918578047 0.288191561358 57.0204806971 0.329127794831 177.338785491 0.672062423419 39.7196448012 0.597455113369 30.8854516405 0.672079660207 39.7245511433 0.672062423419 39.7196448012 0.310862286013 135.41787941 0.00241441808674 -92.514452836 0.59513114719 -148.918578047 0.597455113369 30.8854516405 0.00241441808673 -92.5144528363 0.537457418422 37.1152823965
10.825 0.333022204824 174.890559154 0.287717803858 53.9493027892 0.673012636826 35.5387056092 0.594448199201 -151.469983702 0.287717803858 53.9493027892 0.328854546829 175.063256821 0.672978945227 35.5339273416 0.596801881686 28.3340744171 0.673012636826 35.5387056092 0.672978945227 35.5339273416 0.30683478107 129.566733769 0.00243323081368 -97.1998713363 0.594448199201 -151.469983702 0.596801881686 28.3340744171 0.00243323081368 -97.1998713362 0.538936854209 34.6631112334
10.85 0.332857069426 172.620822599 0.287210638759 50.8904728248 0.673918461073 31.3468082167 0.593759314816 -154.019365097 0.287210638759 50.8904728248 0.328671062891 172.794326341 0.673867075668 31.3421486134 0.596144731966 25.7847413385 0.673918461073 31.3468082167 0.673867075668 31.3421486134 0.302871568283 123.671251919 0.00245254588602 -101.881681458 0.593759314816 -154.019365097 0.596144731966 25.7847413385 0.00245254588603 -101.881681458 0.540421428476 32.2118701151
10.875 0.332784234256 170.356239748 0.286671944789 47.8447586024 0.674795140399 27.1484162679 0.593064387732 -156.566769439 0.286671944789 47.8447586024 0.328580065346 170.530775535 0.674724758612 27.1438675376 0.595483699898 23.2373974699 0.674795140398 27.1484162679 0.674724758612 27.1438675376 0.29898479193 117.729952265 0.00247240872442 -106.55960943 0.593064387732 -156.566769439 0.595483699898 23.2373974699 0.00247240872445 -106.559609429 0.541911138799 29.7615174193
10.9 0.332806138251 168.09548602 0.286104022971 44.8129772031 0.675640644973 22.9430652483 0.59236330847 -159.112243415 0.286104022971 44.8129772031 0.328583928771 168.271282278 0.67554989713 22.9386212837 0.594818824844 20.6919874505 0.675640644973 22.9430652483 0.67554989713 22.9386212837 0.295187388361 111.741520563 0.00249286957285 -111.233373004 0.59236330847 -159.112243415 0.594818824844 20.6919874505 0.0024928695729 -111.233373002 0.543405981381 27.3120116244
10.925 0.332924824313 165.837132412 0.285509648712 41.7959964694 0.676452912108 18.7302657806 0.591655964141 -161.655833185 0.285509648712 41.7959964694 0.328684622279 166.014419695 0.676340357508 18.7259222224 0.594150150269 18.1484554205 0.676452912108 18.7302657806 0.676340357508 18.7259222224 0.291493085304 105.704853711 0.00251398408543 -115.902682756 0.591655964141 -161.655833185 0.594150150269 18.1484554205 0.00251398408552 -115.902682752 0.544905950858 24.8633112995
10.95 0.333141877907 163.579644607 0.284892130757 38.7947361091 0.677229851191 14.5095001088 0.590942238167 -164.197584365 0.284892130757 38.7947361091 0.328883647012 163.7586555 0.677093973694 14.5052544078 0.593477724228 15.6067449409 0.67722985119 14.5095001088 0.677093973694 14.5052544078 0.287916391091 99.619109052 0.00253581399726 -120.567243765 0.590942238167 -164.197584365 0.593477724228 15.6067449409 0.00253581399738 -120.56724376 0.546411040114 22.4153750956
10.975 0.333458360628 161.32138246 0.284255378013 35.8101682904 0.677969349136 10.2802180275 0.590222009952 -166.737542013 0.284255378013 35.8101682904 0.329181968502 161.502351758 0.677808552194 10.2760695053 0.592801599939 13.0667989048 0.677969349136 10.2802180275 0.677808552194 10.2760695053 0.284472571939 93.4837591643 0.00255842789301 -125.22675775 0.590222009952 -166.737542013 0.592801599939 13.0667989048 0.00255842789319 -125.226757743 0.547921240058 19.9681617351
11 0.333874738385 159.060599772 0.283603975457 32.8433175672 0.678669276339 6.04183215789 0.589495154483 -169.275750603 0.283603975457 32.8433175672 0.329579943514 159.243764979 0.678481877362 6.03778206473 0.592121836454 10.5285594378 0.678669276339 6.04183215787 0.678481877362 6.03778206475 0.281177615359 87.2986518245 0.00258190209028 -129.880925746 0.589495154483 -169.275750603 0.592121836454 10.5285594378 0.00258190209051 -129.880925737 0.549436539408 17.5216300019
11.025 0.334390803716 156.795444223 0.28294327056 29.8952599323 0.679327493062 1.79371244942 0.588761541853 -171.81225399 0.28294327056 29.8952599323 0.330077240907 156.981046433 0.679111717017 1.78976401966 0.591438499433 7.99196778649 0.679327493062 1.79371244941 0.679111717017 1.78976401968 0.278048177704 81.0640745897 0.00260632165728 -134.529451448 0.588761541853 -171.81225399 0.591438499434 7.99196778646 0.00260632165756 -134.529451438 0.550956924438 15.0757387301
11.05 0.335005591678 154.523957258 0.282279471974 26.967120754 0.679941856164 -2.46482023626 0.588021036701 -174.347095365 0.282279471974 26.967120754 0.330672755905 154.712242462 0.679695828277 -2.46866173178 0.590751662043 5.45696419103 0.679941856164 -2.46482023628 0.679695828277 -2.46866173176 0.275101513927 74.7808230891 0.00263178158924 -139.172045344 0.588021036701 -174.347095365 0.590751662043 5.45696419099 0.00263178158957 -139.172045334 0.552482378719 12.6304467927
11.075 0.33571728852 152.244073671 0.281619762602 24.0600712897 0.680510225998 -6.73450163178 0.587273497536 -176.880317199 0.281619762601 24.0600712897 0.331364516977 152.435294552 0.680231963385 -6.73822883699 0.590061406002 2.92348773989 0.680510225997 -6.7345016318 0.680231963385 -6.73822883697 0.272355387686 68.4502717483 0.00265838817232 -143.808429794 0.587273497536 -176.880317199 0.590061406002 2.92348773985 0.0026583881727 -143.808429783 0.554012882832 10.1857130899
11.1 0.336523132136 149.953620499 0.28097242967 21.1753234024 0.681030473208 -11.0161328694 0.586518775937 -179.41196117 0.28097242967 21.1753234024 0.332149584275 150.148038773 0.68071787526 -11.0197362985 0.589367822795 0.391476202249 0.681030473207 -11.0161328694 0.680717875261 -11.0197362985 0.26982796011 62.074445278 0.00268626057063 -148.438345249 0.586518775936 -179.41196117 0.589367822795 0.391476202207 0.00268626057102 -148.438345237 0.55554841406 7.74149653579
11.125 0.337419302839 147.65031475 0.280347015025 18.3141220095 0.681500485044 -15.3105908373 0.585756715584 178.057931935 0.280347015024 18.3141220095 0.333023938132 147.848204113 0.681151322331 -15.3140588351 0.588671015074 -2.13913416643 0.681500485044 -15.3105908374 0.681151322331 -15.314058835 0.267537655735 55.6560888696 0.00271553267933 -153.061557842 0.585756715584 178.057931935 0.588671015074 -2.13913416647 0.0027155326797 -153.061557832 0.557088946053 5.29775604611
11.15 0.33840080247 145.331759318 0.279754489676 15.4777346798 0.681918170636 -19.6188403924 0.58498715111 175.529322336 0.279754489676 15.4777346798 0.333982355559 145.533409058 0.681530072048 -19.6221591 0.587971098278 -4.66840885148 0.681918170636 -19.6188403924 0.681530072048 -19.6221591 0.265503004278 49.1987346867 0.00274635529729 -157.677868627 0.58498715111 175.529322337 0.587971098278 -4.66840885151 0.00274635529758 -157.67786862 0.558634448467 2.85445052416
11.175 0.339461318978 142.995436208 0.279207457635 12.6674376399 0.682281464429 -23.9419488021 0.584209906693 173.002171422 0.279207457635 12.6674376399 0.335018271776 143.20115556 0.68185190224 -23.9451021294 0.587268202514 -7.19641534589 0.682281464428 -23.9419488021 0.68185190224 -23.9451021294 0.263742457078 42.7067619687 0.00277889868495 -162.287124799 0.584209906693 173.002171422 0.587268202514 -7.1964153459 0.00277889868508 -162.287124796 0.560184886567 0.411538846913
11.2 0.340593072352 140.638695978 0.278720395372 9.88449725624 0.682588326699 -28.2811028705 0.58342479436 170.476441944 0.278720395372 9.88449725623 0.33612362257 140.848819284 0.682114599135 -28.2840724758 0.586562474715 -9.7232234656 0.682588326699 -28.2811028705 0.682114599135 -28.2840724758 0.262274176952 36.1854478956 0.00281335558947 -166.88923333 0.58342479436 170.476441944 0.586562474715 -9.72322346558 0.00281335558932 -166.889233333 0.561740220811 -2.03102014947
11.225 0.341786635962 138.25874188 0.278309934931 7.1301458024 0.682836739622 -32.6376293079 0.582631611896 167.952098272 0.278309934931 7.13014580235 0.337288661329 138.473634652 0.682315950445 -32.640394585 0.585854081132 -12.2489057243 0.682836739622 -32.6376293079 0.682315950445 -32.6403945851 0.261115799881 29.6410063365 0.00284994483976 -171.48417753 0.582631611896 167.952098272 0.585854081133 -12.2489057243 0.0028499448392 -171.484177542 0.56330040638 -4.47326768442
11.25 0.343030724592 135.852606767 0.277995200884 4.40554998084 0.683024696799 -37.0130190334 0.581830140272 165.429106734 0.277995200884 4.40554998073 0.338501741877 136.072672736 0.682453731311 -37.0155571085 0.585143210204 -14.7735377812 0.6830246968 -37.0130190334 0.682453731311 -37.0155571085 0.260284166251 23.0806117312 0.00288891564112 -176.072037193 0.581830140272 165.429106734 0.585143210205 -14.7735377811 0.00288891563999 -176.072037215 0.564865392688 -6.91524504805
11.275 0.344311936399 133.417120122 0.277798214133 1.71177022264 0.683150183382 -41.4089562644 0.581020140422 162.907436046 0.277798214133 1.71177022246 0.339749054009 133.642809395 0.682525680108 -41.411242002 0.584430075839 -17.2971989781 0.683150183383 -41.4089562643 0.682525680107 -41.4112420021 0.259795018109 16.5124056147 0.00293055273381 179.346986854 0.581020140422 162.907436046 0.584430075839 -17.2971989779 0.00293055273193 179.34698682 0.566435122843 -9.35699361635
11.3 0.345614429882 130.94886171 0.277744379229 -0.950291809466 0.683211142842 -45.8273534592 0.580201349197 160.387057889 0.27774437923 -0.950291809746 0.341014292472 131.180680166 0.682529459974 -45.8293594784 0.583714921176 -19.8199729884 0.683211142844 -45.8273534591 0.682529459972 -45.8293594785 0.259662657157 9.94548364688 0.00297518262599 174.772542734 0.580201349197 160.387057889 0.583714921176 -19.8199729881 0.00297518262317 174.772542686 0.56800953307 -11.7985548665
11.325 0.34691950762 128.444097089 0.277863076643 -3.5799608899 0.683205424963 -50.2703934441 0.579373474194 157.867947677 0.277863076644 -3.5799608903 0.342278230633 128.682617158 0.682462600442 -50.272090144 0.582998022878 -22.341948602 0.683205424966 -50.270393444 0.68246260044 -50.2720901441 0.259899555911 3.38986137273 0.00302318117191 170.204090687 0.579373474194 157.867947677 0.582998022878 -22.3419486016 0.00302318116797 170.204090625 0.569588552082 -14.2399703921
11.35 0.348205064267 125.898688445 0.27818838768 -6.17687552662 0.683130707567 -54.740580405 0.578536187084 155.350085597 0.278188387681 -6.17687552715 0.343518155637 126.144561458 0.682322411379 -54.7419359986 0.582279695996 -24.8632206828 0.683130707571 -54.7405804048 0.682322411376 -54.7419359989 0.260515911993 -3.14358278706 0.00307498284706 165.640857655 0.578536187084 155.350085596 0.582279695997 -24.8632206823 0.00307498284189 165.640857578 0.571172100417 -16.6812819182
11.375 0.349444833999 123.307971774 0.278759987949 -8.74110081084 0.682984381605 -59.2408018678 0.577689114883 152.833458031 0.27875998795 -8.74110081151 0.344707099301 123.561942051 0.682105858522 -59.2417824209 0.581560299465 -27.3838913381 0.68298438161 -59.2408018676 0.682105858518 -59.2417824211 0.261519133154 -9.64318874616 0.00313109218033 161.08178095 0.577689114883 152.83345803 0.581560299466 -27.3838913375 0.0031310921739 161.081780862 0.572760089714 -19.1225313159
11.4 0.35060733733 120.66658781 0.279624256085 -11.2732747593 0.682763385178 -63.7744043763 0.576831828371 150.318059545 0.279624256085 -11.27327476 0.345812763307 120.929508634 0.681809385692 -63.7749738431 0.580840242257 -29.9040713563 0.682763385184 -63.7744043761 0.681809385688 -63.7749738433 0.262913239396 -16.0966218095 0.00319209795038 156.52543794 0.57683182837 150.318059543 0.580840242259 -29.9040713557 0.00319209794288 156.525437845 0.574352421939 -21.5637606166
11.425 0.351654370321 117.968248992 0.280835658664 -13.7747988685 0.682463966241 -68.3452863334 0.575963826478 147.803895714 0.280835658665 -13.7747988693 0.346795979663 118.241100508 0.68142866286 -68.3454065788 0.580119990197 -32.4238819807 0.682463966247 -68.3452863332 0.681428662855 -68.3454065791 0.26469816938 -22.4910077525 0.0032586909544 151.969957587 0.575963826477 147.803895713 0.580119990199 -32.42388198 0.00325869094634 151.969957492 0.575948988564 -24.0050120253
11.45 0.352538785463 115.205417342 0.282458490917 -16.2480874751 0.682081345483 -72.9580124759 0.575084514914 145.290987233 0.282458490917 -16.2480874759 0.347608452466 115.489326105 0.680958230738 -72.9576432612 0.579400073401 -34.943457108 0.682081345489 -72.9580124757 0.680958230734 -72.9576432614 0.266868982829 -28.8130988595 0.00333168643532 147.412908221 0.575084514912 145.290987231 0.579400073403 -34.9434571073 0.00333168642773 147.41290814 0.577549669679 -26.4463279336
11.475 0.353201155504 112.368857495 0.284569077192 -18.6968959609 0.681609238831 -77.61795577 0.574193176402 142.779376017 0.284569077192 -18.6968959614 0.348189366661 112.665116733 0.680391000345 -77.6170546662 0.578681094217 -37.4629460262 0.681609238835 -77.6179557698 0.680391000342 -77.6170546663 0.269414960566 -35.0494746295 0.00341205264114 142.851153807 0.574193176401 142.779376016 0.578681094219 -37.4629460257 0.00341205263583 142.851153755 0.579154333051 -28.8877509305
11.5 0.353564638592 109.447014363 0.287258566367 -21.1267555729 0.681039181551 -82.33147427 0.573288928532 140.269134565 0.287258566367 -21.1267555729 0.348460171835 109.75710257 0.679717548131 -82.3299964375 0.577963735416 -39.9825168389 0.681039181551 -82.33147427 0.679717548131 -82.3299964375 0.272318620959 -41.1867812584 0.00350094753669 138.280667917 0.573288928532 140.269134565 0.577963735416 -39.9825168389 0.00350094753669 138.280667917 0.580762833119 -31.3293238133
