! Touchstone file exported from HFSS 2025.2.4
!        File:           C:/Users/chaoy/Documents/single_magictee_v2_stageA/g2_5p40mm_lt_7p50mm/single_magictee_v2.aedt
!        Generated:      03:02:47 PM Sep 19, 2026
!        Design:         SingleMagicT_v2
!        Project:        single_magictee_v2
!
! Variables:
!        f_adapt = 10.2GHz
!        ridge_g1 = 7.672mm
!        ridge_g2 = 5.4mm
!        ridge_l1 = 9.872mm
!        ridge_l2 = 8.857mm
!        ridge_w = 4.572mm
!        terminal_ridge_len = 7.5mm
!        wg_a = 22.86mm
!        wg_b = 10.16mm
!
!Data is not renormalized
# GHz S MA
! Terminal data exported
! Port[1] = P1_CollinearMinusX
! Port[2] = P2_CollinearPlusX
! Port[3] = P3_HArm_Ridged
! Port[4] = P4_EArm
9                              0.15036829150792 -162.439404926905 0.499995326716016 -161.360758042052 0.53738481257456 96.5338586760164 0.662277595412482 45.1516535072269 
                               0.499995326716015 -161.360758042052 0.151872693724128 -162.937681315844 0.536010159587833 96.4563942488934 0.663047861757917 -134.987148899009 
                               0.537384812574561 96.5338586760165 0.536010159587835 96.4563942488934 0.651082056897073 174.659197273922 0.00168143376503882 -43.9743847830935 
                               0.662277595412481 45.1516535072269 0.663047861757918 -134.987148899009 0.00168143376503917 -43.9743847830711 0.348931357738752 -109.05020046967 
9.025                          0.150289408649631 -164.667086999091 0.501665673099624 -164.198773933526 0.536413171629065 93.3452668839586 0.661822131547907 42.2417912437274 
                               0.501665673099632 -164.198773933527 0.151774678835098 -165.172820365244 0.535037946733853 93.2682324050808 0.662595947633041 -137.897222584936 
                               0.536413171629075 93.3452668839596 0.535037946733852 93.2682324050798 0.652679277067837 170.978770985537 0.00168190931793257 -47.1771418979246 
                               0.661822131547917 42.2417912437277 0.662595947633038 -137.897222584936 0.00168190931792996 -47.1771418976302 0.350648854378298 -111.767390262632 
9.05                           0.150244809170582 -166.888648915558 0.503349667915209 -167.028937052418 0.535414724977949 90.1605450805687 0.661363296025685 39.3398370721026 
                               0.503349667915222 -167.028937052419 0.151710805458721 -167.401670163655 0.534039008671203 90.0839361387865 0.662140494267557 -140.799404081332 
                               0.535414724977965 90.1605450805703 0.534039008671201 90.0839361387849 0.654314113325664 167.299610632491 0.00168239668213386 -50.3759387872345 
                               0.661363296025702 39.339837072103  0.662140494267551 -140.799404081333 0.00168239668212948 -50.3759387867637 0.352370161044041 -114.48034390137 
9.075                          0.150234734889167 -169.104996111082 0.505047839690862 -169.851495732383 0.534388949023795 86.9797188691114 0.660901058297226 36.4456560549265 
                               0.505047839690879 -169.851495732384 0.151681327771849 -169.625119460866 0.53301282441783 86.9035308751516 0.661681469110601 -143.693827663554 
                               0.534388949023814 86.9797188691133 0.533012824417827 86.9035308751496 0.655986746931838 163.62206132952  0.00168289170097295 -53.5708251494277 
                               0.660901058297247 36.4456560549269 0.661681469110595 -143.693827663555 0.00168289170096771 -53.5708251488577 0.354095219955608 -117.189127173952 
9.1                            0.150259268479483 -171.317018630438 0.506760639134349 -172.66669627471 0.533335363521158 83.8028126479225 0.660435390556108 33.5591137644561 
                               0.506760639134367 -172.666696274711 0.151686341990616 -171.844042592563 0.531958916095931 83.7270408581712 0.661218842497778 -146.580627075921 
                               0.533335363521178 83.8028126479246 0.531958916095926 83.7270408581692 0.657697287753433 159.946465129313 0.00168339024488085 -56.761850877364 
                               0.660435390556131 33.5591137644565 0.661218842497771 -146.580627075921 0.00168339024487544 -56.7618508767562 0.355823980075208 -119.893804824216 
9.125                          0.150318343629971 -173.525586989604 0.508488441468938 -175.474782265849 0.532253534007645 80.6298500065133 0.659966267235362 30.6800765746742 
                               0.508488441468957 -175.474782265851 0.1517257964037  -174.059295457496 0.530876851364853 80.5544895444985 0.660752587175244 -149.459935242268 
                               0.532253534007666 80.6298500065154 0.530876851364849 80.5544895444964 0.6594457698057  156.273160685758 0.00168388822387978 -59.9490653794842 
                               0.659966267235385 30.6800765746745 0.660752587175238 -149.459935242269 0.00168388822387467 -59.9490653788855 0.357556396614787 -122.594440558431 
9.15                           0.15041175494237 -175.731548443648 0.510231548887962 -178.275993956625 0.53114307401169 77.4608540637974 0.659493664550172 27.8084119180765 
                               0.51023154888798 -178.275993956626 0.151799501136562 -176.271711881905 0.529766245630815 77.3858999394782 0.660282677867173 -152.331884011697 
                               0.531143074011709 77.4608540637994 0.529766245630811 77.3858999394763 0.661232147403746 152.602482867231 0.00168438159960665 -63.1325169727536 
                               0.659493664550195 27.8084119180768 0.660282677867167 -152.331884011698 0.00168438159960218 -63.1325169721991 0.359292430577921 -125.291097055262 
9.175                          0.150539167537974 -177.935723647554 0.511990193108235 178.929432299575 0.530003647024954 74.2958477497972 0.659017560084097 24.9439885093984 
                               0.511990193108251 178.929432299574 0.151907137616318 -178.482100357659 0.528626764021395 74.2212948767781 0.659809090884636 -155.196603937319 
                               0.530003647024971 74.295847749799  0.528626764021392 74.2212948767764 0.663056291949138 148.934762323606 0.00168486639684356 -66.3122523465617 
                               0.659017560084116 24.9439885093987 0.659809090884631 -155.19660393732 0.0016848663968399 -66.3122523460758 0.361032048335005 -127.983835978628 
9.2                            0.150700126351751 179.861096304355 0.513764538004795 176.141264552352 0.528834968228803 71.1348540325359 0.658537932416745 22.0866765384614 
                               0.513764538004808 176.141264552351 0.152048267720145 179.308758859732 0.527458123114244 71.0606972433338 0.659331803773873 -158.054224085825 
                               0.528834968228818 71.1348540325373 0.527458123114242 71.0606972433324 0.664917989370608 145.270325011146 0.00168533871452927 -69.4883160962967 
                               0.658537932416762 22.0866765384616 0.659331803773869 -158.054224085826 0.00168533871452652 -69.488316095895 0.362775221230262 -130.672717993051 
9.225                          0.150894065105847 177.658152474959 0.515554682311482 173.359275706301 0.527636805965845 67.9778960921385 0.658054760790802 19.2363478342883 
                               0.515554682311494 173.3592757063   0.15222234260083 177.100116307146 0.526260092411046 67.9041301516373 0.658850795001807 -160.904871875718 
                               0.527636805965857 67.9778960921396 0.526260092411045 67.9041301516362 0.666816938231585 141.60949167994  0.00168579473622636 -72.6607503249394 
                               0.658054760790816 19.2363478342885 0.658850795001804 -160.904871875719 0.00168579473622449 -72.6607503246302 0.364521925219008 -133.357802781146 
9.25                           0.151120314962498 175.4547203316   0.517360662373807 170.583243922165 0.526408982949214 64.8249974444505 0.657568024816161 16.3928760026027 
                               0.517360662373816 170.583243922164 0.152428711191297 174.891255537831 0.525032495549434 64.7516170616831 0.658366043676588 -163.74867294211 
                               0.526408982949223 64.8249974444513 0.525032495549433 64.7516170616823 0.668752748510684 137.952577328849 0.00168623074001893 -75.8295943106682 
                               0.657568024816171 16.3928760026028 0.658366043676586 -163.74867294211 0.00168623074001787 -75.8295943104538 0.36627214053361 -136.039149062917 
9.275                          0.151378112862772 173.250111658802 0.519182454942183 167.812952969755 0.525151377204036 61.6761820167267 0.657077704208922 13.5561365387709 
                               0.519182454942188 167.812952969755 0.152666628396172 172.681495027075 0.523775211247316 61.6031818551306 0.657877529300941 -166.585751026008 
                               0.525151377204043 61.6761820167271 0.523775211247316 61.6031818551301 0.670724941054824 134.299890633269 0.0016866431078169 -78.994884238157 
                               0.657077704208928 13.5561365387709 0.65787752930094 -166.585751026009 0.00168664310781653 -78.9948842380347 0.368025851376507 -138.716814616562 
9.3                            0.151666609562107 171.043676151168 0.521019979995124 165.04819253523  0.523863922737332 58.5314741781659 0.656583778562975 10.7260069181971 
                               0.521019979995126 165.04819253523  0.152935262982783 170.470189773187 0.522488173975914 58.4588488644581 0.657385231556059 -169.416227886094 
                               0.523863922737336 58.5314741781661 0.522488173975916 58.458848864458  0.672732947698224 130.651733351205 0.00168702833404369 -82.1566529909628 
                               0.656583778562978 10.7260069181971 0.657385231556058 -169.416227886094 0.00168702833404385 -82.1566529909264 0.369783045638681 -141.390856300505 
9.325                          0.151984877376544 168.834802701144 0.52287310358328 162.28875848523  0.52254660993447 55.390898728241  0.656086227151896 7.90236666610873 
                               0.522873103583279 162.28875848523  0.153233705186762 168.256732607217 0.521171374359662 55.3186428600618 0.656889130113799 -172.240223231046 
                               0.522546609934471 55.3908987282409 0.521171374359663 55.3186428600619 0.674776112034387 127.008399713285 0.00168738303368544 -85.3149300021529 
                               0.656086227151895 7.90236666610871 0.656889130113799 -172.240223231046 0.00168738303368595 -85.3149300021933 0.371543714641949 -144.061330076413 
9.35                           0.152331917655152 166.622920396234 0.524741640686275 159.534453090299 0.521199485682218 52.2544808459285 0.655585028758886 5.08509740860708 
                               0.524741640686272 159.534453090299 0.153560974048861 166.040555224742 0.519824859303018 52.1825889984001 0.656389204474963 -175.057854670545 
                               0.521199485682217 52.2544808459281 0.51982485930302 52.1825889984005 0.676853690822181 123.370175802401 0.00168770394968185 -88.469741160101 
                               0.655585028758882 5.08509740860704 0.656389204474964 -175.057854670545 0.00168770394968255 -88.4697411602074 0.373307852903448 -146.728291032959 
9.375                          0.152706667994557 164.407499240247 0.526625358075293 156.785085209938 0.51982265322031 49.1222460030522 0.655080161532552 2.27408290677705 
                               0.526625358075288 156.785085209938 0.153916024499912 163.821128952897 0.518448731846178 49.0507127344007 0.655885433831494 -177.869237683158 
                               0.519822653220306 49.1222460030517 0.518448731846181 49.0507127344012 0.678964856001563 119.737338928624 0.00168798795964045 -91.6211087661969 
                               0.655080161532545 2.27408290677701 0.655885433831495 -177.869237683158 0.00168798795964116 -91.621108766357 0.375075457920713 -149.391793410133 
9.4                            0.153108009211083 162.188050613109 0.528523977175104 154.040470441553 0.518416271725374 45.994219845044  0.654571602866339 -0.530790924423544 
                               0.528523977175097 154.040470441553 0.154297754210289 161.597965265812 0.517043150753537 45.9230397014251 0.655377796950451 179.325514400622 
                               0.518416271725368 45.9942198450433 0.51704315075354 45.9230397014258 0.681108697289252 116.110157004964 0.00168823208185861 -94.7690515410561 
                               0.65457160286633 -0.530790924423569 0.655377796950452 179.325514400622 0.00168823208185916 -94.7690515412575 0.376846529975764 -152.051890623911 
9.425                          0.153534772084758 159.964127483769 0.530437176919896 151.300431235463 0.516980555632917 42.870428042471  0.654059329299515 -3.32963601086079 
                               0.530437176919887 151.300431235464 0.154705010218898 159.370616061573 0.51560832984062 42.7995955621404 0.65486627207773 176.526290401804 
                               0.516980555632911 42.8704280424702 0.515608329840623 42.7995955621413 0.683284225319864 112.488887929374 0.00168843348064044 -97.9135846756951 
                               0.654059329299504 -3.3296360108608 0.654866272077732 176.526290401804 0.00168843348064068 -97.913584675925 0.378621071956655 -154.708635291111 
9.45                           0.15398574388773 157.735324390782 0.532364596597786 148.56479697807  0.51551577370487 39.7508961167048 0.653543316437672 -6.1225621259534 
                               0.532364596597776 148.564796978071 0.155136595354906 157.138673713869 0.514144537047028 39.6804058336671 0.654350836859539 173.732981284355 
                               0.515515773704862 39.7508961167039 0.514144537047031 39.6804058336681 0.685490375293768 108.873778978144 0.00168858947089851 -101.054719924036 
                               0.65354331643766 -6.12256212595339 0.65435083685954 173.732981284355 0.00168858947089832 -101.054719924282 0.380399089194984 -157.362079254298 
9.475                          0.15445967470748 155.501277205146 0.534305838679292 145.833404045176 0.514022247851913 36.6356492430986 0.653023538890769 -8.90967690796779 
                               0.534305838679281 145.833404045177 0.155591274463122 154.901770911554 0.512652093264624 36.565495690362  0.65383146827973 170.945480136153 
                               0.514022247851905 36.6356492430977 0.512652093264627 36.565495690363  0.687726011089152 105.265066215602 0.00168869752203394 -104.192465733045 
                               0.653023538890756 -8.90967690796775 0.653831468279731 170.945480136153 0.00168869752203321 -104.192465733297 0.382180589317881 -160.012273606589 
9.5                            0.154955283572796 153.261662690077 0.536260471625351 143.106095827379 0.512500351721457 33.5247120350031 0.652499970226878 -11.6910858864978 
                               0.536260471625339 143.10609582738  0.156067780441485 152.659580299434 0.511131370931843 33.4548897475618 0.653308142611203 168.163682140813 
                               0.512500351721447 33.5247120350022 0.511131370931845 33.4548897475628 0.68998992979264 101.662973924637 0.00168875526109167 -107.326827406778 
                               0.652499970226864 -11.6910858864977 0.653308142611203 168.163682140813 0.00168875526109032 -107.326827407025 0.383965582113094 -162.659268716253 
9.525                          0.155471264387962 151.016197872443 0.538228032670691 140.382722729383 0.510950509063621 30.4181083118912 0.651972582939819 -14.4668925168354 
                               0.538228032670678 140.382722729384 0.156564820096444 150.411813933737 0.509582792406489 30.34861182955   0.652780835379658 165.387484541687 
                               0.510950509063612 30.4181083118903 0.509582792406491 30.3486118295509 0.692280866600223 98.0677140622652 0.00168876047519185 -110.457807300577 
                               0.651972582939805 -14.4668925168353 0.652780835379658 165.387484541687 0.00168876047518983 -110.457807300809 0.385754079405793 -165.303114250996 
9.55                           0.156006291678027 148.764639240631 0.540208030578518 137.663142144992 0.509373191888956 27.3158608547749 0.651441348429039 -17.2371982210259 
                               0.540208030578505 137.663142144992 0.15708107981936 148.158222565837 0.508006828130757 27.2466847249208 0.652249521338099 162.616786599235 
                               0.509373191888947 27.315860854774  0.508006828130759 27.2466847249217 0.694597500038327 94.479485743964  0.00168871111324188 -113.585405041712 
                               0.651441348429025 -17.2371982210258 0.652249521338098 162.616786599235 0.00168871111323917 -113.585405041923 0.387546094945815 -167.94385920184 
9.575                          0.156559026145557 146.506781783703 0.542199948362577 134.94721840947  0.507768918432832 24.2179911519899 0.650906236990136 -20.0021024344854 
                               0.542199948362565 134.94721840947  0.1576152310845  145.898594767921 0.50640399460341 24.1491299324095 0.65171417445058 159.8514895429   
                               0.507768918432823 24.2179911519891 0.506403994603411 24.1491299324104 0.696938457453515 90.8984747601522 0.00168860528693788 -116.709617772799 
                               0.650906236990121 -20.0021024344852 0.651714174450579 159.8514895429   0.00168860528693446 -116.709617772982 0.389341644304116 -170.58155190652 
9.6                            0.157128120036922 144.24245788669  0.544203245972663 132.234822730907 0.506138250942495 21.1245191382945 0.650367217814555 -22.7617026571451 
                               0.54420324597265 132.234822730907 0.158165935766738 143.632755914435 0.504774852175089 21.0559674001244 0.651174767883802 157.091496518519 
                               0.506138250942486 21.1245191382938 0.504774852175089 21.0559674001253 0.699302320718631 87.3248531276767 0.0016884412710683 -119.830440414372 
                               0.650367217814541 -22.7617026571449 0.651174767883801 157.091496518519 0.0016884412710642 -119.830440414523 0.391140744777283 -173.216240072332 
9.625                          0.157712222314103 141.971536096887 0.546217362939696 129.525833102138 0.504481793303626 18.0354629300797 0.649824258997099 -25.5160945081712 
                               0.546217362939683 129.525833102138 0.158731851274905 141.360567033214 0.503120002683602 17.9672152609711 0.650631274005259 154.336712532216 
                               0.504481793303618 18.0354629300791 0.503120002683602 17.9672152609718 0.701687632103114 83.7587786787372 0.00168821750313639 -122.94786594314 
                               0.649824258997086 -25.516094508171 0.650631274005257 154.336712532216 0.00168821750313165 -122.947865943257 0.392943415298991 -175.847970798371 
9.65                           0.158309983626179 139.693919775982 0.548241720976464 126.820134194725 0.502800188523946 14.9508385593254 0.649277327549965 -28.2653717833893 
                               0.548241720976452 126.820134194725 0.15931163549484 139.081923540274 0.501440086946684 14.8828895668914 0.65008366438675 151.587044391665 
                               0.502800188523938 14.9508385593248 0.501440086946683 14.882889566892  0.704092900255718 80.2003946892048 0.0016879325823221 -126.06188568253 
                               0.649277327549953 -28.265371783389 0.650083664386748 151.587044391664 0.00168793258231677 -126.06188568261 0.394749676357423 -178.476790597119 
9.675                          0.158920061073192 137.409545652737 0.550275726530072 124.117617236446 0.50109411609185 11.8706597087612 0.648726389422166 -31.0096265146231 
                               0.55027572653006 124.117617236446 0.159903951534619 136.796753872242 0.499735782130219 11.8030040243693 0.649531909812174 148.842400645488 
                               0.501094116091843 11.8706597087607 0.499735782130218 11.8030040243698 0.70651660624896 76.6498295478253 0.00168758526780774 -129.172489602274 
                               0.648726389422156 -31.0096265146228 0.649531909812172 148.842400645488 0.00168758526780188 -129.172489602318 0.396559549917678 178.897254584665 
9.7                            0.159541122753995 135.118382290805 0.552318773282145 121.41817987369  0.499364289228398 8.79493745049278 0.648171409523263 -33.7489490302399 
                               0.552318773282134 121.41817987369  0.16050747226325 134.505018030396 0.498007799010202 8.72756973345326 0.648975980288623 146.102691521528 
                               0.499364289228392 8.79493745049242 0.4980077990102  8.72756973345367 0.708957209636238 73.1071964673416 0.00168717447649509 -132.279666623998 
                               0.648171409523254 -33.7489490302396 0.648975980288622 146.102691521527 0.00168717447648879 -132.279666624007 0.398373059348319 176.274119345774 
9.725                          0.160171852088986 132.820428486076 0.554370244592788 118.72172602009  0.497611452051031 5.72367999016569 0.647612351750459 -36.4834280162628 
                               0.554370244592778 118.72172602009  0.161120884633378 132.206706050139 0.496256879146779 5.65659493235842 0.648415845059904 143.367828864605 
                               0.497611452051026 5.72367999016544 0.496256879146777 5.65659493235873 0.711413154474656 69.5725932381307 0.00168669928014489 -135.383404929885 
                               0.647612351750451 -36.4834280162626 0.648415845059903 143.367828864605 0.00168669928013825 -135.383404929861 0.400190229351249 173.653758811137 
9.75                           0.160810951908318 130.515711607653 0.556429515884287 116.028165692717 0.495836376667323 2.65689241852356 0.647049179018186 -39.2131505774906 
                               0.556429515884278 116.028165692717 0.161742893778111 129.901836409596 0.49448379198866 2.59008474949718 0.647851472621695 140.637726074344 
                               0.495836376667318 2.6568924185234  0.494483791988657 2.59008474949739 0.713882875269136 66.0461020245234 0.0016861589019724 -138.483692271738 
                               0.647049179018179 -39.2131505774903 0.647851472621694 140.637726074344 0.0016861589019655 -138.483692271684 0.402011085894209 171.036128613163 
9.775                          0.161457148296296 128.204285896209 0.558495956960543 113.337414837067 0.494039860216778 -0.405423527989345 0.646481853289439 -41.9382022981323 
                               0.558495956960534 113.337414837067 0.16237222687216 127.590454390781 0.492689331925841 -0.47195903542136 0.647282830737666 137.912298043545 
                               0.494039860216774 -0.405423527989412 0.492689331925838 -0.471959035421227 0.71636480279634 62.527789203577  0.00168555271273496 -141.580516277957 
                               0.646481853289433 -41.938202298132 0.647282830737664 137.912298043545 0.00168555271272791 -141.580516277877 0.403835656145232 168.421184873859 
9.8                            0.16210919418316 125.886230733097 0.56056893425826 110.649395142081 0.492222721878244 -3.46326969614696 0.645910335608167 -44.6586673015337 
                               0.560568934258251 110.649395142081 0.163007636747901 125.272630406414 0.490874315308195 -3.52953821979645 0.646709886455959 135.191461097535 
                               0.492222721878241 -3.46326969614693 0.490874315308192 -3.52953821979639 0.718857369770194 59.017705245692  0.00168488022634972 -144.673864756162 
                               0.645910335608162 -44.6586673015334 0.646709886455959 135.191461097535 0.00168488022634262 -144.67386475606 0.40566396840849 165.80888418774  
9.825                          0.162765872676302 123.561648893033 0.562647813025969 107.964033846361 0.490385799859872 -6.51665173316101 0.64533458613216 -47.3746283086357 
                               0.56264781302596 107.964033846361 0.163647905257787 122.948458305137 0.489039577446809 -6.58265839483305 0.646132606125541 132.475132934851 
                               0.49038579985987 -6.5166517331609 0.489039577446805 -6.58265839483306 0.721359016314336 55.5158846361196 0.00168414109508075 -147.763725989436 
                               0.645334586132157 -47.3746283086355 0.64613260612554 132.475132934851 0.00168414109507369 -147.763725989317 0.407496052061011 163.199183605516 
9.85                           0.163426000124206 121.230664792673 0.564731959427044 105.281263536732 0.488529948387815 -9.56557929119512 0.644754564165926 -50.0861666948665 
                               0.564731959427037 105.281263536732 0.164291846375702 120.618053667323 0.487185969614203 -9.63132914953178 0.64555095541198 129.763232569564 
                               0.488529948387813 -9.56557929119498 0.4871859696142  -9.63132914953186 0.723868195210583 52.0223458360861 0.00168333510433596 -150.850089024395 
                               0.644754564165925 -50.0861666948663 0.645550955411979 129.763232569564 0.00168333510432904 -150.850089024263 0.409331937489835 160.592040618562 
9.875                          0.164088428907846 118.893422746708 0.566820742563015 102.601021940248 0.486656034708923 -12.6100662183765 0.644170228193155 -52.7933625452307 
                               0.566820742563008 102.601021940248 0.164938309031327 118.281552103169 0.485314356058674 -12.675564261182 0.644964899312341 127.055680275466 
                               0.486656034708922 -12.6100662183763 0.48531435605867 -12.6755642611821 0.726383376896436 48.5370912819742 0.00168246216711455 -153.93294394953 
                               0.644170228193153 -52.7933625452305 0.644964899312341 127.055680275466 0.00168246216710784 -153.932943949391 0.411171656029231 157.987413144172 
9.9                            0.164752049956102 116.550085242434 0.568913536413619 99.9232517107153 0.484764936121699 -15.6501307357103 0.64358153590842 -55.4962947074078 
                               0.568913536413613 99.923251710715  0.165586179673326 115.93910756408  0.483425611046948 -15.7153818717683 0.644374402168909 124.352397532326 
                               0.484764936121697 -15.6501307357101 0.483425611046944 -15.7153818717684 0.728903054188628 45.0601074207486 0.00168152231814541 -157.012282162525 
                               0.64358153590842 -55.4962947074076 0.644374402168909 124.352397532326 0.00168152231813899 -157.012282162383 0.413015239897657 155.385259511569 
9.925                          0.16541579498365 114.20083124297  0.571009721690277 97.2479002107629 0.482857537048629 -18.6857955995044 0.642988444247882 -58.1950408427316 
                               0.571009721690271 97.2479002107626 0.166234384559129 113.590890677686 0.48152061594825 -18.750804649905 0.643779427681554 121.653306974328 
                               0.482857537048628 -18.6857955995041 0.481520615948247 -18.7508046499051 0.731425746713818 41.5913647795862 0.00168051570775647 -160.088096625473 
                               0.642988444247883 -58.1950408427314 0.643779427681555 121.653306974327 0.00168051570775041 -160.088096625334 0.414862722134202 152.785538448683 
9.95                           0.166078638451946 111.845854528471 0.573108687599877 94.5749192904589 0.480934726161828 -21.7170882490968 0.642390909418772 -60.8896774749631 
                               0.573108687599872 94.5749192904587 0.166881891771187 111.237087116011 0.479600256371654 -21.7818599380936 0.64317993891862 118.958332340787 
                               0.480934726161828 -21.7170882490965 0.47960025637165 -21.7818599380938 0.733950005031557 38.1308180674825 0.00167944259551351 -163.160382107179 
                               0.642390909418773 -60.8896774749629 0.643179938918622 118.958332340787 0.00167944259550786 -163.160382107047 0.416714136534319 150.188209069663 
9.975                          0.166739599256094 109.485362083821 0.575209833516074 91.9042650634283 0.478997393572625 -24.744040939861 0.641788886927536 -63.5802800368207 
                               0.575209833516069 91.9042650634281 0.16752771296182 108.877896005541 0.477665419367331 -24.8085798852846 0.642575898326249 116.267398429181 
                               0.478997393572625 -24.7440409398607 0.477665419367328 -24.8085798852847 0.736474414438627 34.6784063064438 0.00167830334366525 -166.229135411958 
                               0.641788886927538 -63.5802800368206 0.642575898326251 116.267398429181 0.00167830334366006 -166.229135411837 0.418569517584694 147.593230863121 
10                             0.167397742142645 107.119572540353 0.577312570555596 89.2358976813959 0.477046428094436 -27.7666908616323 0.641182331606582 -66.266922914269 
                               0.577312570555592 89.2358976813958 0.168170904831024 106.513528387002 0.475716990700988 -27.8310015648879 0.641967267736148 113.580431050491 
                               0.477046428094436 -27.7666908616321 0.475716990700985 -27.8310015648881 0.738997598447765 31.2340529897446 0.00167709841042943 -169.29435559456 
                               0.641182331606585 -66.2669229142689 0.641967267736151 113.580431050491 0.00167709841042473 -169.294355594453 0.420428900397145 145.000563681091 
10.025                         0.16805217886559 104.74871467824  0.57941632305745 86.5697811080362 0.475082714586906 -30.7850802428586 0.640571197639585 -68.9496794886084 
                               0.579416323057446 86.5697811080361 0.168810570343887 104.144205731785 0.473755852209447 -30.8491670785393 0.641354008371832 110.897356986809 
                               0.475082714586906 -30.7850802428584 0.473755852209444 -30.8491670785394 0.741518221937466 27.7976662646228 0.00167582834315156 -172.35604416109 
                               0.640571197639587 -68.9496794886084 0.641354008371835 110.897356986809 0.00167582834314737 -172.356044160999 0.422292320641486 142.41016772867  
10.05                          0.168702069089959 102.373025995188 0.581520529963253 83.9058828929706 0.47310713138793 -33.7992564409185 0.639955438585396 -71.6286221764396 
                               0.581520529963249 83.9058828929706 0.169445859696425 101.770158521003 0.471782879243948 -33.8631236460675 0.640736080853419 108.218103951148 
                               0.473107131387929 -33.7992564409184 0.471782879243945 -33.8631236460676 0.744034993973148 24.3691391367172 0.00167449377136524 -175.414205255972 
                               0.639955438585399 -71.6286221764396 0.640736080853421 108.218103951148 0.00167449377136157 -175.4142052559  0.424159814477342 139.822003554354 
10.075                         0.169346621054462 99.9927513461483 0.583624646097395 81.2441739467109 0.471120547838828 -36.8092720191931 0.639335007400634 -74.303822467612 
                               0.583624646097391 81.2441739467108 0.170075971040752 99.3916248921914 0.469798938206434 -36.8729236822467 0.640113445201115 105.542600549332 
                               0.471120547838827 -36.8092720191929 0.469798938206431 -36.8729236822467 0.746546670303224 20.9483496934921 0.00167309539977914 -178.468845835224 
                               0.639335007400637 -74.303822467612 0.640113445201119 105.542600549332 0.00167309539977599 -178.468845835172 0.426031418484918 137.236032041011 
10.1                           0.169985092006466 97.6081416577475 0.585728143346129 78.5846283173031 0.469123821906604 -39.8151848115845 0.638709856461054 -76.9753509612903 
                               0.585728143346125 78.5846283173031 0.170700150982396 97.0088493577183 0.467804884182699 -39.8786248610317 0.63948606083755 102.870776243842 
                               0.469123821906603 -39.8151848115844 0.467804884182697 -39.8786248610317 0.749052055536751 17.5351613438717 0.00167163400121189 178.480024173534 
                               0.638709856461057 -76.9753509612904 0.639486060837553 102.870776243842 0.00167163400120926 178.480024173566 0.427907169594761 134.652214397512 
10.125                         0.170616788424267 95.2194527202196 0.587830511735187 75.927222969381  0.467117797905908 -42.8170579752912 0.638079937581863 -79.6432774002996 
                               0.587830511735184 75.9272229693811 0.17131769486429 94.6220815980211 0.465801558675034 -42.8802901680811 0.638853886589144 100.202561319454 
                               0.467117797905906 -42.8170579752911 0.465801558675032 -42.8802901680811 0.751550005012111 14.1294230713011 0.00167011040949218 175.432391723742 
                               0.638079937581866 -79.6432774002997 0.638853886589148 100.202561319454 0.00167011040949005 175.432391723754 0.429787105016573 132.070512150975 
10.15                          0.171241066043003 92.8269440586706 0.589931260405991 73.2719375662862 0.465103304322072 -45.8149600327354 0.637445202037138 -82.3076707039304 
                               0.589931260405988 73.2719375662864 0.171927946853438 92.2315753318348 0.463789787435698 -45.8779879424654 0.638216880686744 97.537886850487  
                               0.465103304322071 -45.8149600327354 0.463789787435696 -45.8779879424654 0.754039426368688 10.7309696974607 0.00166852551233658 172.388240514494 
                               0.63744520203714 -82.3076707039304 0.638216880686748 97.5378868504871 0.00166852551233491 172.388240514486 0.431671262167166 129.490887139619 
10.175                         0.171857329701753 90.4308778846271 0.592029918491004 70.6187542558678 0.463081151735397 -48.8089649036205 0.63680560057856 -84.9685989994029 
                               0.592029918491002 70.618754255868  0.172530299847491 89.8375872646879 0.461770378401402 -48.8717919085331 0.637575000765759 94.8766846694577 
                               0.463081151735395 -48.8089649036206 0.461770378401401 -48.871791908533 0.756519280835773 7.33962215389771 0.00166688024421338 169.347550866205 
                               0.636805600578563 -84.968598999403 0.637575000765763 94.8766846694579 0.00166688024421216 169.347550866179 0.433559678597627 126.913301506204 
10.2                           0.172465033030212 88.0315181279651 0.594126035889302 67.9676574605157 0.46105213084571 -51.799151928159 0.636161083453694 -87.6261296522071 
                               0.594126035889299 67.9676574605158 0.173124195219362 87.440376116071  0.459744119727817 -51.8617811989754 0.636928203866058 92.2188873369385 
                               0.461052130845709 -51.7991519281591 0.459744119727816 -51.8617811989753 0.758988584254804 3.95518775888183 0.00166517557919586 166.310299606388 
                               0.636161083453695 -87.6261296522072 0.636928203866062 92.2188873369386 0.00166517557919504 166.310299606346 0.435452391919825 124.337717692053 
10.225                         0.173063677993923 85.6291295485166 0.596219183943899 65.3186336719327 0.459017010595192 -54.7856058825655 0.63551160042403 -90.280329295543 
                               0.596219183943897 65.3186336719329 0.173709122418718 85.040201724873  0.457711777922084 -54.8480403701772 0.636276446431907 89.5644281123768 
                               0.45901701059519 -54.7856058825656 0.457711777922084 -54.8480403701771 0.761446407852715 0.577460496858874 0.00166341252380343 163.276459964482 
                               0.635511600424032 -90.2803292955432 0.636276446431911 89.5644281123769 0.00166341252380297 163.276459964427 0.437349439732332 121.764098431629 
10.25                          0.173652814317378 83.2239769259199 0.598308956022898 62.671671251093  0.456976536386456 -57.7684169879464 0.63485710078307 -92.9312638590994 
                               0.598308956022896 62.6716712510932 0.17428461844947 82.6373242319169 0.455674096070354 -57.8306594109847 0.635619684312229 86.9132409256499 
                               0.456976536386454 -57.7684169879466 0.455674096070354 -57.8306594109846 0.763891878785451 -2.7937787020523 0.0016615921098247 160.246001474627 
                               0.634857100783071 -92.9312638590995 0.635619684312232 86.91324092565   0.00166159210982456 160.246001474562 0.43925085954588 119.192406747665 
10.275                         0.174232038804279 80.816324325603  0.600394968006981 60.0267602337751 0.454931428392007 -60.7476809137446 0.634197533374695 -95.5789985974115 
                               0.600394968006979 60.0267602337753 0.174850267242502 80.2320033377405 0.453631792156448 -60.8097337460405 0.634957872761473 84.2652603491086 
                               0.454931428392005 -60.7476809137448 0.453631792156448 -60.8097337460404 0.766324180471731 -6.15876168498216 0.00165971538711132 157.218889885223 
                               0.634197533374696 -95.5789985974116 0.634957872761476 84.2652603491087 0.00165971538711145 157.21888988515  0.441156688708432 116.622605946835 
10.3                           0.174800994574018 78.4064344381944 0.602476858686243 57.3838921420039 0.452882379950393 -63.7234987769123 0.63353284661209 -98.2235981180446 
                               0.602476858686241 57.3838921420041 0.175405698942635 77.8244976331376 0.451585557466989 -63.7853642348554 0.634290966441396 81.6204215698642 
                               0.45288237995039 -63.7234987769125 0.451585557466989 -63.7853642348552 0.768742552737876 -9.51773280402159 0.00165778341632699 154.195087074098 
                               0.633532846612091 -98.2235981180447 0.634290966441398 81.6204215698643 0.00165778341632735 154.195087074021 0.443066964329957 114.05465961596  
10.325                         0.175359370232906 75.9945679891262 0.604554290069805 54.7430598016711 0.450830056043653 -66.6959771379848 0.632862988497508 -100.865126409848 
                               0.604554290069804 54.7430598016713 0.175950589128347 75.4150639994328 0.449536055077622 -66.7576571677833 0.633618919424042 78.9786603620737 
                               0.450830056043651 -66.695977137985 0.449536055077622 -66.7576571677831 0.771146291794927 -12.8709486509806 0.00165579726163142 151.174550968113 
                               0.632862988497508 -100.865126409849 0.633618919424044 78.9786603620738 0.00165579726163196 151.174550968035 0.444981723206964 111.488531618732 
10.35                          0.175906898997945 73.5809832147491 0.606626947612062 52.1042571665478 0.448775091850074 -69.6652279952219 0.632187906643117 -103.503646871526 
                               0.606626947612061 52.104257166548  0.176484657982055 73.0039570749829 0.447483918414346 -69.7267242600583 0.632941685196211 76.339913058977  
                               0.448775091850072 -69.6652279952221 0.447483918414346 -69.726724260058 0.773534750069481 -16.2186778013398 0.00165375798327463 148.157235466051 
                               0.632187906643116 -103.503646871526 0.632941685196213 76.339913058977  0.00165375798327531 148.157235465976 0.446901001746836 108.924186092975 
10.375                         0.176443357789957 71.1659354009088 0.608694540359802 49.4674791488379 0.446718091365734 -72.6313687779611 0.63150754829322 -106.13922234076 
                               0.6086945403598  49.467479148838  0.177007669427817 70.5914287840105 0.445429749883464 -72.692682645032 0.632259216665709 73.7041165244472 
                               0.446718091365732 -72.6313687779614 0.445429749883464 -72.6926826450318 0.775907335909556 -19.5612005694165 0.0016516666300728 145.143090363674 
                               0.631507548293219 -106.13922234076 0.63225921666571 73.7041165244472 0.00165166663007358 145.143090363604 0.448824835891978 106.36158744842  
10.4                           0.176968566311759 68.7496764796368 0.610756801024778 46.8327214563635 0.444659626087902 -75.5945223402981 0.630821860348093 -108.771915124122 
                               0.610756801024777 46.8327214563636 0.177519430252208 68.1777279235545 0.443374119563243 -75.6556548677184 0.631571466169649 71.0712081238205 
                               0.4446596260879  -75.5945223402983 0.443374119563243 -75.6556548677182 0.778263513186453 -22.8988087766378 0.00164952423173311 142.132061279922 
                               0.630821860348092 -108.771915124122 0.63157146616965 71.0712081238205 0.00164952423173396 142.132061279861 0.45075326104376 103.800700365003 
10.425                         0.177482386125768 66.3324546794005 0.612813485986637 44.1999804364094 0.442600233753028 -78.5548169561686 0.630130789389699 -111.401787027998 
                               0.612813485986636 44.1999804364095 0.178019789222793 65.7630998040879 0.441317563950057 -78.6157688797127 0.630878385485069 68.4411256937817 
                               0.442600233753026 -78.5548169561688 0.441317563950057 -78.6157688797125 0.780602800813059 -26.2318055346757 0.00164733179099132 139.12408958329  
                               0.630130789389697 -111.401787027998 0.630878385485069 68.4411256937816 0.0016473317909922 139.124089583241 0.452686311986194 101.241489791704 
10.45                          0.177984719744008 63.9145142242075 0.614864375231337 41.5692529261969 0.440540417121841 -81.5123863168567 0.629434281709513 -114.028899390731 
                               0.614864375231337 41.5692529261969 0.178508636217281 63.3477859391888 0.439260584751539 -81.5731580364996 0.630179925842132 65.8138075110923 
                               0.440540417121839 -81.5123863168569 0.439260584751539 -81.5731580364995 0.782924772198188 -29.5605050450572 0.00164509027552268 136.119112317543 
                               0.629434281709511 -114.028899390731 0.630179925842132 65.8138075110922 0.00164509027552356 136.119112317507 0.454624022809258 98.6839209459141 
10.475                         0.178475509741992 61.4960950767948 0.616909272230442 38.9405361098923 0.438480642803882 -84.4673695318994 0.628732283338703 -116.653313116192 
                               0.616909272230441 38.9405361098922 0.178985901374855 60.9320237795618 0.437203647719137 -84.5279610981136 0.629476037940135 63.1891922599625 
                               0.43848064280388 -84.4673695318996 0.437203647719137 -84.5279610981135 0.785229054655647 -32.8852324167161 0.00164280060958388 133.117062126048 
                               0.628732283338701 -116.653313116192 0.629476037940135 63.1891922599623 0.00164280060958474 133.117062126026 0.456566426831719 96.1279593133538 
10.5                           0.1789547379064  59.0774327211257 0.618948003766816 36.3138273820025 0.436421340113787 -87.4199111342848 0.628024740080859 -119.275088708947 
                               0.618948003766816 36.3138273820024 0.179451554279707 58.5160464866848 0.435147181512388 -87.4803222340375 0.628766671966567 60.5672189978822 
                               0.436421340113786 -87.4199111342849 0.435147181512388 -87.4803222340374 0.787515328785491 -36.2063235027959 0.0016404636653414 130.117867174162 
                               0.628024740080857 -119.275088708947 0.628766671966566 60.567218997882  0.00164046366534221 130.117867174157 0.458513556523277 93.5735706485536 
10.525                         0.179422424424866 56.6587579794786 0.620980419712373 33.6891242169504 0.434362899951624 -90.3701610907723 0.6273115975475  -121.894286311205 
                               0.620980419712373 33.6891242169503 0.179905603185119 56.1000827414    0.433091576587281 -90.4303910331607 0.628051777619409 57.947827119745  
                               0.434362899951623 -90.3701610907724 0.433091576587281 -90.4303910331606 0.78978332784364 -39.5241247578543 0.00163808025383949 127.121451069284 
                               0.627311597547499 -121.894286311205 0.628051777619407 57.9478271197448 0.00163808025384023 127.121451069295 0.460465443425781 91.0207209759144 
10.55                          0.17987862712466 54.2402968595255 0.623006392763578 31.0664240445676 0.432305673699683 -93.318274818079 0.626592801196525 -124.510965741676 
                               0.623006392763578 31.0664240445674 0.180348094284923 53.6843565828697 0.431037184101134 -93.3783225195284 0.627331304132892 55.3309563201161 
                               0.432305673699682 -93.3182748180791 0.431037184101133 -93.3783225195284 0.792032837114519 -42.8389931164529 0.00163565111555967 124.127732778343 
                               0.626592801196523 -124.510965741675 0.62733130413289 55.3309563201159 0.00163565111556033 124.127732778369 0.462422118073243 88.469376591367  
10.575                         0.18032344076545 51.8222704269621 0.625025818140416 28.4457241311884 0.430249972128314 -96.2644132055864 0.625868296373788 -127.125186536478 
                               0.625025818140416 28.4457241311881 0.180779111037565 51.2690872734711 0.428984314826621 -96.3242771745296 0.626605200306868 52.7165465535167 
                               0.430249972128313 -96.2644132055864 0.42898431482662 -96.3242771745296 0.79426369329974 -46.1512958939428 0.00163317691052255 121.136626542741 
                               0.625868296373786 -127.125186536477 0.626605200306866 52.7165465535165 0.00163317691052312 121.136626542783 0.464383609910282 85.9195040646549 
10.6                           0.18075699638989 49.4048946994666 0.627038613254498 25.8270214659825 0.428196064303645 -99.2087426451268 0.625138028357957 -129.737007992194 
                               0.627038613254498 25.8270214659823 0.181198773546518 48.854489185406  0.42693323806783 -99.2684209660702 0.625873414539969 50.1045379926179 
                               0.428196064303644 -99.2087426451267 0.426933238067828 -99.2684209660702 0.796475783934112 -49.4614107100737 0.00163065820788222 118.14804179097  
                               0.625138028357956 -129.737007992194 0.625873414539967 50.1045379926177 0.00163065820788269 118.148041791024 0.466349947208606 83.3710702422675 
10.625                         0.181179460734338 46.9883805580096 0.629044717351834 23.2103126521112 0.426144176490316 -102.151435068305 0.624401942408786 -132.346489211165 
                               0.629044717351834 23.2103126521109 0.18160723799935 46.4407717050446 0.424884180571522 -102.210925385178 0.625135894866682 47.494870984262  
                               0.426144176490316 -102.151435068305 0.42488418057152 -102.210925385178 0.798669046838335 -52.7697254358672 0.00162809547496381 115.16188304936  
                               0.624401942408784 -132.346489211164 0.625135894866679 47.4948709842619 0.00162809547496418 115.161883049425 0.468321156981069 80.824042251054  
10.65                          0.181591035700727 44.5729336718237 0.631044091135698 20.5955938022492 0.424094491042776 -105.0926679917  0.623659983818927 -134.953689149062 
                               0.631044091135698 20.5955938022489 0.18200469616644 44.0281391512988 0.42283732542719 -105.151967490376 0.624392588998476 44.8874860032504 
                               0.424094491042776 -105.0926679917  0.422837325427189 -105.151967490376 0.800843469615747 -56.0766381639929 0.00162548906569534 112.178049851707 
                               0.623659983818925 -134.953689149062 0.624392588998473 44.8874860032502 0.00162548906569559 112.178049851781 0.470297264892755 78.278387502553  
10.675                         0.181991957889399 42.1587544336446 0.633036716374727 17.982860437976  0.42204714527912 -108.032624570183 0.622912097969403 -137.558666664801 
                               0.633036716374727 17.9828604379757 0.182391374959123 41.6167907046226 0.420792810949936 -108.091729960043 0.623643444369088 42.2823236038655 
                               0.42204714527912 -108.032624570183 0.420792810949934 -108.091729960043 0.802999089198383 -59.382557202681 0.00162283920838633 109.19643664878  
                               0.622912097969401 -137.558666664801 0.623643444369085 42.2823236038654 0.00162283920838647 109.196436648858 0.472278295168524 75.7340736980739 
10.7                           0.182382498191649 39.7460379021683 0.635022595501186 15.3721073924966 0.420002230331966 -110.971493658445 0.622158230388805 -140.16148057277 
                               0.635022595501186 15.3721073924963 0.182767536045959 39.2069203435655 0.418750729540709 -111.030401152857 0.622888408184046 39.6793243691176 
                               0.420002230331966 -110.971493658445 0.418750729540707 -111.030401152857 0.805135991445369 -62.6879010929822 0.00162014599280799 106.216932719015 
                               0.622158230388804 -140.16148057277 0.622888408184043 39.6793243691175 0.001620145992808 106.216932719095 0.474264270496342 73.1910688345711 
10.725                         0.182762961439817 37.3349737490076 0.637001751203978 12.7633287161239 0.417959789971471 -113.909469880738 0.62139832681633 -142.762189697375 
                               0.637001751203978 12.7633287161236 0.183133475524878 36.7987167861461 0.416711126519046 -113.968175176303 0.622127427474528 37.0784288577353 
                               0.417959789971471 -113.909469880738 0.416711126519044 -113.968175176303 0.807254310794381 -65.9930986489519 0.0016174093565321 103.239422082023 
                               0.621398326816328 -142.762189697374 0.622127427474525 37.0784288577352 0.001617409356532 103.239422082099 0.476255211925696 70.6493412113576 
10.75                          0.183133686111952 34.9257462077816 0.638974226020608 10.156517583919  0.41591981939619 -116.84675370865 0.620632333268683 -145.360852929851 
                               0.638974226020607 10.1565175839188 0.183489523648178 34.392363433659  0.414673998924071 -116.905251963061 0.6213604491556  34.4795775489451 
                               0.415919819396189 -116.84675370865 0.414673998924069 -116.905251963061 0.809354229964459 -69.298589020092 0.00161462907048995 100.263783416854 
                               0.620632333268683 -145.360852929851 0.621360449155598 34.479577548945  0.00161462907048972 100.263783416924 0.478251138760304 68.1088594377024 
10.775                         0.183495044087465 32.5185340233272 0.640940081931906 7.55166620486699 0.413882263988236 -119.783551546636 0.619860196110943 -147.957529287256 
                               0.640940081931905 7.55166620486679 0.18383604459668 31.9880383148901 0.412639294280243 -119.841837354988 0.620587420088899 31.882710785116  
                               0.413882263988236 -119.783551546636 0.412639294280241 -119.841837354988 0.811435979705953 -72.6048217751142 0.0016118047237165 97.2898899873324 
                               0.619860196110942 -147.957529287256 0.620587420088897 31.882710785116  0.00161180472371614 97.2898899873913 0.480252068444266 65.5695924413669 
10.8                           0.183847440449691 30.1135103993666 0.642899399962846 4.94876573193371 0.411847018029965 -122.720075824857 0.619081862131387 -150.55227797355 
                               0.642899399962845 4.94876573193358 0.184173436298885 29.5859140290603 0.410606909325121 -122.778143194237 0.61980828714979 29.2877687123679 
                               0.411847018029965 -122.720075824857 0.410606909325118 -122.778143194238 0.813499838590791 -75.9122570058129 0.00160893570725096 94.3176095770981 
                               0.619081862131387 -150.55227797355 0.619808287149788 29.2877687123679 0.00160893570725048 94.3176095771421 0.482258016440777 63.0315094781316 
10.825                         0.184191313330931 27.7108429433131 0.644852279792281 2.34780617234201 0.409813923380236 -125.656545098736 0.618297278620356 -153.145158442628 
                               0.644852279792279 2.34780617234195 0.184502130290609 27.1861576861691 0.408576688697239 -125.714387420908 0.619022997299033 26.6946912192762 
                               0.409813923380235 -125.656545098735 0.408576688697237 -125.714387420908 0.81554613283349 -79.2213654495321 0.00160602119717104 91.3468044374236 
                               0.618297278620356 -153.145158442629 0.619022997299032 26.6946912192763 0.00160602119717043 91.3468044374492 0.484268996102415 60.4945801423736 
10.85                          0.184527133795381 25.3106936072277 0.646798839373888 -0.251223702614753 0.407782768109271 -128.593184154477 0.617506393453143 -155.736230463143 
                               0.646798839373887 -0.251223702614739 0.184822591610412 24.788930843744  0.406548423583159 -128.650794176469 0.618231497658981 24.1034178738318 
                               0.407782768109271 -128.593184154477 0.406548423583157 -128.650794176469 0.817575236130558 -82.5326286283858 0.00160306013674573 88.3773312512179 
                               0.617506393453143 -155.736230463143 0.61823149765898 24.1034178738319 0.00160306013674498 88.3773312512219 0.486285018531989 57.9587743787557 
10.875                         0.184855405755271 22.9132186242521 0.648739214570032 -2.84833644891121 0.405753285092108 -131.530224119637 0.616709155176957 -158.325554184927 
                               0.648739214570031 -2.84833644891113 0.185135318726045 22.3943894393214 0.404521850323698 -131.587593912036 0.617433735594321 21.5138878588417 
                               0.405753285092108 -131.530224119637 0.404521850323696 -131.587593912036 0.819587569502952 -85.8465390030505 0.00160005121770064 85.4090411170663 
                               0.616709155176958 -158.325554184927 0.61743373559432 21.5138878588419 0.00160005121769977 85.4090411170463 0.488306092432879 55.4240624950899 
10.9                           0.185176665915625 20.518568440148  0.650673558799617 -5.44354604297155 0.403725150561742 -134.46790257765 0.615905513101973 -160.913190206807 
                               0.650673558799616 -5.44354604297137 0.185440843487266 20.0026837182888 0.402496648980505 -134.525023500401 0.616629658797382 18.9260399059892 
                               0.403725150561742 -134.46790257765 0.402496648980503 -134.525023500401 0.821583601123206 -89.1636001385663 0.00159699286059977 82.4417795575677 
                               0.615905513101973 -160.913190206807 0.616629658797382 18.9260399059895 0.00159699286059878 82.4417795575222 0.490332223947735 52.8904151764462 
10.925                         0.185491483743243 18.1268876398448 0.652602042700408 -8.03686797739058 0.401697982624251 -137.406463685062 0.615095417396463 -163.499199645546 
                               0.652602042700406 -8.0368679773903 0.185739731100543 17.6139581569983 0.40047244186526 -137.463326350554 0.615819215378003 16.3398122287948 
                               0.40169798262425 -137.406463685062 0.400472441865259 -137.463326350554 0.823563846105676 -92.4843268791888 0.0015938831943594 79.4753865566602 
                               0.615095417396463 -163.499199645546 0.615819215378003 16.3398122287951 0.0015938831943583 79.4753865565886 0.492363416484372 50.3578035005735 
10.95                          0.185800461455821 15.7383148691499 0.654524853805558 -10.6283193598816 0.399671339739474 -140.34615829002 0.614278819186059 -166.083644205657 
                               0.654524853805556 -10.6283193598813 0.186032580121506 15.2283513813192 0.39844879203512 -140.402752523238 0.615002353957989 13.7551424547514 
                               0.399671339739474 -140.34615829002 0.39844879203512 -140.402752523238 0.825528866234973 -95.809245528893 0.00159072003492343 76.509696631073  
                               0.614278819186059 -166.083644205657 0.615002353957989 13.7551424547518 0.00159072003492222 76.509696630976  0.494399670527632 47.8261989547092 
10.975                         0.186104234027506 13.3529827520072 0.656442196233463 -13.2179190161344 0.397644719172226 -143.287244050387 0.613455670657129 -168.666586249776 
                               0.656442196233462 -13.217919016134 0.186320022461408 12.8459960810281 0.396425201759382 -143.343558845911 0.614179023770153 11.1719675569322 
                               0.397644719172225 -143.287244050387 0.396425201759381 -143.343558845911 0.827479269604213 -99.1388940336685 0.00158750086314429 73.5445389414877 
                               0.613455670657129 -168.666586249776 0.614179023770154 11.1719675569327 0.00158750086314301 73.544538941367  0.496440983435988 45.295573453851  
11                             0.186403469207697 10.9710178038831 0.658354290389274 -15.8056875972506 0.395617555420529 -146.229985549665 0.612625925164319 -171.248088869272 
                               0.658354290389272 -15.8056875972501 0.186602723404374 10.4670189206398 0.394401110963869 -146.286009025291 0.613349174761973 8.59022378539735 
                               0.395617555420528 -146.229985549665 0.394401110963869 -146.286009025291 0.829415710131068 -102.473822161234 0.00158422280193139 70.5797374494496 
                               0.612625925164318 -171.248088869272 0.613349174761973 8.59022378539789 0.00158422280193006 70.5797374493083 0.498487349221589 42.7658993605707 
11.025                         0.186698867550441 8.59254034203527 0.660261372675719 -18.3916476924094 0.39358921862903 -149.174654408717 0.611789537342256 -173.828215954735 
                               0.660261372675717 -18.3916476924088 0.186881381632796 8.09154044745537 0.392375895661196 -149.230373755457 0.612512757703869 6.00984659875184 
                               0.393589218629029 -149.174654408717 0.392375895661196 -149.230373755457 0.831338886915794 -105.814591673256 0.00158088259274802 67.6151111265218 
                               0.611789537342256 -173.828215954735 0.612512757703871 6.00984659875235 0.00158088259274666 67.6151111263644 0.500538758312456 40.2371495064504 
11.05                          0.186991162452401 6.21766439355708 0.662163695210122 -20.9758239473957 0.391559012997532 -152.121529391054 0.610946463221482 -176.407032265968 
                               0.66216369521012 -20.975823947395 0.187156729258847 5.71967499775025 0.390348866376819 -152.176930819299 0.611669724302157 3.4307705962315  
                               0.391559012997532 -152.121529391054 0.39034886637682 -152.176930819299 0.833249543401459 -109.161776484574 0.0015774765715598 64.6504742226253 
                               0.610946463221481 -176.407032265968 0.611669724302159 3.43077059623207 0.00157747657155848 64.6504742224578 0.502595197295499 37.7092972152236 
11.075                         0.187281120198038 3.8464976022063  0.664061525543723 -23.5582431895974 0.389526175196546 -155.070896499291 0.610096660348626 -178.984603501069 
                               0.664061525543721 -23.5582431895968 0.18742953186082 3.35153060213965 0.388319266582764 -155.125965180893 0.610820027316687 0.852929450720595 
                               0.389526175196546 -155.070896499291 0.388319266582765 -155.125965180893 0.835148466292432 -112.515962803289 0.00157400064436242 61.6856366009464 
                               0.610096660348625 -178.98460350107 0.610820027316689 0.852929450721152 0.00157400064436118 61.6856366007758 0.504656648639038 35.1823163277067 
11.1                           0.187569540011339 1.47914113510692 0.665955146378667 -26.1389345600521 0.387489872803862 -158.023049060146 0.6092400879109  178.439003635812 
                               0.665955146378665 -26.1389345600515 0.187700588523653 0.987208891243906 0.386286271152969 -158.077769066193 0.609963620683247 -1.7237441568756 
                               0.387489872803863 -158.023049060146 0.386286271152971 -158.077769066192 0.837036484182885 -115.877749244907 0.00157045026244332 58.7204041472128 
                               0.609240087910899 178.439003635811 0.609963620683247 -1.72374415687504 0.00157045026244222 58.7204041470474 0.506723090393495 32.6561812286055 
11.125                         0.187857254114151 -0.884310409531013 0.667844855277228 -28.7179296530901 0.385449202778462 -160.97828779516 0.608376706864964 175.863721368503 
                               0.667844855277227 -28.7179296530895 0.1879707318838  -1.37319499716729 0.384248984856515 -161.03264202921 0.609100459640775 -4.29931860145234 
                               0.385449202778463 -160.97828779516 0.384248984856517 -161.03264202921 0.83891446584256 -119.247746912991 0.0015668203975627 55.7545792615331 
                               0.608376706864963 175.863721368502 0.609100459640774 -4.29931860145185 0.00156682039756184 55.7545792613821 0.508794495868924 30.1308668752856 
11.15                          0.188145127791889 -3.2437690925036 0.669730964357049 -31.2952626640879 0.383403189990547 -163.936920874115 0.607506480070252 173.289480785098 
                               0.669730964357047 -31.2952626640874 0.188240828179322 -3.72959250834617 0.382206440907423 -163.990891000684 0.608230500863476 -6.87386337525258 
                               0.383403189990548 -163.936920874115 0.382206440907426 -163.990891000684 0.840783318102403 -122.62657943798 0.00156310551727248 52.7879614413477 
                               0.60750648007025 173.289480785097 0.608230500863476 -6.87386337525214 0.00156310551727193 52.7879614412211 0.510870833288105 27.6063488285951 
11.175                         0.188434059468133 -5.59915372034803 0.671613799965392 -33.8709705458051 0.381350785829153 -166.899263947945 0.60662937242685 170.716211776986 
                               0.671613799965391 -33.8709705458047 0.188511777306803 -6.08190175684843 0.380157599592395 -166.952830316009 0.607353702597928 -9.44744914664811 
                               0.381350785829156 -166.899263947945 0.380157599592398 -166.952830316009 0.842643983277865 -126.014882965028 0.00155929956062847 49.8203479643404 
                               0.606629372426848 170.716211776986 0.607353702597927 -9.44744914664773 0.00155929956062832 49.8203479642483 0.5129520654139  25.0826032858274 
11.2                           0.188724980790305 -7.95038992757909 0.673493702324609 -36.4450931737411 0.379290866911724 -169.865640157724 0.60574535101804 168.143842981151 
                               0.673493702324608 -36.4450931737409 0.188784512887472 -8.4300476077475 0.378101347000705 -169.918781719049 0.606470024805287 -12.0201478156464 
                               0.379290866911728 -169.865640157724 0.378101347000709 -169.918781719049 0.84449743606276 -129.413306080805 0.00155539591459116 46.8515346803942 
                               0.605745351018038 168.143842981151 0.606470024805285 -12.0201478156462 0.00155539591459152 46.8515346803465 0.515038149149654 22.5596071159153 
11.225                         0.189018856729346 -10.2974102533357 0.675371025140202 -39.0176735208984 0.377222233923054 -172.836380116157 0.604854385257628 165.572301726252 
                               0.675371025140201 -39.0176735208983 0.189060002345566 -10.7739617516552 0.37603649388353 -172.889074338257 0.605579429308729 -14.5920325655942 
                               0.377222233923059 -172.836380116157 0.376036493883533 -172.889074338257 0.846344679821608 -132.822509668247 0.0015513873914537 43.8813169218235 
                               0.604854385257625 165.572301726252 0.605579429308725 -14.592032565594 0.00155138739145467 43.8813169218297 0.51712903511146 20.0373378969443 
11.25                          0.189316685696936 -12.6401542114206 0.677246135162097 -41.5887578422959 0.375143610614402 -175.811821857827 0.603956447042211 163.001513983053 
                               0.677246135162096 -41.588757842296 0.189339247002682 -13.1135827724978 0.37396177467326 -175.864044631368 0.604681879946273 -17.1631779105328 
                               0.375143610614408 -175.811821857827 0.373961774673263 -175.864044631368 0.848186742203374 -136.24316667729 0.00154726620768201 40.9094905411604 
                               0.603956447042208 163.001513983053 0.604681879946268 -17.1631779105327 0.00154726620768367 40.909490541228  0.51922466717116 17.5157739560754 
11.275                         0.189619499684457 -14.9785683528136 0.679119411688903 -44.1583958695279 0.373053642997003 -178.792310754309 0.603051510908534 160.431404319746 
                               0.679119411688902 -44.1583958695283 0.189623282192488 -15.4488562070946 0.371875846696817 -178.844036294807 0.603777342729144 -19.7336597376483 
                               0.37305364299701 -178.792310754309 0.371875846696819 -178.844036294807 0.850024669994629 -139.675961798534 0.00154302396460131 37.9358530856788 
                               0.603051510908531 160.431404319746 0.603777342729138 -19.7336597376484 0.00154302396460374 37.9358530858135 0.521324981969049 14.9948944119631 
11.3                           0.189928364428447 -17.3126063198472 0.680991246004133 -46.7266410156058 0.370950898767984 178.221800609857 0.602139554196113 157.861895862753 
                               0.680991246004132 -46.7266410156064 0.189913177400768 -17.7797345956996 0.369777289620666 178.170599866195 0.602865786005867 -22.3035553442393 
                               0.370950898767992 178.221800609857 0.369777289620669 178.170599866194 0.851859523125406 -143.121591025713 0.00153865163141517 34.9602051176089 
                               0.602139554196109 157.861895862753 0.60286578600586 -22.3035553442396 0.00153865163141842 34.9602051178128 0.523429908395326 12.4746792197589 
11.325                         0.190244379607875 -19.6422288913716 0.68286204073255 -49.2935505902732 0.368833867010531 175.230152604426 0.601220557215315 155.292910263595 
                               0.68286204073255 -49.2935505902741 0.190210036436327 -20.1061775228047 0.367664605169044 175.179506110825 0.601947180632288 -24.8729434686193 
                               0.36883386701054 175.230152604426 0.367664605169046 175.179506110825 0.853692367736595 -146.580761091736 0.00153413953109673 31.9823516885549 
                               0.601220557215312 155.292910263595 0.60194718063228 -24.8729434686198 0.00153413953110078 31.9823516888262 0.525539367039444 9.95510921878063 
11.35                          0.190568679079031 -21.9674040183762 0.684732209103972 -51.8591860259228 0.366700958214243 172.2323787681   0.600294503421104 152.724367672428 
                               0.684732209103972 -51.8591860259239 0.190514997638773 -22.4281516476466 0.365536217160909 172.182317983403 0.601021500147734 -27.4419043143556 
                               0.366700958214253 172.2323787681   0.36553621716091 172.182317983402 0.855524268213784 -150.054188761877 0.00152947732974637 29.0021039759963 
                               0.600294503421101 152.724367672428 0.601021500147725 -27.4419043143562 0.00152947732975117 29.0021039763275 0.527653269606633 7.43616618293402 
11.375                         0.19090243115429 -24.2881068496981 0.686602174111039 -54.4236131141881 0.364550504665723 169.228106074723 0.599361379592656 150.15618671885  
                               0.686602174111039 -54.4236131141894 0.190829234129684 -24.7456307240297 0.36339047191524 169.178664585688 0.600088720957554 -30.0105195672399 
                               0.364550504665734 169.228106074724 0.363390471915241 169.178664585687 0.857356278089198 -153.542599966552 0.00152465403006491 26.019281088851  
                               0.599361379592653 150.15618671885  0.600088720957545 -30.0105195672406 0.00152465403007032 26.0192810892279 0.529771518300993 4.9178328739624  
11.4                           0.191246838931402 -26.6043197476161 0.688472367546596 -56.9869022532176 0.362380761263755 166.216955255133 0.598421176019086 147.5882845006   
                               0.688472367546596 -56.986902253219 0.191153954114023 -27.0585956092427 0.361225639078459 166.168168904872 0.599148822522272 -32.5788724043766 
                               0.362380761263765 166.216955255133 0.36122563907846 166.168168904871 0.859189429711077 -157.046728754937 0.00151965796964435 23.0337120479062 
                               0.598421176019082 147.5882845006   0.599148822522263 -32.5788724043774 0.0015196579696501 23.0337120483063 0.531894005174716 2.40009309760364 
11.425                         0.19160314068032 -28.9160322933112 0.690343228905488 -59.5491287055816 0.360189906817587 163.198541178663 0.597473886691506 145.020576580768 
                               0.690343228905488 -59.5491287055831 0.191490401239073 -29.3670342620388 0.359039912931928 163.150448201219 0.598201787553616 -35.1470474947703 
                               0.360189906817595 163.198541178663 0.359039912931928 163.150448201218 0.861024722578772 -160.567316049543 0.00151447682482801 20.0452379454157 
                               0.597473886691503 145.020576580769 0.598201787553608 -35.1470474947711 0.00151447682483369 20.0452379458068 0.534020611443146 -0.117068237276771 
11.45                          0.191972610294898 -31.2232412823585 0.69221520413469 -62.1103728666895 0.357976045891079 160.172473298131 0.596519509501668 142.452976994151 
                               0.692215204134692 -62.1103728666907 0.191839855018458 -31.6709417298356 0.356831414241554 160.125114459125 0.597247602217679 -37.7151309907902 
                               0.357976045891086 160.172473298132 0.356831414241554 160.125114459125 0.862863110242442 -164.10510818077 0.00150909762093666 17.0537142863088 
                               0.596519509501667 142.452976994152 0.597247602217672 -37.7151309907909 0.0015090976209417 17.0537142866472 0.536151206765588 -2.633665056508  
11.475                         0.192356557817062 -33.5259507106129 0.694088744214788 -64.6707205435305 0.355737211259433 157.138356161858 0.595558046447421 139.885398263367 
                               0.69408874421479 -64.6707205435314 0.192203631329092 -33.9703201254889 0.354598192715479 157.091774905122 0.596286256345482 -40.2832105098853 
                               0.355737211259437 157.138356161858 0.354598192715478 157.091774905122 0.864705485668816 -167.660855179437 0.00150350674969384 14.0590135112012 
                               0.595558046447421 139.885398263367 0.596286256345478 -40.2832105098859 0.00150350674969743 14.0590135114299 0.538285648491951 -5.14971005533027 
11.5                           0.192756330041286 -35.824171751046 0.695964303554893 -67.2302632434804 0.353471367048961 154.095789995901 0.594589503845219 137.317751425369 
                               0.695964303554896 -67.2302632434807 0.192583082989137 -36.2651785941997 0.352338230139432 154.05003259596  0.595317743651207 -42.8513751059281 
                               0.35347136704896 154.095789995901 0.352338230139431 154.05003259596  0.866552664979707 -171.235308804413 0.00149768999470937 11.0610276987275 
                               0.59458950384522 137.317751425369 0.595317743651206 -42.8513751059285 0.00149768999471043 11.0610276987746 0.540423780875539 -7.66521462995121 
