! Touchstone file exported from HFSS 2025.2.4
!        File:           C:/Users/chaoy/Documents/single_magictee_v1_g2_550/single_magictee_v1.aedt
!        Generated:      08:54:03 AM Sep 19, 2026
!        Design:         SingleMagicT_v1
!        Project:        single_magictee_v1
!
! Variables:
!        f_adapt = 10.2GHz
!        ridge_g1 = 7.672mm
!        ridge_g2 = 5.5mm
!        ridge_l1 = 9.872mm
!        ridge_l2 = 8.857mm
!        ridge_w = 4.572mm
!        wg_a = 22.86mm
!        wg_b = 10.16mm
!
!Data is not renormalized
# GHz S MA
! Terminal data exported
! Port[1] = P1_CollinearMinusX
! Port[2] = P2_CollinearPlusX
! Port[3] = P3_HArm_Ridged
! Port[4] = P4_EArm
9                              0.247794586028134 -6.10317763706191 0.759165327409006 -170.442479591751 0.564820018850087 113.549732135499 0.207952386620848 70.7809874750153 
                               0.759165327409007 -170.442479591751 0.247686978567758 -5.98722937746482 0.565322553781075 113.576763440839 0.206711336153571 71.0980957743883 
                               0.564820018850089 113.549732135499 0.565322553781076 113.576763440838 0.419336636855688 -135.310667342592 0.430749975604399 126.312338564735 
                               0.207952386620849 70.7809874750152 0.206711336153569 71.0980957743886 0.430749975604397 126.312338564735 0.853510800705597 -120.273331301487 
9.025                          0.246887255218172 -9.24965688411928 0.760210998159082 -173.423623537936 0.563988609231038 110.426893239287 0.207465335617274 67.3964656657249 
                               0.760210998159093 -173.423623537936 0.246764528509388 -9.13573814509966 0.564497802887423 110.453740456181 0.206222869937824 67.7119742001225 
                               0.563988609231039 110.426893239287 0.564497802887421 110.453740456181 0.420153124966375 -138.726443719221 0.432122631552028 123.238305885711 
                               0.207465335617279 67.3964656657237 0.206222869937809 67.7119742001228 0.432122631552021 123.238305885711 0.853055068339354 -123.488415700707 
9.05                           0.245972360110654 -12.3877492855589 0.761266029583445 -176.395103763269 0.563145318059912 107.308055574599 0.206972407898077 64.0170538581017 
                               0.761266029583463 -176.395103763269 0.245834120066975 -12.2759715678804 0.563661314372545 107.334671420603 0.205728455603091 64.3308873236416 
                               0.563145318059912 107.3080555746   0.563661314372542 107.334671420602 0.420977801318403 -142.146029750895 0.433509213031048 120.169069878721 
                               0.206972407898085 64.0170538580999 0.205728455603068 64.3308873236418 0.433509213031039 120.169069878721 0.852591477680227 -126.692402508231 
9.075                          0.245049198581474 -15.5176354986475 0.76233112266626 -179.357112880837 0.562289292008858 104.193130094433 0.206473465587578 60.6427056430585 
                               0.762331122666282 -179.357112880838 0.244895097511973 -15.4081201628696 0.562812217954159 104.219466939643 0.205227958133373 60.9547890294116 
                               0.562289292008857 104.193130094434 0.562812217954154 104.219466939642 0.421813118386767 -145.569334579148 0.434909193670758 117.104496055362 
                               0.206473465587587 60.6427056430563 0.205227958133345 60.9547890294118 0.434909193670747 117.104496055363 0.852120413008636 -129.885486696856 
9.1                            0.24411704601912 -18.6394914897799 0.763406985499728 177.690152821734 0.56141967852251 101.082029642715 0.20596837712564 57.2733721457603 
                               0.763406985499753 177.690152821734 0.243946779732104 -18.5323683992623 0.561949644543779 101.108039467731 0.204721248042684 57.5836306412458 
                               0.561419678522509 101.082029642716 0.561949644543773 101.108039467729 0.422661495948167 -148.996253742439 0.43632205865022 114.044453251746 
                               0.205968377125649 57.2733721457581 0.204721248042654 57.5836306412458 0.436322058650208 114.044453251746 0.851642227437633 -133.067864332563 
9.125                          0.243175161503021 -21.7534877880782 0.76449432681615 174.746494058596 0.560535628106683 97.9746693732594 0.205457017764845 53.9090028226187 
                               0.764494326816175 174.746494058596 0.242988466879959 -21.6488940362731 0.561072728482614 98.0003037355106 0.204208201950776 54.2173617319614 
                               0.560535628106682 97.9746693732611 0.561072728482607 98.0003037355092 0.423525313313598 -152.426668607313 0.437747303733744 110.988813900348 
                               0.205457017764855 53.9090028226166 0.204208201950746 54.2173617319612 0.437747303733733 110.988813900349 0.851157245847572 -136.239731905271 
9.15                           0.242222793672385 -24.8597888393339 0.765593849940775 171.811709175464 0.559636296578897 94.8709671241807 0.204939270055278 50.549546188537  
                               0.765593849940801 171.811709175463 0.242019446667138 -24.7578675617502 0.560180609744265 94.8961771322526 0.20368870314334 50.8559308628134 
                               0.559636296578897 94.8709671241824 0.560180609744258 94.896177132251  0.424406901733738 -155.860445908259 0.439184434438694 107.937454264247 
                               0.204939270055288 50.5495461885354 0.203688703143311 50.8559308628132 0.439184434438683 107.937454264248 0.850665767624728 -139.40128574024 
9.175                          0.241259186279812 -27.9585524547798 0.766706247165944 168.885594734714 0.558720847275714 91.7708437491728 0.204415024315853 47.194950475417  
                               0.766706247165968 168.885594734713 0.241039000299215 -27.8594517250595 0.559272436099324 91.7955800447126 0.203162642115309 47.4992862536471 
                               0.558720847275714 91.7708437491746 0.559272436099316 91.795580044711  0.425308536989635 -159.297437400201 0.440632965336497 104.890254635782 
                               0.204415024315862 47.1949504754157 0.203162642115283 47.4992862536468 0.440632965336487 104.890254635783 0.850168069192765 -142.552721485012 
9.2                            0.240283583426261 -31.0499293491279 0.767832194544144 165.967946057754 0.55778845321199 88.6742234071694 0.203884179091116 43.8451642233191 
                               0.767832194544167 165.967946057753 0.240046408049337 -30.953801157834 0.558347365237038 88.6984361539475 0.202629917095942 44.1473763851055 
                               0.55778845321199 88.6742234071712 0.558347365237031 88.6984361539459 0.426232432182573 -162.737479626779 0.442092419486719 101.847099501648 
                               0.203884179091124 43.8451642233183 0.20262991709592 44.147376385105  0.44209241948671 101.847099501649 0.849664406329368 -145.6942336667  
9.225                          0.239295234475887 -34.1340627623   0.768972347095102 163.058557726636 0.556838299187364 85.5810338119792 0.203346641592403 40.5001368060054 
                               0.768972347095123 163.058557726635 0.239040954470474 -34.0410620762729 0.557404566839372 85.6046726916656 0.202090434554374 40.8001505345741 
                               0.556838299187364 85.581033811981  0.557404566839365 85.6046726916639 0.427180730738336 -166.180393806674 0.44356232800313 98.8078776763723 
                               0.20334664159241 40.5001368060051 0.202090434554355 40.8001505345736 0.443562328003122 98.8078776763726 0.849155016263438 -148.82601531449 
9.25                           0.23829339865104 -37.211088159292 0.770127334419896 160.157224046991 0.555869583835389 82.4912064435771 0.202802328122251 37.1598188928853 
                               0.770127334419913 160.15722404699  0.238021933248314 -37.1213720587789 0.556443224602843 82.5142206577783 0.201544109684392 37.4575592478494 
                               0.55586958383539 82.4912064435788 0.556443224602837 82.5142206577766 0.428155499642555 -169.625985839287 0.445042229749814 95.7724824060838 
                               0.202802328122257 37.1598188928855 0.201544109684376 37.4575592478487 0.445042229749807 95.772482406084  0.848640119551062 -151.948257642254 
9.275                          0.237277349309232 -40.2811330026603 0.771297756713279 157.26373947433  0.554881521610933 79.4046767227818 0.202251164480931 33.8241628496357 
                               0.771297756713293 157.263739474329 0.236988651698522 -40.1948598928581 0.55546253820369 79.4270150008797 0.200990866867216 34.1195547487745 
                               0.554881521610935 79.4046767227834 0.555462538203684 79.4270150008781 0.42915872292512 -173.07404643015 0.446531671164557 92.7408114444263 
                               0.202251164480936 33.8241628496363 0.200990866867205 34.1195547487737 0.446531671164552 92.7408114444264 0.848119921730947 -155.061149786283 
9.3                            0.236246377905291 -43.3443165921833 0.772484181163915 154.377899005804 0.5538733447116  76.321384151104  0.201693086353973 30.4931230799798 
                               0.772484181163927 154.377899005803 0.235940434913621 -43.2616454853549 0.554461725201997 76.3429947634322 0.200430640111134 30.7860912893117 
                               0.553873344711602 76.3213841511055 0.554461725201991 76.3429947634307 0.430192295412858 -176.524351335399 0.448030206205996 89.7127671024003 
                               0.201693086353977 30.4931230799807 0.200430640111127 30.7860912893109 0.448030206205992 89.7127671024003 0.847594614762228 -158.164878593255 
9.325                          0.235199797643187 -46.4007499663489 0.773687138730995 151.499498539452 0.552844304929118 73.24127241758   0.201128039679574 27.1666563112838 
                               0.773687138731004 151.499498539451 0.234876629566174 -46.3218398302687 0.553440022880595 73.2621031934698 0.199863373466847 27.4571254427006 
                               0.552844304929121 73.2412724175814 0.55344002288059 73.2621031934683 0.431258016770722 -179.976661723657 0.449537396420305 86.6882562738649 
                               0.201128039679577 27.1666563112851 0.199863373466842 27.4571254426998 0.449537396420302 86.6882562738648 0.84706437824953 -161.259628453735 
9.35                           0.234136946823131 -49.4505358604316 0.774907121284755 148.628335203006 0.551793675426831 70.1642894744298 0.200555980994778 23.8447218267756 
                               0.774907121284763 148.628335203005 0.23379660737619 -49.3755450285888 0.552396690014672 70.1842878246625 0.199289021417487 24.1326163425046 
                               0.551793675426834 70.1642894744311 0.552396690014668 70.1842878246611 0.432357585852516 176.569275347372 0.45105281112254 83.6671904383613 
                               0.20055598099478 23.8447218267772 0.199289021417485 24.1326163425037 0.451052811122539 83.6671904383612 0.846529380461828 -164.345581176627 
9.375                          0.233057191890675 -52.493768716063 0.776144579097676 145.764207654215 0.550720752439617 67.0903875833911 0.199976877759351 20.5272816472946 
                               0.776144579097681 145.764207654215 0.232699768251862 -52.4228543547959 0.551331008568224 67.1095005265959 0.198707549242299 20.8125258704615 
                               0.550720752439619 67.0903875833923 0.55133100856822 67.1095005265946 0.433492595382656 173.113726343339 0.452576027687225 80.6494856428578 
                               0.199976877759352 20.5272816472963 0.1987075492423  20.8125258704607 0.452576027687224 80.6494856428576 0.845989779153153 -167.422915900245 
9.4                            0.231959930195461 -55.5305347373623 0.777399918672583 142.906916354647 0.549624856892795 64.019523334585  0.199390708656315 17.2143006655698 
                               0.777399918672586 142.906916354647 0.231585543113767 -55.463852364908 0.550242285313661 64.0376975271263 0.198118933353042 17.4968187961475 
                               0.549624856892797 64.0195233345861 0.550242285313657 64.037697527125  0.434664526990673 169.656970559412 0.454106631942152 77.6350624639499 
                               0.199390708656315 17.2143006655716 0.198118933353045 17.4968187961466 0.454106631942152 77.6350624639497 0.845445722194409 -170.491809035818 
9.425                          0.230844592468222 -58.5609119888715 0.778673500893539 140.05626381884  0.548505335936811 60.9516576397594 0.198797463868134 13.9057467360726 
                               0.77867350089354 140.056263818839 0.230453396413637 -58.4986150411965 0.549129853371103 60.9688394086691 0.197523161602253 14.1854628715155 
                               0.548505335936813 60.9516576397603 0.549129853371101 60.968839408668  0.435874746619941 166.199299325895 0.455644218658987 74.6238459519844 
                               0.198797463868133 13.9057467360744 0.197523161602256 14.1854628715146 0.455644218658988 74.6238459519841 0.844897348026598 -173.552434239493 
9.45                           0.229710645025457 -61.5849705307492 0.779965639485163 137.212054840622 0.54736156439473 57.886755701746  0.198197145327614 10.601590723522  
                               0.779965639485163 137.212054840621 0.229302828359674 -61.5272099689677 0.547993073664125 57.9028910802653 0.19692023356258 10.8784288834116 
                               0.547361564394732 57.8867557017468 0.547993073664123 57.9028910802643 0.437124500331566 162.741015119896 0.457188392133771 71.6157655585134 
                               0.198197145327613 10.6015907235238 0.196920233562585 10.8784288834107 0.457188392133771 71.6157655585132 0.844344785946621 -176.60496240911 
9.475                          0.228557591711968 -64.602772586899 0.781276599765963 134.374096698328 0.54619294611986 54.8247869619405 0.197589766942631 7.30180651312586 
                               0.781276599765961 134.374096698327 0.228133376861133 -64.5496965410896 0.546831336288958 54.8398217272476 0.196310160776494 7.57569066717532 
                               0.546192946119862 54.8247869619412 0.546831336288956 54.8398217272468 0.438414910523378 159.282430590548 0.458738766850097 68.6107550484206 
                               0.197589766942629 7.30180651312753 0.196310160776499 7.57569066717446 0.458738766850097 68.6107550484203 0.843788156237439 -179.64956170224 
9.5                            0.227384975592156 -67.6143727419528 0.782606597681282 131.542199340574 0.544998915261073 51.7657250275877 0.196975354793875 4.00637098562557 
                               0.78260659768128 131.542199340573 0.226944619205574 -67.5661261862474 0.54564406179444 51.7796047403045 0.195692966975732 4.27722508442439 
                               0.544998915261074 51.7657250275882 0.545644061794439 51.7796047403038 0.439746972582644 155.82386750601  0.460294968217428 65.6087523979995 
                               0.196975354793873 4.00637098562708 0.195692966975737 4.27722508442354 0.460294968217429 65.6087523979993 0.843227570154918 177.313602427782 
9.525                          0.226192380401553 -70.6198181632952 0.78395579910159 128.716175554146 0.543778937433719 48.7095475806168 0.196353947304881 0.715263960180514 
                               0.783955799101587 128.716175554145 0.225736173482746 -70.5765426172316 0.544430702370271 48.7222176257016 0.19506868826998 0.983011968089519 
                               0.54377893743372 48.7095475806172 0.54443070237027 48.722217625701  0.441121551989343 152.365655631219 0.46185663337674 62.6096996802068 
                               0.196353947304879 0.715263960181854 0.195068688269985 0.983011968088668 0.46185663337674 62.6096996802067 0.842663129783982 174.28436718087  
9.55                           0.224979431770606 -73.6191488445957 0.785324319372046 125.895841115485 0.542532510794311 45.656236269728  0.195725595383691 -2.57153189192799 
                               0.785324319372043 125.895841115485 0.2245076997695  -73.580982095896 0.543190742941434 45.6676418983796 0.194437373304344 -2.30696596228387 
                               0.542532510794312 45.6562362697284 0.543190742941433 45.6676418983791 0.442539381884746 148.908131545903 0.463423412065513 59.6135429382502 
                               0.195725595383689 -2.57153189192689 0.194437373304348 -2.3069659622847 0.463423412065513 59.6135429382502 0.842094927776905 171.262572347073 
9.575                          0.223745798233141 -76.6123978676135 0.786712223099532 123.081014927149 0.541259167017473 42.605776587384  0.1950903625356  -5.85403115985816 
                               0.786712223099529 123.081014927149 0.223258901090459 -76.579473711773 0.541923702166955 42.6158629596015 0.193799083385283 -5.5927232120167 
                               0.541259167017473 42.6057765873843 0.541923702166954 42.6158629596011 0.444001061117588 145.451637412847 0.464994967533952 56.6202320486183 
                               0.195090362535598 -5.85403115985732 0.193799083385287 -5.59272321201751 0.464994967533953 56.6202320486182 0.841523046986656 168.248060233897 
9.6                            0.222491192032263 -79.5995916793503 0.788119524163675 120.271519140529 0.53995847217395 39.5581577333063 0.194448324946522 -9.13224582920183 
                               0.788119524163671 120.271519140529 0.221989524169374 -79.572039671689 0.540629133341489 39.5668699607678 0.193153892574783 -8.87427164668989 
                               0.539958472173949 39.5581577333066 0.540629133341488 39.5668699607675 0.445507052777357 141.996519706768 0.466570977504212 53.6297205746022 
                               0.194448324946519 -9.13224582920125 0.193153892574786 -8.87427164669067 0.466570977504211 53.6297205746023 0.840947560008107 165.240675586458 
9.625                          0.221215369736632 -82.5807503819543 0.789546185938707 117.467179266018 0.538630027508823 36.5133724660173 0.193799571536611 -12.4061854386757 
                               0.789546185938704 117.467179266018 0.220699359986136 -82.5586955980925 0.539306625198527 36.5206556549613 0.192501887752635 -12.1516206486766 
                               0.538630027508822 36.5133724660175 0.539306625198527 36.5206556549611 0.44705768322122 138.543127914339 0.468151135164378 50.641965611308  
                               0.193799571536609 -12.4061854386754 0.192501887752637 -12.1516206486773 0.468151135164377 50.6419656113081 0.840368528639788 162.240265502583 
9.65                           0.219918132680165 -85.5558880331075 0.790992121713428 114.667824271712 0.537273470119358 33.4714169439046 0.193144203983899 -15.6758572548793 
                               0.790992121713424 114.667824271712 0.219388244154372 -85.5394508341797 0.537955802614359 33.4772162377205 0.191843168646802 -15.4247772921449 
                               0.537273470119357 33.4714169439047 0.537955802614359 33.4772162377203 0.44865314159786 135.09181321601  0.46973515018902 47.6569276231024 
                               0.193144203983897 -15.6758572548793 0.191843168646802 -15.4247772921457 0.469735150189019 47.6569276231025 0.839786003278582 159.246679344812 
9.675                          0.218599327238165 -88.5250129549709 0.792457195296904 111.873286671643 0.535888473532236 30.4322905572232 0.192482336717778 -18.9412664626027 
                               0.7924571952969  111.873286671642 0.218056057134306 -88.5143087542727 0.536576327212236 30.4365511784768 0.191177847831951 -18.6937465339766 
                               0.535888473532234 30.4322905572233 0.536576327212236 30.4365511784768 0.450293479868136 131.642927160224 0.471322749778142 44.674570274395  
                               0.192482336717776 -18.941266462603 0.19117784783195 -18.6937465339774 0.471322749778141 44.6745702743952 0.839200022259389 156.259768651012 
9.7                            0.217258844952728 -91.4881280501095 0.793941221797958 109.083402604427 0.534474748180232 27.3959957523719 0.191814096882311 -22.2024163682997 
                               0.793941221797955 109.083402604427 0.216702724295242 -91.4832670782881 0.535167897866496 27.3986630440153 0.190506050696341 -21.95853141818  
                               0.53447474818023 27.395995752372  0.535167897866495 27.3986630440153 0.451978613318999 128.196820340429 0.472913679706561 41.6948602545981 
                               0.191814096882309 -22.2024163683002 0.190506050696339 -21.9585314181808 0.472913679706559 41.6948602545983 0.838610611151366 153.279387045141 
9.725                          0.215896622520003 -94.4452311231573 0.795443968566931 106.298011903146 0.53303204177869 24.3625378497174 0.191139624269422 -25.4593086144644 
                               0.795443968566928 106.298011903146 0.215328215841519 -94.4463181894948 0.533730251106719 24.3635573152535 0.189827915377338 -25.2191332914997 
                               0.533032041778688 24.3625378497175 0.533730251106718 24.3635573152535 0.453708321563579 124.753841084993 0.474507705375863 38.7177670980722 
                               0.19113962426942 -25.4593086144651 0.189827915377335 -25.2191332915005 0.474507705375862 38.7177670980724 0.838017782021814 150.305390149486 
9.75                           0.214512641651455 -97.3963152073302 0.796965156288569 103.516958157141 0.531560139602414 21.3319248561584 0.190459071222149 -28.7119434027932 
                               0.796965156288567 103.51695815714  0.213932546615176 -97.403449455125 0.532263161422281 21.3312421985529 0.189143592665958 -28.475552028072 
                               0.531560139602411 21.3319248561585 0.53226316142228 21.3312421985529 0.45548225001687 121.314334169704 0.476104612861369 35.7432629998124 
                               0.190459071222147 -28.7119434027941 0.189143592665954 -28.4755520280727 0.476104612861367 35.7432629998127 0.837421532678227 147.337635499534 
9.775                          0.213106928820799 -100.34136889523 0.798504460215348 100.740088766356 0.530058864663885 18.3041672735474 0.189772602508233 -31.9603197241554 
                               0.798504460215346 100.740088766356 0.212515775787845 -100.354643549754 0.53076644146795 18.301728432702  0.188453245880899 -31.7277862611144 
                               0.530058864663882 18.3041672735474 0.530766441467949 18.3017284327021 0.457299911833077 117.87863956198  0.477704209946785 32.7713226275901 
                               0.189772602508231 -31.9603197241564 0.188453245880895 -31.7277862611151 0.477704209946783 32.7713226275905 0.836821845898381 144.375982462451 
9.8                            0.211679554907614 -103.280376673707 0.80006151153087 97.9672549887473 0.528528077793948 15.2792779040116 0.189080395164449 -35.2044355935381 
                               0.800061511530869 97.9672549887472 0.21107800645351 -103.299878781693 0.529239942171445 15.2750290926326 0.187757050712644 -34.9758336197887 
                               0.528528077793945 15.2792779040117 0.529239942171444 15.2750290926327 0.459160690287371 114.447091205292 0.479306327139549 29.8019229312214 
                               0.189080395164447 -35.2044355935392 0.187757050712639 -34.9758336197895 0.479306327139546 29.8019229312217 0.83621868865765 141.420292159976 
9.825                          0.21023063474795 -106.213319262869 0.801635898833406 95.1983119811913 0.526967677626331 12.2572716531348 0.188382638312142 -38.444288288283 
                               0.801635898833405 95.1983119811912 0.209619385132867 -106.239129422968 0.527683552744112 12.2511593908509 0.187055195038292 -38.2196909695226 
                               0.526967677626328 12.2572716531349 0.527683552744111 12.251159390851  0.461063841581806 111.020015851558 0.480910818660261 26.8350429495942 
                               0.18838263831214 -38.4442882882841 0.187055195038287 -38.2196909695233 0.480910818660258 26.8350429495945 0.835612011362056 138.470427396394 
9.85                           0.208760326601411 -109.140173959615 0.803227169729961 92.4331188342618 0.525377600487599 9.23816533188291 0.187679532944581 -41.6798745880758 
                               0.803227169729961 92.4331188342618 0.208140101198982 -109.172366043734 0.526097200596121 9.23013647748656 0.186347878707859 -41.4593546542301 
                               0.525377600487596 9.238165331883   0.526097200596119 9.23013647748666 0.46300849805229 107.597731948491 0.482517563399954 23.8706636160445 
                               0.18767953294458 -41.679874588077 0.186347878707854 -41.4593546542308 0.482517563399951 23.8706636160448 0.835001747094773 135.52625259209  
9.875                          0.207268831543326 -112.060914986365 0.804834832531618 89.6715386011489 0.523757820194293 6.22197745808049 0.186971291686801 -44.9111910153042 
                               0.804834832531618 89.6715386011488 0.206640386232856 -112.099555852264 0.524480851157775 6.21197923978258 0.18563531330287 -44.6948207390206 
                               0.52375782019429 6.22197745808059 0.524480851157774 6.21197923978266 0.46499367175097 104.180548587995 0.484126465839443 20.9087675626329 
                               0.1869712916868  -44.9111910153054 0.185635313302865 -44.6948207390213 0.484126465839441 20.9087675626333 0.834387810883061 132.587633723061 
9.9                            0.205756392789696 -114.975513845906 0.806458358041181 86.9134383209289 0.522108347759214 3.20872805816809 0.186258138528713 -48.1382340745378 
                               0.806458358041181 86.9134383209289 0.205120513316417 -115.020663041882 0.522834507608727 3.19670810177345 0.184917721868151 -47.9260852521321 
                               0.522108347759211 3.20872805816821 0.522834507608725 3.19670810177352 0.467018258376205 100.76876452083  0.485737456925419 17.9493389238382 
                               0.186258138528712 -48.1382340745389 0.184917721868146 -47.9260852521328 0.485737456925417 17.9493389238385 0.833770098991813 129.654438266628 
9.925                          0.204223294961624 -117.88393968351 0.808097181424482 84.1586890363237 0.520429231008914 0.198438469892539 0.185540308532346 -51.3610004900381 
                               0.808097181424483 84.1586890363236 0.203580796269287 -117.935649146425 0.521158210517049 0.184344824818233 0.184195338617777 -51.1531444249788 
                               0.520429231008912 0.198438469892679 0.521158210517047 0.184344824818302 0.469081041520399 97.3626672418209 0.487350494898474 14.9923631401413 
                               0.185540308532345 -51.3610004900391 0.184195338617773 -51.1531444249794 0.487350494898473 14.9923631401416 0.833148488249093 126.726535153483 
9.95                           0.202669863294938 -120.786159657705 0.809750704156938 81.4071658060212 0.518720554114613 -2.80886885348717 0.184818047514176 -54.57948744034  
                               0.809750704156938 81.4071658060211 0.202021588834573 -120.844473406011 0.519452037390257 -2.82508769041591 0.183468408616224 -54.3759949293409 
                               0.518720554114611 -2.80886885348706 0.519452037390255 -2.82508769041588 0.47118069720446 93.9625321489601 0.488965566068761 12.037826761944  
                               0.184818047514174 -54.5794874403409 0.18346840861622 -54.3759949293415 0.48896556606876 12.0378267619443 0.832522835408239 123.803794726087 
9.975                          0.201096462799766 -123.682139321247 0.8114182960372  78.658747711574  0.516982437038832 -5.81317053696896 0.184091611703549 -57.7936927890879 
                               0.811418296037201 78.6587477115739 0.200443283817776 -123.747093145025 0.517716102140507 -5.83156559999911 0.18273718743581 -57.5946341108682 
                               0.51698243703883 -5.81317053696883 0.517716102140505 -5.83156559999909 0.473315798666516 90.5686217788221 0.490582685535511 9.08571725422606 
                               0.184091611703548 -57.7936927890886 0.182737187435807 -57.5946341108687 0.49058268553551 9.08571725422627 0.831892976550305 120.886088703348 
10                             0.199503497373815 -126.571843013994 0.813099297259977 75.913317858834  0.515215034900149 -8.81444247510947 0.183361267378332 -61.00361531144  
                               0.813099297259978 75.9133178588339 0.198846312181905 -126.643464164369 0.515950554466282 -8.83506431036116 0.182001940791598 -60.8090602182025 
                               0.515215034900148 -8.81444247510931 0.51595055446628 -8.83506431036121 0.475484821371755 87.1811851197811 0.492201897847202 6.13602280231015 
                               0.183361267378331 -61.0036153114404 0.182001940791596 -60.8090602182029 0.492201897847201 6.13602280231032 0.831258726529809 117.973290151417 
10.025                         0.19789140887222 -129.455234269541 0.814793020540271 73.1707633738348 0.51341853725852 -11.8126600204821 0.182627290478921 -64.209254915483 
                               0.814793020540272 73.1707633738347 0.197231142100834 -129.53354115009 0.514155579152969 -11.8355586691079 0.181262944154947 -64.0192726271557 
                               0.513418537258519 -11.812660020482 0.514155579152967 -11.835558669108 0.47768614820984 83.8004570036558 0.493823277599717 3.18873211907335 
                               0.18262729047892 -64.2092549154832 0.181262944154946 -64.0192726271561 0.493823277599717 3.18873211907347 0.830619878465973 115.065273460358 
10.05                          0.196260676135953 -132.332276237523 0.816498753281476 70.4309753929907 0.511593167323667 -14.8077981689728 0.181889966201884 -67.4106128582156 
                               0.816498753281477 70.4309753929906 0.195598277972068 -132.417278100566 0.512331395294803 -14.8330231527069 0.18052048234699 -67.2252720594994 
                               0.511593167323667 -14.8077981689727 0.512331395294801 -14.833023152707 0.479918074846323 80.4266575755596 0.49544692997041 0.243834253907299 
                               0.181889966201883 -67.4106128582155 0.180520482346989 -67.2252720594997 0.49544692997041 0.243834253907363 0.829976203280855 112.161914326384 
10.075                         0.194611813979984 -135.202932123612 0.818215759779921 67.6938490474404 0.509739181089071 -17.7998317416558 0.181149588574502 -70.6076919557785 
                               0.818215759779922 67.6938490474403 0.193948259389269 -135.294628774441 0.510478255440693 -17.8274320507827 0.179774849113323 -70.4270607960416 
                               0.509739181089071 -17.7998317416557 0.510478255440691 -17.8274320507828 0.482178815194762 77.059991840945  0.49707299118653 -2.69868159630259 
                               0.181149588574501 -70.6076919557782 0.179774849113324 -70.4270607960417 0.497072991186531 -2.69868159630259 0.829327449285029 109.263089739297 
10.1                           0.192945372141742 -138.067165649231 0.819943283458591 64.9592834413324 0.50785686639413 -20.7887355630422 0.180406460011587 -73.8004967877098 
                               0.819943283458591 64.9592834413323 0.192281660074213 -138.165547161494 0.50859644466648 -20.8187596468138 0.17902634668127 -73.624642883773 
                               0.507856866394131 -20.7887355630421 0.508596444666478 -20.818759646814 0.484466506976861 73.7006492881114 0.498701628927049 -5.63882627393889 
                               0.180406460011587 -73.8004967877092 0.179026346681272 -73.6246428837729 0.49870162892705 -5.63882627393896 0.828673341810718 106.368677974709 
10.125                         0.191261934189781 -140.924941533068 0.821680549122855 62.2271816238234 0.505946541917046 -23.774484635542 0.179660890855965 -76.9890338951031 
                               0.821680549122854 62.2271816238233 0.190599086767299 -141.029987978572 0.506686279576216 -23.8069803950722 0.178275285301084 -76.8180243369649 
                               0.505946541917047 -23.7744846355419 0.506686279576214 -23.8069803950725 0.486779217338815 70.3488035837847 0.500333042657459 -8.57661084494661 
                               0.179660890855964 -76.9890338951022 0.178275285301087 -76.8180243369647 0.500333042657461 -8.57661084494675 0.828013582891592 103.478558590578 
10.15                          0.189562116392156 -143.77622599642 0.823426765231184 59.497450554536  0.504008556101023 -26.7570543100262 0.17891319890408 -80.1733119726401 
                               0.823426765231183 59.4974505545359 0.18890117807535 -143.887907192696 0.504748107235068 -26.7920690936972 0.177521982772532 -80.0072133321948 
                               0.504008556101025 -26.7570543100262 0.504748107235066 -26.7920690936974 0.489114948493218 67.00461233879   0.501967463897645 -11.5120467804822 
                               0.178913198904079 -80.1733119726388 0.177521982772536 -80.0072133321944 0.501967463897647 -11.5120467804824 0.827347850987761 100.592612427593 
10.175                         0.187846566543642 -146.620987294398 0.825181126173874 56.7700010622097 0.502043286016359 -29.7364204524111 0.178163708918219 -83.3533420545431 
                               0.825181126173874 56.7700010622095 0.187188603275167 -146.739262573304 0.502782304036444 -29.7740010538309 0.176766763958283 -83.1922203973552 
                               0.502043286016362 -29.736420452411 0.502782304036442 -29.7740010538312 0.491471643357207 63.6682169403327 0.50360515642345 -14.4451461357664 
                               0.178163708918218 -83.3533420545416 0.176766763958288 -83.1922203973546 0.503605156423453 -14.4451461357667 0.826675800753845 97.7107216128546 
10.2                           0.186115962750769 -149.459196274975 0.826942814552938 54.0447477962656 0.500051136160996 -32.7125596062236 0.177412752126892 -86.529137694573 
                               0.826942814552937 54.0447477962655 0.185462061071249 -149.584014275541 0.500789274505972 -32.752752264783 0.176009960285615 -86.3730585947808 
                               0.500051136160998 -32.7125596062236 0.500789274505971 -32.7527522647833 0.493847191159076 60.3397424469639 0.505246416403051 -17.3759217260197 
                               0.177412752126891 -86.5291376945711 0.176009960285621 -86.3730585947801 0.505246416403053 -17.3759217260201 0.825997062847385 94.8327695663563 
10.225                         0.184371012173562 -152.290826967765 0.828711003456357 51.3216091710035 0.498032537202116 -35.6854491511344 0.176660665714925 -89.7007151402546 
                               0.828711003456356 51.3216091710034 0.183722278306113 -152.422125456366 0.498769450044958 -35.7282995552193 0.175251909237919 -89.5497436986889 
                               0.498032537202118 -35.6854491511344 0.498769450044958 -35.7282995552196 0.496239432987259 57.019297541956  0.5068915724697  -20.3043872993833 
                               0.176660665714925 -89.7007151402526 0.175251909237925 -89.549743698688 0.506891572469703 -20.3043872993837 0.825311243774311 91.9586410097035 
10.25                          0.182612449723004 -155.115857204388 0.830484858720002 48.600507302145  0.495987944661365 -38.6550674574682 0.175907792304879 -92.8680935015727 
                               0.83048485872    48.6005073021449 0.181970008621927 -155.253562925116 0.496723287615953 -38.7006207503994 0.17449295383755 -92.7222943671866 
                               0.495987944661368 -38.6550674574683 0.496723287615953 -38.7006207503997 0.498646167257354 53.7069745405278 0.508540985732854 -23.2305577067561 
                               0.175907792304878 -92.8680935015704 0.174492953837557 -92.7222943671854 0.508540985732856 -23.2305577067566 0.82461792576764 89.0882219765397 
10.275                         0.180841036713442 -157.934269272166 0.832263541170587 45.8813679354478 0.49391783754629 -41.6213940367224 0.175154479431402 -96.03129491442  
                               0.832263541170585 45.8813679354477 0.180206031072499 -158.078297830056 0.494651268373078 -41.6696948255042 0.17373344212158 -95.8907323091446 
                               0.493917837546293 -41.6213940367225 0.494651268373079 -41.6696948255045 0.501065155074741 50.402849446153  0.51019504973007 -26.1544490685   
                               0.175154479431401 -96.0312949144174 0.173733442121587 -95.8907323091433 0.510195049730073 -26.1544490685006 0.823916666695067 86.2213998241439 
10.3                           0.179057559469532 -160.746050602829 0.834046208843108 43.1641203671212 0.491822716930584 -44.5844096881366 0.174401079010175 -99.1903446991212 
                               0.834046208843107 43.1641203671211 0.178431148685212 -160.896306382286 0.49255389623978 -44.6355020551154 0.172973726612004 -99.0550824462754 
                               0.491822716930587 -44.5844096881367 0.49255389623978 -44.6355020551157 0.503494125472194 47.1069820510482 0.511854190322453 -29.0760789379883 
                               0.174401079010175 -99.1903446991185 0.172973726612011 -99.0550824462738 0.511854190322456 -29.0760789379888 0.823206999990749 83.3580632456802 
10.325                         0.177262827887833 -163.551194497814 0.835832019166306 40.448697355791  0.489703104485786 -47.5440966413676 0.173647946803103 -102.345271514381 
                               0.835832019166305 40.4486973557909 0.176646186973132 -163.707570618289 0.490431696436686 -47.5980241589157 0.172214163782012 -102.215373070779 
                               0.489703104485789 -47.5440966413677 0.490431696436687 -47.5980241589161 0.505930780503809 43.8194160758614 0.513518865536702 -31.9954664619934 
                               0.173647946803103 -102.345271514378 0.17221416378202 -102.215373070777 0.513518865536705 -31.9954664619941 0.822488434606088 80.4981022826005 
10.35                          0.17545767395375 -166.349700891691 0.837620131109782 37.7350350257814 0.487559540967073 -50.5004386953282 0.172895441881421 -105.496107507022 
                               0.83762013110978 37.7350350257813 0.174851992398291 -166.512079202258 0.488285213962308 -50.5572444436884 0.171455113519906 -105.37163599894 
                               0.487559540967076 -50.5004386953284 0.488285213962309 -50.5572444436888 0.508372800178436 40.5401793435732 0.515189565357147 -34.9126325379286 
                               0.172895441881421 -105.496107507019 0.171455113519913 -105.371635998938 0.515189565357149 -34.9126325379292 0.821760454974098 77.6414083367272 
10.375                         0.173642950215245 -169.141577155176 0.839409707286511 35.0230727615031 0.485392584655859 -53.4534213532495 0.172143926088395 -108.64288845789 
                               0.83940970728651 35.0230727615031 0.173049430788   -169.309828269279 0.486115012029337 -53.5131479416956 0.170696938592268 -108.52390672108 
                               0.485392584655862 -53.4534213532497 0.486115012029338 -53.513147941696 0.510817847217594 37.2692839826632 0.51686681147134 -37.8275999679733 
                               0.172143926088396 -108.642888457887 0.170696938592275 -108.523906721078 0.516866811471343 -37.8275999679739 0.821022520981555 74.7878741815754 
10.4                           0.171819528215589 -171.926838939158 0.841199916004628 32.3127530927687 0.483202809761956 -56.4030319540229 0.171393763503307 -111.785653924305 
                               0.841199916004627 32.3127530927686 0.171239385707002 -172.100822310363 0.483921670459355 -56.4657215455121 0.169940004108   -111.672224548243 
                               0.483202809761959 -56.4030319540231 0.483921670459356 -56.4657215455125 0.513263571624625 34.0067266546905 0.518551156972995 -40.7403936101312 
                               0.171393763503307 -111.785653924301 0.169940004108007 -111.672224548241 0.518551156972997 -40.7403936101319 0.820274067942985 71.9373939725141 
10.425                         0.169988296888256 -174.705511061157 0.842989933262465 29.6040215708849 0.480990804788124 -59.3492597998713 0.170645319908368 -114.924447379428 
                               0.842989933262464 29.6040215708849 0.169422756789294 -174.885075100286 0.481705784038851 -59.4149541393872 0.169184676984822 -114.816632756024 
                               0.480990804788127 -59.3492597998715 0.481705784038853 -59.4149541393876 0.515707615053487 30.7524888015727 0.520243186026182 -43.6510405262788 
                               0.170645319908369 -114.924447379425 0.169184676984829 -114.816632756022 0.520243186026184 -43.6510405262794 0.819514506570344 69.0898632554074 
10.45                          0.168150160918052 -177.477628435651 0.844778944681039 26.8968266354107 0.478757170859912 -62.2920962803885 0.169898962260258 -118.059316348904 
                               0.844778944681039 26.8968266354107 0.167600458034478 -177.66261066921 0.479467960839502 -62.3608367271942 0.168431325419854 -117.957178725907 
                               0.478757170859915 -62.2920962803888 0.479467960839504 -62.3608367271946 0.518147614967118 27.5065369080269 0.521943513494793 -46.559570127274 
                               0.169898962260259 -118.059316348901 0.168431325419859 -117.957178725904 0.521943513494794 -46.5595701272747 0.818743222932146 66.2451789734278 
10.475                         0.166306039073547 179.756762950245 0.846566147368306 24.1911194715042 0.476502520023792 -65.2315349929729 0.169155058167903 -121.190312545106 
                               0.846566147368306 24.1911194715041 0.165773416074599 179.566535680922 0.477208820505753 -65.3033625570192 0.167680318365843 -121.093914084458 
                               0.476502520023795 -65.2315349929732 0.477208820505754 -65.3033625570196 0.520581208576772 24.2688227748444 0.523652784541322 -49.466014315208 
                               0.169155058167904 -121.190312545103 0.167680318365848 -121.093914084455 0.523652784541323 -49.4660143152086 0.817959578395774 63.4032394717828 
10.5                           0.164456862516904 176.997605014152 0.848350751709761 21.4868538578278 0.474227473516679 -68.1675718596627 0.16841397537813 -124.317491999297 
                               0.848350751709761 21.4868538578278 0.163942568418489 176.802316314122 0.474928992512857 -68.2425272424186 0.166932025014638 -124.226894840715 
                               0.474227473516681 -68.167571859663 0.474928992512858 -68.2425272424189 0.523006036555006 21.0392837989086 0.525371674199021 -52.370407622882 
                               0.168413975378132 -124.317491999295 0.166932025014642 -124.226894840713 0.525371674199022 -52.3704076228826 0.817162909546721 60.5639445001588 
10.525                         0.162603573098195 174.244826507137 0.850131983080156 18.7839860050233 0.471932660010062 -71.1002052403641 0.167676081270778 -127.440915191965 
                               0.850131983080156 18.7839860050233 0.162108861681709 174.044670150982 0.47262911439863 -71.1783288803605 0.16618681428943 -127.356181522046 
                               0.471932660010064 -71.1002052403644 0.472629114398631 -71.1783288803608 0.525419746516216 17.8178432561295 0.527100886921391 -55.2727873506032 
                               0.16767608127078 -127.440915191962 0.166186814289434 -127.356181522043 0.527100886921391 -55.2727873506037 0.816352528078645 57.7271952127426 
10.55                          0.160747121642347 171.498341891812 0.851909083471383 16.0824743848142 0.46961871383208 -74.0294360424392 0.166941742364816 -130.560647181558 
                               0.851909083471386 16.0824743848142 0.160273249811199 171.293521510765 0.470309829972286 -74.1107681658407 0.165445054347305 -130.481839308711 
                               0.469618713832081 -74.0294360424394 0.470309829972287 -74.110768165841 0.527819996259636 14.6044105837435 0.52884115611292 -58.1731937003906 
                               0.166941742364818 -130.560647181556 0.165445054347307 -130.481839308709 0.52884115611292 -58.1731937003911 0.81552772064825 54.8928941657492 
10.575                         0.158888466237841 168.758050167648 0.85368131303187 13.3822795498439 0.467286273171013 -76.9552678266005 0.166211323836971 -133.676757731807 
                               0.853681313031873 13.3822795498439 0.158436692314731 168.548778903264 0.467971787503865 -77.0398485031442 0.164707112093564 -133.603938167351 
                               0.467286273171014 -76.9552678266008 0.467971787503865 -77.0398485031445 0.530204456770702 11.3988816587217 0.530593243644774 -61.0716699076857 
                               0.166211323836974 -133.676757731805 0.164707112093565 -133.603938167349 0.530593243644773 -61.0716699076862 0.814687748689311 52.0609453124485 
10.6                           0.157028570537218 166.023833641004 0.855447951513108 10.6833639444055 0.464935978263807 -79.8777069090312 0.16548518905432 -136.789321437727 
                               0.855447951513113 10.6833639444055 0.156600152506158 165.810333768398 0.465615637897885 -79.9655761136921 0.163973352709271 -136.722552983502 
                               0.464935978263807 -79.8777069090315 0.465615637897885 -79.9655761136923 0.532570814977451 8.20113906933568 0.532357939358979 -63.9682623706578 
                               0.165485189054322 -136.789321437725 0.163973352709272 -136.7225529835  0.532357939358978 -63.9682623706583 0.813831848180437 49.2312539957565 
10.625                         0.155168402080422 163.295556636965 0.857208299619338 7.98569170627307 0.462568469573394 -82.7967624596262 0.164763699122215 -139.898417850385 
                               0.857208299619343 7.98569170627313 0.154764595778328 163.078059161141 0.463242032855008 -82.8879601403935 0.163244139193394 -139.837763693231 
                               0.462568469573394 -82.7967624596264 0.463242032855007 -82.8879601403936 0.534916776259367 5.0110523772345  0.534136060564355 -66.8630207771914 
                               0.164763699122218 -139.898417850383 0.163244139193393 -139.837763693229 0.534136060564354 -66.8630207771917 0.812959229361618 46.4037269385283 
10.65                          0.153308930652809 160.573064149644 0.85896168025673 5.28922845989263 0.460184385958714 -85.71244659622  0.164047212448884 -143.0041316004  
                               0.858961680256737 5.28922845989268 0.152930987916239 160.351808378874 0.460851623025631 -85.80701274839  0.162519831920859 -142.949655413899 
                               0.460184385958714 -85.7124465962201 0.46085162302563 -85.8070127483901 0.537240066706674 1.82847836770476 0.535928451527184 -69.7559982296354 
                               0.164047212448886 -143.004131600399 0.162519831920857 -142.949655413898 0.535928451527182 -69.7559982296356 0.812069076395062 43.5782722317615 
10.675                         0.151451126690495 157.856180427041 0.860707439678842 2.59394110124821 0.457784362841516 -88.6247744746423 0.16333608432791 -146.106552520112 
                               0.86070743967885 2.59394110124824 0.151100293463761 157.631413527708 0.458445056159493 -88.722749222052 0.161800788217795 -146.058318573973 
                               0.457784362841515 -88.6247744746425 0.458445056159491 -88.7227492220521 0.539538435128603 -1.34673871390318 0.537735982959233 -72.647251367386 
                               0.163336084327913 -146.106552520112 0.161800788217793 -146.058318573972 0.537735982959231 -72.6472513673862 0.811160546966428 40.7547993209974 
10.7                           0.149595959746469 155.144707485949 0.862444948525525 -0.100202425234479 0.455369030374149 -91.533764374413 0.162630666539773 -149.205775764254 
                               0.862444948525534 -0.100202425234445 0.149273474157769 154.916684023696 0.456022975255504 -91.6351880580595 0.161087361955108 -149.163849041757 
                               0.455369030374148 -91.5337643744131 0.456022975255502 -91.6351880580595 0.541809654809597 -4.51476694128669 0.539559551505384 -75.5368404873649 
                               0.162630666539776 -149.205775764254 0.161087361955104 -149.163849041756 0.539559551505382 -75.536840487365 0.810232771823183 37.9332189912781 
10.725                         0.14774439703156 152.438423551648 0.864173602752928 -2.79323335732672 0.452939011612738 -94.4394377798568 0.161931306973471 -152.301901928892 
                               0.864173602752939 -2.79323335732669 0.147451487444122 152.207405024109 0.4535860167162  -94.5443510543662 0.160379903161491 -152.266348252809 
                               0.452939011612737 -94.4394377798569 0.453586016716197 -94.5443510543661 0.544051525012816 -7.67578650323229 0.541400079232659 -78.4248296624382 
                               0.161931306973473 -152.301901928893 0.160379903161487 -152.266348252808 0.541400079232657 -78.4248296624382 0.809284854247597 35.1134433510996 
10.75                          0.145897402045044 149.737081416346 0.865892824452715 -5.48518235271175 0.450494920700277 -97.3418194563973 0.161238349269195 -155.395037168319 
                               0.865892824452726 -5.48518235271173 0.145635285090318 149.503335783136 0.451134808511315 -97.4502633948218 0.159678757656863 -155.36592333574 
                               0.450494920700276 -97.3418194563973 0.451134808511312 -97.4502633948216 0.546261872230637 -10.8299895176781 0.543258513121969 -81.3112868578128 
                               0.161238349269197 -155.39503716832 0.159678757656859 -155.36592333574 0.543258513121968 -81.3112868578127 0.808315869462694 32.2953858158659 
10.775                         0.144055933310258 147.040406709398 0.86760206255907 -8.17607973325318 0.44803736106432 -100.240937521753 0.160552132482871 -158.485293309487 
                               0.867602062559083 -8.17607973325316 0.143825811910081 146.804207925449 0.448669968355178 -100.352953729191 0.158984266707102 -158.46268723599 
                               0.448037361064319 -100.240937521753 0.448669968355174 -100.352953729191 0.54843855118214 -13.9775798645837 0.545135824563398 -84.1962840454234 
                               0.160552132482873 -158.485293309488 0.158984266707097 -158.46268723599 0.545135824563396 -84.1962840454232 0.807324863970403 29.4789610914374 
10.8                           0.142220943231216 144.348096071301 0.86930079344264 -10.8659557352511 0.445566923634121 -103.136823511738 0.159872990773293 -161.572787963482 
                               0.869300793442654 -10.8659557352511 0.14202400461548 144.109723630048 0.446192101902726 -103.252454248284 0.158296766700852 -161.556758837087 
                               0.445566923634119 -103.136823511738 0.44619210190272 -103.252454248284 0.550579445557922 -17.1187730381079 0.547033008855236 -87.0798973163094 
                               0.159872990773295 -161.572787963484 0.158296766700847 -161.556758837089 0.547033008855234 -87.0798973163092 0.80631085482216 26.6640851584239 
10.825                         0.140393377086804 141.659815222337 0.870988521391017 -13.5548407650673 0.443084185082193 -106.029512440342 0.159201253112418 -164.657644633458 
                               0.870988521391032 -13.5548407650673 0.140230790812517 141.41955371566  0.443701800969099 -106.148800753889 0.157616588849053 -164.648263078817 
                               0.443084185082191 -106.029512440342 0.443701800969093 -106.148800753889 0.552682468512833 -20.2537960183039 0.548951084706419 -89.9622069909595 
                               0.159201253112419 -164.65764463346 0.157616588849047 -164.648263078819 0.548951084706418 -89.9622069909591 0.805272828823312 23.8506752579539 
10.85                          0.138574172179795 138.97519691547  0.872664778975944 -16.2427656594578 0.440589706095422 -108.919042853737 0.158537243019258 -167.73999281833 
                               0.872664778975961 -16.2427656594578 0.138447088156482 138.733335617728 0.441199641777909 -109.04203272315 0.15694405890769 -167.737331071592 
                               0.440589706095421 -108.919042853737 0.441199641777902 -109.042032723149 0.554745562907595 -23.3828871622656 0.550891093741334 -92.8432977275759 
                               0.158537243019259 -167.739992818333 0.156944058907685 -167.737331071595 0.550891093741333 -92.8432977275754 0.804209741673828 21.0386498797151 
10.875                         0.136764257158592 136.293838761685 0.87432912730796 -18.9297619499067 0.438084029680974 -111.80545687783 0.157881278317679 -170.819968111453 
                               0.874329127307978 -18.9297619499067 0.136673803683743 136.050671245625 0.438686183243379 -111.932193367035 0.156279496924147 -170.824100206254 
                               0.438084029680973 -111.80545687783 0.438686183243371 -111.932193367035 0.556766701300636 -26.5062961143909 0.55285410000528 -95.7232586281929 
                               0.15788127831768 -170.819968111457 0.156279496924141 -170.824100206257 0.55285410000528 -95.7232586281923 0.803120517049131 18.2279287531228 
10.9                           0.134964551530432 133.615300914433 0.875981156179716 -21.6158621302116 0.435567679512371 -114.688800258973 0.15723367091823 -173.897712293391 
                               0.875981156179735 -21.6158621302116 0.134911833337129 133.371124707231 0.436161965291711 -114.8193296825  0.155623217007368 -173.908714258402 
                               0.435567679512371 -114.688800258972 0.436161965291702 -114.819329682499 0.558743885691888 -29.6242837351577 0.554841189468162 -98.6021833425514 
                               0.15723367091823 -173.897712293396 0.155623217007363 -173.908714258406 0.554841189468162 -98.6021833425507 0.802004045626149 15.4184328425373 
10.925                         0.13317596538571 130.939103598134 0.877620484099788 -24.301099926536 0.433041158321251 -117.5691223974  0.156594726623978 -176.973373417802 
                               0.877620484099808 -24.3010999265361 0.133162061702624 130.694219886324 0.433627507227106 -117.703492497913 0.154975527121906 -176.991323486268 
                               0.433041158321251 -117.569122397399 0.433627507227097 -117.703492497913 0.560675147020815 -32.7371220475618 0.55685346952317 -101.480170169609 
                               0.156594726623977 -176.973373417807 0.154975527121901 -176.991323486273 0.55685346952317 -101.480170169608 0.800859184061169 12.6100843475024 
10.95                          0.13139939935422 128.264724463821 0.879246758219307 -26.9855105691017 0.43050494634039 -120.446476372959 0.155964744960166 179.952894110665 
                               0.879246758219329 -26.9855105691018 0.131425361975863 128.01943785645  0.431083306147999 -120.584736511323 0.154336728905728 179.927915278992 
                               0.430504946340391 -120.446476372958 0.431083306147989 -120.584736511322 0.562558544421516 -35.8450942001062 0.558892068476436 -104.357322156531 
                               0.155964744960165 179.95289411066  0.154336728905724 179.927915278986 0.558892068476436 -104.35732215653 0.799684753927516 9.80280670902761 
10.975                         0.129635744815488 125.591595752952 0.880859654154281 -29.6691310646653 0.427959499803714 -123.320918962671 0.155344019027314 176.88092946764  
                               0.880859654154303 -29.6691310646654 0.129702596177838 125.346214112898 0.428529835419156 -123.463120321086 0.153707117511526 176.848838551775 
                               0.427959499803716 -123.320918962671 0.428529835419146 -123.463120321085 0.564392164238481 -38.9484944449963 0.560958135022757 -107.233747194985 
                               0.155344019027313 176.880929467634 0.153707117511523 176.848838551769 0.560958135022759 -107.233747194984 0.798479540622704 6.99652462297971 
11                             0.127885884387094 122.91910124816  0.882458875706991 -32.3520004688884 0.425405249509091 -126.192510649656 0.154732835377214 173.810565350776 
                               0.882458875707014 -32.3520004688885 0.127994615640496 122.673935602237 0.425967543205365 -126.338706448391 0.15308698147104 173.77127612062  
                               0.425405249509094 -126.192510649655 0.425967543205355 -126.33870644839 0.566174118807358 -42.0476281299512 0.563052837701605 -110.109558114518 
                               0.154732835377211 173.810565350769 0.153086981471038 173.771276120614 0.563052837701607 -110.109558114517 0.797242292256268 4.19116406168627 
11.025                         0.126150692716928 120.246572987246 0.884044154490357 -35.0341601576836 0.422842599449794 -129.061315622916 0.154131473911075 170.741627933368 
                               0.884044154490381 -35.0341601576837 0.126302261784448 120.001937526489 0.423396851072558 -129.211561351166 0.152476602581776 170.695050988337 
                               0.422842599449798 -129.061315622915 0.423396851072548 -129.211561351165 0.56790254500608 -45.1428117018091 0.565177364326649 -112.984872772771 
                               0.154131473911073 170.741627933362 0.152476602581775 170.69505098833  0.565177364326651 -112.98487277277 0.795971718531255 1.3866523048799  
11.05                          0.124431037607953 117.573287713996 0.885615249459642 -37.7156540965926 0.420271925520611 -131.927401767506 0.153540207798898 167.673936831356 
                               0.885615249459667 -37.7156540965927 0.124626367212983 117.329499896364 0.420818152662245 -132.081755428873 0.151876255815245 167.619979325212 
                               0.420271925520616 -131.927401767505 0.420818152662235 -132.081755428872 0.569575602582806 -48.2343727198746 0.567332921381081 -115.859814142239 
                               0.153540207798895 167.673936831349 0.151876255815245 167.619979325204 0.567332921381083 -115.859814142238 0.794666489633992 -1.41708201886629 
11.075                         0.122727781507132 114.898463036451 0.887171946356307 -40.3965291072282 0.417693574304646 -134.790840644547 0.152959303418921 164.607305085311 
                               0.887171946356332 -40.3965291072283 0.122967757149039 114.655843805113 0.418231812445246 -134.949363017638 0.151286209245705 164.545870436963 
                               0.417693574304652 -134.790840644546 0.418231812445235 -134.949363017637 0.571191472268403 -51.3226498767271 0.569520733369942 -118.734510393261 
                               0.152959303418917 164.607305085303 0.151286209245706 164.545870436955 0.569520733369944 -118.73451039326 0.793325235148595 -4.22010887905176 
11.1                           0.121041783394069 112.221253259993 0.888714057069297 -43.0768351297954 0.41510786194691 -137.651707460602 0.152389020315829 161.541539159142 
                               0.888714057069322 -43.0768351297955 0.121327251244839 111.980127391413 0.415638164560749 -137.814462375215 0.150706723998136 161.472526749199 
                               0.415107861946917 -137.651707460601 0.415638164560739 -137.814462375213 0.572748353682654 -54.4079930239833 0.571742042119573 -121.60909497287 
                               0.152389020315825 161.541539159134 0.150706723998138 161.472526749191 0.571742042119575 -121.609094972869 0.791946543014438 -7.0224967773508 
11.125                         0.119373901109549 109.540744859091 0.890241418919396 -45.756625480681 0.412515073120895 -140.510081025865 0.151829611176163 158.476438957323 
                               0.890241418919422 -45.7566254806811 0.119705665797619 109.301441456239 0.413037511746799 -140.677135655201 0.150138054214008 158.399743810268 
                               0.412515073120903 -140.510081025864 0.41303751174679 -140.677135655199 0.574244463045042 -57.490763200281 0.573998106013182 -124.483706679097 
                               0.151829611176159 158.476438957315 0.150138054214011 158.399743810259 0.573998106013185 -124.483706679096 0.790528958546618 -9.82431266775336 
11.15                          0.117724994169828 106.855951547653 0.891753893872686 -48.4359571040949 0.40991546009434 -143.366043700668 0.151281321819186 155.411797862565 
                               0.891753893872712 -48.435957104095 0.118103816409408 106.618804694892 0.410430124368355 -143.537468869989 0.14958044703315 155.327310314485 
                               0.409915460094349 -143.366043700667 0.410430124368346 -143.537468869987 0.575678030702816 -60.5713326585262 0.576290199150307 -127.358489730275 
                               0.151281321819181 155.411797862557 0.149580447033154 155.327310314475 0.576290199150309 -127.358489730274 0.789070983541253 -12.6256218616174 
11.175                         0.116095927119334 104.165808903757 0.89325136768946 -51.1148908167239 0.407309241900479 -146.219681329767 0.150744391201239 152.34740279595  
                               0.893251367689485 -51.114890816724 0.11652252113436 103.931158501234 0.407816239549134 -146.395551841881 0.149034142589845 152.255008147827 
                               0.407309241900489 -146.219681329766 0.407816239549126 -146.395551841879 0.577047298491131 -63.6500848892189 0.578619610416711 -130.233593828849 
                               0.150744391201234 152.347402795942 0.149034142589849 152.255008147817 0.578619610416713 -130.233593828848 0.787571075489243 -15.4264879165405 
11.2                           0.114487573482673 101.469168499942 0.894733749015246 -53.7934915443534 0.404696603621076 -149.071083163921 0.150219051431401 149.283034301641 
                               0.894733749015271 -53.7934915443535 0.114962604163692 101.237361296628 0.405196060413471 -149.251478141832 0.148499374021031 149.182612458313 
                               0.404696603621087 -149.07108316392 0.405196060413464 -149.25147814183 0.578350516942388 -66.7274146364442 0.580987642449945 -133.109174219141 
                               0.150219051431396 149.283034301633 0.148499374021036 149.182612458304 0.580987642449947 -133.10917421914 0.786027646923857 -18.2269725080074 
11.225                         0.112900820386651 98.7647914853356 0.896200968420842 -56.4718285493989 0.402077695787608 -151.920341768247 0.14970552779607 146.21846665836  
                               0.896200968420866 -56.4718285493989 0.113424900106292 98.5361823311897 0.402569755444499 -152.105345015265 0.147976367484281 146.10989175336  
                               0.40207769578762 -151.920341768246 0.402569755444493 -152.105345015264 0.579585942364451 -69.8037279028867 0.583395610484454 -135.98539173846 
                               0.149705527796066 146.218466658352 0.147976367484286 146.109891753351 0.583395610484455 -135.985391738459 0.784439064929205 -21.0271352828321 
11.25                          0.111336573934883 96.0513415605939 0.8976529773985  -59.1499756482809 0.399452633906959 -154.767552916873 0.149204038789831 143.153468019944 
                               0.897652977398524 -59.149975648281 0.111910258932471 95.8262948995667 0.399937457964948 -154.957253294445 0.147465342182996 143.03660802653  
                               0.399452633906972 -154.767552916872 0.399937457964944 -154.957253294444 0.580751833810279 -72.8794419399902 0.585844841058658 -138.862412860906 
                               0.149204038789827 143.153468019936 0.147465342183001 143.036608026521 0.585844841058658 -138.862412860905 0.782803650838242 -23.8270336934902 
11.275                         0.109795765431649 93.3273772809718 0.899089747321544 -61.8280114175739 0.396821498118024 -157.612815473435 0.148714796149803 140.087800587335 
                               0.899089747321566 -61.828011417574 0.110419551659682 93.1062689076452 0.397299265746916 -157.807307296869 0.146966510396042 139.962516916157 
                               0.396821498118037 -157.612815473434 0.397299265746913 -157.807307296868 0.581846449964612 -75.9549852191526 0.588336670565014 -141.740409733138 
                               0.148714796149799 140.087800587328 0.146966510396046 139.962516916149 0.588336670565013 -141.740409733137 0.781119680150433 -26.626722812534 
11.3                           0.108279358568607 90.5913436168922 0.900511268374869 -64.5060193878449 0.394184332985596 -160.456231256962 0.148238004890407 137.021220814462 
                               0.90051126837489 -64.5060193878449 0.108953676872422 90.3745627203261 0.394655240756961 -160.655614709193 0.14648007750882 136.887367898463 
                               0.394184332985609 -160.456231256961 0.394655240756959 -160.655614709192 0.582868045976714 -79.0307973796033 0.590872443622473 -144.619560201325 
                               0.148238004890403 137.021220814455 0.146480077508825 136.887367898455 0.590872443622471 -144.619560201324 0.779385382700574 -29.4262551263857 
11.325                         0.106788357708133 87.841562695118  0.901917548463859 -67.184088224102 0.391541147437928 -163.297904892764 0.14777386333531 133.953479650523 
                               0.901917548463877 -67.184088224102 0.107513568184511 87.6295142137584 0.392005409042885 -163.502286456211 0.146006242042551 133.810904517809 
                               0.391541147437941 -163.297904892763 0.392005409042885 -163.502286456209 0.583814870271915 -82.1073291483725 0.593453511249198 -147.500047828418 
                               0.147773863335307 133.953479650517 0.146006242042554 133.810904517803 0.593453511249194 -147.500047828417 0.777598943111422 -32.2256803079409 
11.35                          0.105323817421262 85.07622363723   0.903308612109289 -69.86231189176  0.388891914854292 -166.137943647935 0.147322563143079 130.884322821255 
                               0.903308612109306 -69.8623118917599 0.106100202770806 84.8693309482582 0.389349760768536 -166.34743655444 0.145545195678324 130.732864656853 
                               0.388891914854304 -166.137943647935 0.389349760768537 -166.347436554439 0.584685161378617 -85.1850422275165 0.596081228811745 -150.382061900816 
                               0.147322563143078 130.88432282125  0.145545195678326 130.732864656848 0.59608122881174 -150.382061900816 0.775758501563732 -35.0250449675482 
11.375                         0.103886853467004 82.2933714056405 0.904684499335854 -72.5407898070303 0.386236573308818 -168.976457251163 0.146884289322882 127.813491151804 
                               0.904684499335867 -72.5407898070303 0.104714611117882 82.092079370574  0.386688250402958 -169.191181949915 0.145097123272273 127.652980849397 
                               0.386236573308829 -168.976457251162 0.386688250402961 -169.191181949914 0.585477144811758 -88.2644091435209 0.598756953725235 -153.265797423409 
                               0.146884289322881 127.8134911518   0.145097123272274 127.652980849393 0.598756953725229 -153.265797423409 0.773862154918068 -37.8243923821022 
11.4                           0.102478655434386 79.4908945610741 0.906045264561861 -75.2196269706326 0.383575025976828 -171.813557696551 0.146459220236383 124.740720933867 
                               0.906045264561872 -75.2196269706326 0.10335788816968 79.2956729462905 0.384020797070143 -172.03364233981 0.14466220285801 124.570980638819 
                               0.383575025976837 -171.813557696551 0.384020797070146 -172.03364233981 0.58618903005828 -91.345913053559 0.601482042877275 -156.151455101894 
                               0.146459220236384 124.740720933863 0.144662202858009 124.570980638817 0.601482042877268 -156.151455101894 0.771907958223132 -40.6237622021633 
11.425                         0.101100501309843 76.6665118295638 0.907390975497657 -77.8989340837256 0.38090714170971 -174.649359031264 0.146047527581797 121.66574433978  
                               0.907390975497663 -77.8989340837256 0.102031206075607 76.4778591150921 0.381347285065549 -174.874939977594 0.14424060563227 121.486586984965 
                               0.380907141709716 -174.649359031264 0.381347285065553 -174.874939977593 0.586819007715021 -94.4300475030454 0.604257849746661 -159.039241311177 
                               0.146047527581799 121.665744339778 0.144240605632267 121.486586984964 0.604257849746653 -159.039241311177 0.769893926645506 -43.4231901372168 
11.45                          0.0997537742820397 73.8177573719443 0.908721712060184 -80.5788276449449 0.378232755784283 -177.48397712682 0.145649376355891 118.588289886261 
                               0.908721712060186 -80.5788276449449 0.100735828785712 73.6362049535431 0.378667564545464 -177.715199461443 0.143832495919536 118.399518722448 
                               0.378232755784285 -177.48397712682 0.378667564545469 -177.715199461443 0.587365246834619 -97.5173161286888 0.607085721186061 -161.92936804856 
                               0.145649376355895 118.588289886262 0.14383249591953 118.399518722448 0.607085721186053 -161.92936804856 0.76781803785541 -46.2227076194059 
11.475                         0.0984399821554653 70.9419646450561 0.910037565311004 -83.259430027428 0.375551670832353 179.682470566023 0.145264924789578 115.508082950474 
                               0.910037565310999 -83.2594300274281 0.0994731287815816 70.7680814221983 0.37598145239509 179.445452494253 0.143438031111239 115.309491073282 
                               0.37555167083235 179.682470566023 0.375981452395095 179.445452494252 0.587825892540381 -100.608232301024 0.609966993836087 -164.822052870308 
                               0.145264924789584 115.508082950476 0.14343803111123 115.309491073284 0.60996699383608 -164.822052870309 0.765678234902408 -49.0223414463027 
11.5                           0.0971607798152251 68.0362487420724 0.911338636424913 -85.9408695347057 0.372863657955919 176.849865278783 0.144894324252614 112.424846341068 
                               0.911338636424901 -85.9408695347058 0.0982446062835846 67.8706460666118 0.373288733281058 176.606887304429 0.14305736157499 112.216216216772 
                               0.372863657955912 176.849865278783 0.373288733281063 176.606887304427 0.588199063976704 -103.703318700193 0.612902990136357 -167.717518810075 
                               0.144894324252621 112.424846341073 0.143057361574979 112.216216216776 0.612902990136352 -167.717518810076 0.763472429613865 -51.8221134035407 
