! Touchstone file exported from HFSS 2025.2.4
!        File:           C:/Users/chaoy/Documents/single_magictee_v1_w400/single_magictee_v1.aedt
!        Generated:      08:57:11 AM Sep 19, 2026
!        Design:         SingleMagicT_v1
!        Project:        single_magictee_v1
!
! Variables:
!        f_adapt = 10.2GHz
!        ridge_g1 = 7.672mm
!        ridge_g2 = 4.984mm
!        ridge_l1 = 9.872mm
!        ridge_l2 = 8.857mm
!        ridge_w = 4mm
!        wg_a = 22.86mm
!        wg_b = 10.16mm
!
!Data is not renormalized
# GHz S MA
! Terminal data exported
! Port[1] = P1_CollinearMinusX
! Port[2] = P2_CollinearPlusX
! Port[3] = P3_HArm_Ridged
! Port[4] = P4_EArm
9                              0.234949122774685 -11.0088449278202 0.776716936209563 -169.330778999598 0.552645743425139 110.924757127587 0.189979980489284 71.9982531828652 
                               0.776716936209567 -169.330778999598 0.236925159323163 -10.6250084263291 0.55167634217644 111.039233102455 0.190343067558935 71.9523709315703 
                               0.552645743425138 110.924757127587 0.551676342176437 111.039233102456 0.461981075141597 -145.945805789122 0.420487077052214 123.66918067758  
                               0.189979980489282 71.9982531828656 0.190343067558936 71.9523709315699 0.420487077052215 123.66918067758  0.866526249849149 -119.95353533988 
9.025                          0.233841243337185 -14.1140099179884 0.777892249974516 -172.338138089102 0.551619605826496 107.814829144279 0.189519712978106 68.6545128659103 
                               0.777892249974485 -172.338138089101 0.235819987118336 -13.7227360604852 0.550652183570719 107.93182090869  0.189881847612513 68.612478872485  
                               0.55161960582647 107.814829144276 0.550652183570709 107.931820908692 0.46337468412177 -149.208217577173 0.42164127963412 120.60888445301  
                               0.189519712978083 68.6545128659062 0.189881847612508 68.612478872483  0.421641279634111 120.608884453011 0.866168915564029 -123.176447394598 
9.05                           0.232729682827759 -17.2091925077952 0.779070804379499 -175.33605656035 0.550584685853612 104.70955037034  0.189055721277087 65.3162307727397 
                               0.779070804379445 -175.336056560348 0.23470947159755 -16.8105801945024 0.549619749371269 104.829086342978 0.189417158206589 65.2780754052659 
                               0.550584685853569 104.709550370337 0.549619749371256 104.829086342982 0.46476406889176 -152.471329584371 0.422809863224928 117.554096055074 
                               0.18905572127705 65.3162307727325 0.18941715820658 65.2780754052629 0.422809863224914 117.554096055076 0.865803312085382 -126.388518157619 
9.075                          0.231613918043865 -20.2946138862544 0.780253144620847 -178.3247236891  0.549540347463784 101.608830375223 0.188587945365017 61.9833550610752 
                               0.78025314462078 -178.324723689098 0.233593110256216 -19.8887593495719 0.548578418949992 101.730937933484 0.188948939984044 61.9491065994819 
                               0.549540347463731 101.608830375219 0.548578418949976 101.730937933488 0.466150777930571 -155.735086808482 0.423992483437278 114.504678127498 
                               0.188587945364972 61.9833550610663 0.188948939984033 61.9491065994783 0.423992483437259 114.5046781275   0.865429704733142 -129.589941964208 
9.1                            0.230493416954157 -23.3704847166042 0.78143980571159 178.695669933818 0.548485956650754 98.5125799788389 0.188116329661896 58.6558303881531 
                               0.781439805711516 178.69566993382  0.232470383846315 -22.9574845061414 0.547527572849311 98.6372852408121 0.188477138289221 58.625514903916  
                               0.548485956650696 98.5125799788345 0.547527572849295 98.637285240817  0.467536324897586 -158.999429664581 0.425188811373089 111.460495830776 
                               0.188116329661848 58.6558303881435 0.188477138289209 58.6255149039123 0.425188811373069 111.460495830778 0.865048326301603 -132.780914600341 
9.125                          0.229367643828078 -26.4370052336134 0.782631309451985 175.724932959059 0.547420883407521 95.4207116457795 0.187640823398886 55.3335986925971 
                               0.782631309451911 175.724932959061 0.231340762252863 -26.0169588332278 0.546466594701447 95.5480392684358 0.188001703482625 55.3072399345796 
                               0.547420883407464 95.4207116457752 0.546466594701431 95.5480392684407 0.468922183790406 -162.264293668733 0.426398532487871 108.421417098593 
                               0.187640823398838 55.3335986925876 0.188001703482613 55.3072399345759 0.426398532487851 108.421417098595 0.864659379853934 -135.961632553953 
9.15                           0.22823606388859 -29.4943653875626 0.783828161652398 172.762873786739 0.546344503618608 92.3331398356197 0.18716138096995 52.0165999085584 
                               0.783828161652328 172.76287378674  0.230203709920799 -29.0673774934265 0.545394873079649 92.4631128284901 0.187522591239338 51.9942191950087 
                               0.546344503618555 92.3331398356158 0.545394873079635 92.4631128284946 0.470309784398141 -165.529609177066 0.427621345568355 105.387312857213 
                               0.187161380969906 52.0165999085496 0.187522591239327 51.9942191950053 0.427621345568336 105.387312857214 0.864263041373674 -139.132292350379 
9.175                          0.227098147513918 -32.5427450279173 0.785030849602879 169.809301028229 0.545256200878191 89.2497813109455 0.18667796226443 48.7047726131571 
                               0.785030849602818 169.809301028231 0.22905869084486 -32.108927516115 0.54431180327776 89.382420864581  0.187039762830653 48.6863887298552 
                               0.545256200878143 89.2497813109421 0.544311803277747 89.3824208645849 0.471700508049673 -168.795301180808 0.428856961823756 102.358057210072 
                               0.186677962264391 48.7047726131494 0.187039762830643 48.6863887298522 0.42885696182374 102.358057210073 0.863859462259873 -142.293089967198 
9.2                            0.225953374014267 -35.5823141203286 0.786239839782876 166.864023924228 0.544155368230896 86.1705554048586 0.186190532979872 45.3980546086523 
                               0.786239839782824 166.864023924229 0.227905173136615 -35.1417877317461 0.543216789014879 86.305880733342  0.186553185388541 45.3836837131798 
                               0.544155368230856 86.1705554048557 0.543216789014869 86.3058807333452 0.473095683655624 -172.061289157418 0.430105104090096 99.3335275897528 
                               0.186190532979839 45.398054608646  0.186553185388534 45.3836837131773 0.430105104090082 99.3335275897539 0.863448771655626 -145.444220323532 
9.225                          0.224801235009279 -38.6132329911895 0.787455575803835 163.926852721562 0.54304140983249 83.0953842497846 0.185699064914549 42.0963834411068 
                               0.787455575803795 163.926852721563 0.226742633184102 -38.1661287605304 0.542109244062334 83.2334124465659 0.186062832152558 42.086038973195  
                               0.543041409832459 83.0953842497825 0.542109244062325 83.2334124465683 0.474496584042132 -175.327486977589 0.43136550614621 96.3136048794832 
                               0.185699064914524 42.0963834411021 0.186062832152553 42.086038973193  0.4313655061462  96.3136048794841 0.863031078602625 -148.585876838869 
9.25                           0.223641237431661 -41.6356525945321 0.788678476576879 160.997599011208 0.541913742528036 80.0241929694779 0.185203536239175 38.7996968576132 
                               0.788678476576851 160.997599011208 0.22557055942048 -41.1821130492057 0.540988593790505 80.1649388758077 0.185568682698892 38.7933894555114 
                               0.541913742528015 80.0241929694765 0.540988593790499 80.1649388758094 0.475904422573933 -178.593802867452 0.432637912139365 93.2981735062341 
                               0.185203536239157 38.79969685761   0.185568682698888 38.7933894555099 0.432637912139358 93.2981735062347 0.862606474016904 -151.71825105645 
9.275                          0.222472906181978 -44.6497147965877 0.789908934697275 158.076076029961 0.540771797345504 76.956909836159  0.184703931747408 35.5079332044013 
                               0.789908934697259 158.076076029961 0.224388455718924 -44.18989494999  0.539854276633486 77.1003859214084 0.185070723151276 35.5056706271921 
                               0.540771797345492 76.9569098361583 0.539854276633481 77.1003859214092 0.477320350063886 178.139860575012 0.433922076117731 90.2871215074475 
                               0.184703931747398 35.5079332043997 0.185070723151274 35.5056706271912 0.433922076117727 90.2871215074478 0.86217503248332 -154.841532326336 
9.3                            0.221295786458998 -47.6555526738374 0.791147315037145 155.162098928195 0.539615020903128 73.8934663947615 0.184200243084834 32.2210317683637 
                               0.79114731503714 155.162098928195 0.223195844431554 -47.1896208362045 0.538705745469852 74.039682647925  0.184568946373551 32.2228188241437 
                               0.539615020903124 73.8934663947614 0.538705745469849 74.039682647925  0.478745451965589 174.873606310731 0.435217761666366 87.2803405733437 
                               0.184200243084831 32.2210317683636 0.184568946373552 32.2228188241432 0.435217761666366 87.2803405733438 0.861736813868381 -157.955907543336 
9.325                          0.220109445789337 -50.6532908208712 0.792393953537623 152.255485006056 0.538442876729201 70.8337975562769 0.18369246895617 28.9389330647115 
                               0.792393953537628 152.255485006056 0.221992269090618 -50.1814292494491 0.537542468918236 70.98276138798   0.184063352143707 28.9447715445445 
                               0.538442876729206 70.8337975562774 0.537542468918235 70.9827613879794 0.480180745845476 171.607542739217 0.436524741642865 84.2777260666961 
                               0.183692468956173 28.9389330647127 0.184063352143709 28.9447715445444 0.436524741642868 84.2777260666959 0.861291864752935 -161.061560935102 
9.35                           0.218913475779398 -53.6430456648314 0.793649156191521 149.356053920424 0.537254846493308 67.7778416622016 0.18318061531055 25.6615790736184 
                               0.793649156191536 149.356053920424 0.220777296790433 -53.1654510735964 0.536363932546683 67.9295578165523 0.183553947309277 25.6714676911628 
                               0.537254846493319 67.7778416622027 0.536363932546683 67.9295578165511 0.481627179130404 168.341783529167 0.437842798008307 81.2791770218869 
                               0.183180615310559 25.6615790736208 0.183553947309281 25.671467691163  0.437842798008313 81.2791770218865 0.860840219687852 -164.158673895819 
9.375                          0.217707493611791 -56.6249257836634 0.794913198207566 146.463627864868 0.536050431148334 64.7255405220793 0.1826646955048  22.3889134288173 
                               0.794913198207589 146.463627864867 0.219550520268742 -56.1418097312579 0.535169639995149 64.8800109977307 0.183040745924028 22.4028477655218 
                               0.536050431148351 64.7255405220808 0.535169639995149 64.8800109977289 0.483085627126485 165.076447402356 0.439171721748782 78.2845961249813 
                               0.182664695504814 22.3889134288206 0.183040745924033 22.4028477655223 0.43917172174879 78.2845961249808 0.860381902277299 -167.247424861103 
9.4                            0.216491143307565 -59.5990322258183 0.796186323347204 143.578031724755 0.534829151982938 61.6768394261231 0.182144730444701 19.1208815611943 
                               0.796186323347234 143.578031724754 0.218311559706185 -59.1106213987573 0.533959114010803 61.8340634059414 0.182523769365918 19.1388540169536 
                               0.534829151982962 61.6768394261249 0.533959114010805 61.8340634059392 0.484556891304575 161.811657873438 0.440511312882382 75.2938896764855 
                               0.182144730444718 19.1208815611984 0.182523769365924 19.1388540169542 0.440511312882391 75.2938896764848 0.859916926095476 -170.327989219863 
9.425                          0.215264096774646 -62.565458829452 0.797468743425104 140.699093209613 0.533590551584469 58.6316871348753 0.181620748704321 15.8574308004763 
                               0.797468743425139 140.699093209612 0.217060064262524 -62.0719952360262 0.532731897396129 58.7916609236379 0.182003046436361 15.8794305496338 
                               0.533590551584496 58.6316871348775 0.532731897396131 58.7916609236353 0.486041697847542 158.547542948506 0.441861380546254 72.3069675383703 
                               0.181620748704341 15.857430800481  0.182003046436369 15.8794305496345 0.441861380546266 72.3069675383696 0.859445295443708 -173.400539259103 
9.45                           0.214026054661921 -65.524292539555 0.798760637964545 137.826642964706 0.532334194712622 55.5900358478302 0.181092786623561 12.5985104381312 
                               0.798760637964585 137.826642964705 0.215795713368078 -65.0260336282116 0.531487553870115 55.7527528174103 0.181478613440892 12.6245233907164 
                               0.532334194712652 55.5900358478326 0.531487553870117 55.7527528174074 0.487540696454093 155.284234785501 0.443221743158082 69.3237430668741 
                               0.181092786623583 12.5985104381363 0.1814786134409  12.6245233907172 0.443221743158095 69.3237430668733 0.858967005955765 -176.465244137804 
9.475                          0.212776747037404 -68.4756137218056 0.800062153999055 134.960514663735 0.531059669084466 52.5518411529032 0.18056088838414 9.34407175460047 
                               0.800062153999097 134.960514663734 0.214518217788592 -67.9728324361601 0.530225668843154 52.7172916944325 0.180950514251356 9.37408052268638 
                               0.531059669084499 52.5518411529057 0.530225668843156 52.7172916944295 0.489054459393601 152.021869319751 0.444592228646122 66.3441330325118 
                               0.180560888384163 9.3440717546058  0.180950514251364 9.37408052268709 0.444592228646136 66.344133032511  0.858482045059944 -179.522269886268 
9.5                            0.211515933907852 -71.4194964722894 0.801373406011796 132.100545084455 0.529766586071717 49.517061958584  0.180025106064306 6.09406801396253 
                               0.80137340601184 132.100545084454 0.213227320481388 -70.912481253309 0.528945850106543 49.6852334411173 0.180418800349835 6.12805188303106 
                               0.52976658607175 49.5170619585865 0.528945850106545 49.6852334411142 0.490583480805956 148.760585858044 0.445972674741822 63.3680575286491 
                               0.18002510606433 6.0940680139679  0.180418800349843 6.12805188303172 0.445972674741837 63.3680575286483 0.857990392307124 177.428220572499 
9.525                          0.210243405596148 -74.3560089225511 0.80269447600446 129.246574168893 0.528454581311438 46.4856604105524 0.179485499672646 2.8484544290823  
                               0.802694476004504 129.246574168892 0.211922797260215 -73.8450636668769 0.527647728437747 46.6565371457944 0.179883530854544 2.88638933428754 
                               0.528454581311472 46.485660410555  0.527647728437749 46.6565371457913 0.492128176240116 145.500526644806 0.447362929328917 60.3954398699182 
                               0.179485499672669 2.84845442908757 0.179883530854552 2.8863893342881  0.447362929328931 60.3954398699175 0.857492019574396 174.386067382581 
9.55                           0.208958982991626 -77.28521353975  0.804025413687562 126.398445069777 0.52712331523163 43.457601794477  0.178942137161402 -0.392811899758765 
                               0.804025413687606 126.398445069776 0.210604457285696 -76.7706575216049 0.526330958122887 43.6311650071673 0.179344772527995 -0.350953392536626 
                               0.527123315231663 43.4576017944795 0.526330958122888 43.6311650071643 0.493688882424557 142.241836404002 0.448762850842832 57.4262064816828 
                               0.178942137161424 -0.392811899753713 0.179344772528002 -0.350953392536194 0.448762850842846 57.426206481682  0.856986891154237 171.351113699106 
9.575                          0.207662517687408 -80.207167421979 0.805366236784328 123.556004184645 0.52577247349337 40.4328544266456 0.178395094419795 -3.62977206983527 
                               0.805366236784371 123.556004184644 0.209272143397634 -79.6893351846447 0.524995217398117 40.609082230235  0.178802599767772 -3.58402077824792 
                               0.525772473493402 40.432854426648  0.524995217398118 40.6090822302321 0.495265857262407 138.984661860475 0.450172308714247 54.4602867816794 
                               0.178395094419816 -3.62977206983053 0.178802599767778 -3.58402077824762 0.45017230871426 54.4602867816788 0.856474963739398 168.323205619124 
9.6                            0.206353892017667 -83.1219225890635 0.806716931440575 120.719101179042 0.524401767351455 37.4113895340109 0.177844455247888 -6.86246548172823 
                               0.806716931440615 120.719101179041 0.207925732304781 -82.6011638105288 0.523640208811824 37.5902569112944 0.17825709458031 -6.81285561662599 
                               0.524401767351485 37.4113895340131 0.523640208811824 37.5902569112916 0.49685928004358 135.729151244433 0.45159118385066 51.4976130548994 
                               0.177844455247908 -6.86246548172392 0.178257094580315 -6.81285561662585 0.451591183850672 51.4976130548988 0.855956186313757 165.302192101982 
9.625                          0.205033019006556 -86.0295262694086 0.808077452733217 117.887589000066 0.523010933935656 34.3931811251511 0.177290311311584 -10.090929963136 
                               0.808077452733255 117.887589000065 0.206565134646888 -85.5062056054891 0.522265659509766 34.5746599135624 0.177708346538107 -10.0374991337343 
                               0.523010933935683 34.3931811251532 0.522265659509766 34.5746599135598 0.498469251865757 132.475453782784 0.45301936914988 48.5381203226956 
                               0.177290311311602 -10.0909299631322 0.177708346538112 -10.0374991337343 0.453019369149892 48.5381203226951 0.855430499959388 162.287924881516 
9.65                           0.203699842239411 -88.9300211836715 0.809447725270325 115.061323881465 0.521599736454916 31.3782058535705 0.176732762079394 -13.3152019081456 
                               0.809447725270359 115.061323881464 0.20519029494302 -88.4045180906999 0.520871321445462 31.5622647348745 0.177156452720849 -13.257991122775 
                               0.521599736454941 31.3782058535724 0.520871321445462 31.5622647348722 0.500095796255612 129.223719180994 0.454456770039492 45.5817462070363 
                               0.17673276207941 -13.3152019081422 0.177156452720853 -13.2579911227751 0.454456770039502 45.5817462070359 0.854897837590016 159.280258372221 
9.675                          0.202354335665668 -91.8234458262393 0.81082764387586 112.240165341362 0.520167964326977 28.3664428746815 0.176171914741658 -16.5353164294897 
                               0.810827643875891 112.240165341361 0.203801191439255 -91.296154364326 0.519456971518312 28.5530473688367 0.176601517640953 -16.4743700920055 
                               0.520167964326999 28.3664428746831 0.519456971518312 28.5530473688347 0.501738859981208 125.974097099063 0.455903305036437 42.6284307907611 
                               0.176171914741672 -16.5353164294868 0.176601517640957 -16.4743700920057 0.455903305036446 42.6284307907608 0.854358123620785 156.279049571302 
9.7                            0.200996503341788 -94.7098347456662 0.812217074352523 109.423976173582 0.518715433236046 25.3578736977194 0.175607884112939 -19.7513075214594 
                               0.812217074352549 109.423976173581 0.202397835867887 -94.181163362543 0.518022411642056 25.5469861607139 0.176043653154085 -19.6866734233779 
                               0.518715433236065 25.3578736977208 0.518022411642055 25.5469861607121 0.503398314046065 122.726736625085 0.457358906321085 39.6781164746222 
                               0.17560788411295 -19.7513075214571 0.176043653154087 -19.6866734233783 0.457358906321093 39.6781164746219 0.853811273584063 153.284157958357 
9.725                          0.199626379121402 -97.5892188253665 0.813615854316324 106.612622433488 0.517241985121252 22.3524820337621 0.175040792518313 -22.9632082312768 
                               0.813615854316346 106.612622433487 0.200980273129307 -97.0595901199595 0.516567468746292 22.544061659258  0.175482978355203 -22.8949375396973 
                               0.517241985121268 22.3524820337633 0.516567468746291 22.5440616592565 0.505073954854981 119.481785749779 0.458823520320334 36.7307478318409 
                               0.175040792518322 -22.963208231275 0.175482978355205 -22.8949375396978 0.45882352032034 36.7307478318407 0.853257193700606 150.295445394215 
9.75                           0.198244026298777 -100.461625565994 0.815023794096835 103.805973419101 0.515747488098691 19.3502536409306 0.17447076966435 -26.1710508368882 
                               0.815023794096854 103.8059734191   0.199548580906692 -99.9314760301239 0.515091994713871 19.5442564655828 0.17491961946076 -26.0991980782501 
                               0.515747488098705 19.3502536409317 0.51509199471387 19.5442564655816 0.506765505541324 116.23939084516  0.460297108294523 33.7862714608413 
                               0.174470769664357 -26.1710508368869 0.174919619460762 -26.0991980782507 0.460297108294529 33.7862714608412 0.852695780415029 147.312776020301 
9.775                          0.196849537210691 -103.327079371035 0.816440677697211 101.003901648232 0.514231836319962 16.3511761677624 0.173897952495552 -29.374867029293 
                               0.816440677697226 101.003901648231 0.198102869222568 -102.796859107025 0.51359586625701 16.5475550801032 0.174353709677654 -29.2994900690072 
                               0.514231836319973 16.3511761677632 0.513595866257009 16.5475550801023 0.508472617445161 112.999696150389 0.461779646923224 30.8446358367654 
                               0.173897952495558 -29.3748670292921 0.174353709677655 -29.2994900690078 0.461779646923228 30.8446358367653 0.852126919904067 144.336016159679 
9.8                            0.19544303280083 -106.185601837219 0.817866263808396 98.2062828322187 0.512694949770069 13.3552389956577 0.173322485037047 -32.5746880976763 
                               0.817866263808407 98.2062828322183 0.196643279945276 -105.655774248705 0.512078984735032 13.5539437484676 0.173785389059578 -32.4958481156621 
                               0.512694949770077 13.3552389956583 0.512078984735031 13.5539437484669 0.510194871731325 109.762843267606 0.463271128885234 27.9057911623187 
                               0.17332248503705 -32.5746880976758 0.173785389059577 -32.4958481156628 0.463271128885236 27.9057911623186 0.851550487565559 141.36503422081  
9.825                          0.194024662149869 -109.037212051419 0.819300286872121 95.4129958468225 0.511136774007616 10.3624330812123 0.172744518224345 -35.770545115778 
                               0.81930028687213 95.4129958468223 0.195169986252303 -108.508253504274 0.51054127591661 10.5634103073186 0.173214804351417 -35.6883065779256 
                               0.511136774007621 10.3624330812128 0.510541275916609 10.5634103073181 0.511931781136273 106.528970670358 0.464771563428423 24.9696892184394 
                               0.172744518224347 -35.770545115778 0.173214804351416 -35.6883065779262 0.464771563428424 24.9696892184394 0.850966347495578 138.399700604843 
9.85                           0.192594601973595 -111.881926895724 0.820742458187529 92.6239227007221 0.509557279850167 7.37275079916147 0.172164209720968 -38.9624691280884 
                               0.820742458187533 92.6239227007219 0.193683192056377 -111.354326345806 0.508982689689366 7.5759440306302  0.172642108822354 -38.876899753658 
                               0.509557279850171 7.37275079916178 0.508982689689365 7.57594403062992 0.513682791832429 103.298213226959 0.466280976925424 22.03628321523   
                               0.172164209720969 -38.9624691280886 0.172642108822352 -38.8768997536585 0.466280976925424 22.03628321523   0.850374351960481 135.439887617145 
9.875                          0.191153056090636 -114.719761362403 0.822192467056473 89.838948501989  0.507956463007601 4.38618578657335 0.171581723724729 -42.1504913346192 
                               0.822192467056475 89.8389485019889 0.192183131399239 -114.194019946693 0.507403199719652 4.59153547727789 0.172067462088333 -42.0616620595806 
                               0.507956463007603 4.38618578657354 0.507403199719651 4.59153547727779 0.515447285398605 100.070701740923 0.467799413411459 19.1055276435412 
                               0.171581723724728 -42.1504913346196 0.172067462088332 -42.0616620595811 0.467799413411458 19.1055276435413 0.849774340870036 132.485469383629 
9.9                            0.189700254860671 -117.550728880459 0.823649981962786 87.0579614228454 0.506334343666203 1.40273278885069 0.170997230763482 -45.3346432731584 
                               0.823649981962785 87.0579614228454 0.190670067816995 -117.027359468174 0.505802803065209 1.61017634041785 0.171491029924563 -45.2426282094639 
                               0.506334343666204 1.40273278885076 0.505802803065209 1.6101763404179  0.517224580885027 96.8465625103116 0.469326935101006 16.1773781275504 
                               0.170997230763481 -45.334643273159 0.171491029924561 -45.2426282094643 0.469326935101004 16.1773781275505 0.849166141257159 129.536321772272 
9.925                          0.18823645459342 -120.374841655441 0.825114651780948 84.2808526629357 0.504690966026167 -1.5776124919882 0.170410907481104 -48.5149569980717 
                               0.825114651780946 84.2808526629357 0.189144293680055 -119.854368355836 0.50418151974335 -1.3681407008393 0.170912984068705 -48.4198333888494 
                               0.504690966026167 -1.57761249198821 0.50418151974335 -1.36814070083916 0.519013936961557 93.6259169075987 0.470863622880341 13.2517912786259 
                               0.170410907481102 -48.5149569980725 0.170912984068703 -48.4198333888497 0.470863622880338 13.2517912786259 0.848549566769042 126.59232232014  
9.95                           0.186761936928213 -123.192111024144 0.826586107009857 81.5075164112809 0.503026397795019 -4.55485354634903 0.169822936414472 -51.6914652548632 
                               0.826586107009854 81.507516411281  0.187606129509761 -122.675068647948 0.502539392257148 -4.34342212704918 0.170333502015414 -51.5933134255095 
                               0.503026397795017 -4.55485354634911 0.502539392257148 -4.34342212704895 0.520814554137765 90.4088809813729 0.472409576773377 10.3287245507297 
                               0.16982293641447 -51.691465254864 0.170333502015412 -51.5933134255097 0.472409576773374 10.3287245507298 0.847924417173843 123.653350166082 
9.975                          0.185277008183519 -126.00254782578 0.828063961027526 78.7378498070235 0.501340729639373 -7.52899320309992 0.169233505762196 -54.8642016498543 
                               0.828063961027522 78.7378498070236 0.186055923273079 -125.48948129752 0.500876485081991 -7.31567372101751 0.169752766802882 -54.7631049550012 
                               0.501340729639371 -7.52899320310007 0.500876485081991 -7.31567372101721 0.522625577043668 87.1955650809493 0.473964916378621 7.40813609756607 
                               0.169233505762194 -54.8642016498551 0.16975276680288 -54.7631049550013 0.473964916378617 7.40813609756616 0.847290477886335 120.719285989164 
10                             0.18378199867556 -128.806162791092 0.829547811362737 75.9717528990098 0.499634074597263 -10.500033772356 0.168642809145815 -58.0332008144839 
                               0.829547811362732 75.9717528990099 0.184494049655959 -128.297626510008 0.499192884114703 -10.2849007070888 0.169170966792024 -57.9292455808076 
                               0.499634074597261 -10.5000337723562 0.499192884114703 -10.2849007070884 0.524446096760186 83.986073504679  0.475529781275415 4.48998463164266 
                               0.168642809145813 -58.0332008144847 0.169170966792022 -57.9292455808076 0.47552978127541 4.48998463164275 0.846647519515271 117.790011952826 
10.025                         0.182277262004893 -131.602966950861 0.831037240979866 73.2091286042077 0.497906567453121 -13.4679771848235 0.168051045364177 -61.1984985638621 
                               0.831037240979861 73.2091286042078 0.182920909315406 -131.099524098589 0.497488696087248 -13.2511078869498 0.168588295438938 -61.0917740287006 
                               0.497906567453119 -13.4679771848237 0.497488696087249 -13.2511078869494 0.526275153188613 80.7805041724968 0.477104331398052 1.57422928537537 
                               0.168051045364175 -61.1984985638628 0.168588295438936 -61.0917740287005 0.477104331398047 1.57422928537543 0.845995297434445 114.865411654645 
10.05                          0.180763174309787 -134.392972065093 0.832531819573213 70.4498826649058 0.496158364077314 -16.4328251275761 0.167458418141666 -64.3601320493394 
                               0.832531819573209 70.4498826649059 0.181336928109773 -133.895193858879 0.495764047946866 -16.2142997718206 0.168004951061267 -64.2507302950816 
                               0.496158364077313 -16.4328251275763 0.495764047946867 -16.2142997718202 0.528111737448764 77.5789483229906 0.478688747376708 -1.33917052566751 
                               0.167458418141664 -64.36013204934  0.168004951061265 -64.2507302950815 0.478688747376703 -1.33917052566746 0.845333551378816 111.945370081511 
10.075                         0.17924013348521 -137.176191074141 0.83403110486736 67.6939236045973 0.494389640731967 -19.3945791761969 0.166865135870954 -67.5181399049743 
                               0.834031104867356 67.6939236045974 0.179742556306377 -136.684655964953 0.494019086204289 -19.1744807109681 0.167421136599076 -67.4061557891836 
                               0.494389640731965 -19.3945791761971 0.49401908620429 -19.1744807109678 0.529954794295788 74.381490235032  0.480283230844505 -4.25025523732228 
                               0.166865135870953 -67.5181399049748 0.167421136599074 -67.4061557891833 0.4802832308445  -4.25025523732223 0.844662005066296 109.029773569976 
10.1                           0.177708558366345 -139.952638572875 0.835534643920192 64.9411626824095 0.492600593344605 -22.3532409232654 0.166271411350901 -70.6725623878898 
                               0.835534643920189 64.9411626824097 0.178138267765266 -139.46793138847 0.492253976251516 -22.1316550165272 0.166837059370834 -70.5580934691256 
                               0.492600593344604 -22.3532409232656 0.492253976251517 -22.1316550165269 0.531803224546079 71.1882069737761 0.481888004710395 -7.15906526915602 
                               0.166271411350899 -70.6725623878902 0.166837059370832 -70.5580934691252 0.481888004710391 -7.15906526915602 0.843980365845193 106.118509771437 
10.125                         0.17616888787575 -142.722331308922 0.83704197442539 62.1915138459052 0.49079143675099 -25.3088121032184 0.165677461520212 -73.8234415126132 
                               0.837041974425388 62.1915138459053 0.176524559097741 -142.245042342613 0.490468901650393 -25.0858270846652 0.166252930825114 -73.7065879719171 
                               0.490791436750989 -25.3088121032186 0.490468901650394 -25.0858270846649 0.533655887503151 67.9991681606204 0.483503313397894 -10.0656411545604 
                               0.165677461520211 -73.8234415126135 0.166252930825112 -73.7065879719167 0.48350331339789 -10.0656411545604 0.843288324366616 103.211467621812 
10.15                          0.174621580133549 -145.485288705912 0.838552626011272 59.4448936820482 0.488962403908318 -28.261294713652 0.165083507187468 -76.9708211795879 
                               0.83855262601127 59.4448936820483 0.174901948798213 -145.01601275249 0.488664063393104 -28.0370015131693 0.165668966288573 -76.8516857376045 
                               0.488962403908318 -28.2612947136521 0.488664063393105 -28.0370015131691 0.535511603374786 64.8144357665068 0.485129423050026 -12.9700236686386 
                               0.165083507187468 -76.970821179588 0.165668966288572 -76.8516857376041 0.485129423050023 -12.9700236686386 0.842585554280537 100.308537315295 
10.175                         0.173067111530386 -148.241533412564 0.840066121533042 56.7012213660993 0.487113745079805 -31.2106911331678 0.164489772758083 -80.114747298126 
                               0.840066121533042 56.7012213660993 0.173270976347959 -147.780868753574 0.486839679135468 -30.9851832155699 0.165085384710812 -79.9934351278341 
                               0.487113745079805 -31.2106911331679 0.486839679135468 -30.9851832155698 0.53736915567327 61.6340639277619 0.486766621701169 -15.8722539539324 
                               0.164489772758083 -80.114747298126 0.165085384710811 -79.9934351278336 0.486766621701166 -15.8722539539325 0.841871711953612 97.4096102817507 
10.2                           0.171505975763312 -150.991091878353 0.841581978355555 53.960418608183  0.485245726991498 -34.1570042358954 0.163896485958756 -83.2552679041477 
                               0.841581978355556 53.960418608183  0.17163220128954 -150.539639219617 0.484995982403755 -33.9303775319491 0.164502408406665 -83.1318865391847 
                               0.485245726991499 -34.1570042358955 0.484995982403755 -33.9303775319491 0.53922729359098 58.4580987835001 0.488415219416768 -18.7723736440631 
                               0.163896485958756 -83.2552679041476 0.164502408406663 -83.1318865391842 0.488415219416766 -18.7723736440632 0.841146436206283 94.5145791672976 
10.225                         0.169938682835238 -153.733994956453 0.843099709623855 51.2224095972466 0.483358631962023 -37.1002375028453 0.163303877559968 -86.392433273114 
                               0.843099709623856 51.2224095972466 0.169986202270834 -153.292356321449 0.483133221775624 -36.8725903366048 0.163920262796501 -86.2670925116861 
                               0.483358631962025 -37.1002375028453 0.483133221775624 -36.8725903366047 0.541084734344106 55.28657833346   0.490075548402193 -21.6704249853722 
                               0.163303877559969 -86.3924332731138 0.1639202627965  -86.2670925116857 0.490075548402191 -21.6704249853723 0.840409348066188 91.6233378175992 
10.25                          0.168365758019123 -156.470278534558 0.844618825518799 48.4871209421167 0.481452757005841 -40.0403951302667 0.162712181097054 -89.526296028615 
                               0.844618825518802 48.4871209421167 0.168333576058027 -156.039056117921 0.481251660035574 -39.8118281427648 0.163339176145106 -89.3991078329951 
                               0.481452757005842 -40.0403951302667 0.481251660035574 -39.8118281427648 0.542940165477711 52.1195323150055 0.491747963082221 -24.5664509566733 
                               0.162712181097055 -89.5262960286147 0.163339176145105 -89.3991078329948 0.49174796308222 -24.5664509566734 0.839660050534361 88.7357812633881 
10.275                         0.166787740788626 -159.199984194184 0.846138834495213 45.7544816093479 0.479528412910459 -42.9774821351962 0.162121632590381 -92.6569112471177 
                               0.846138834495218 45.7544816093478 0.166674936517303 -158.779779180204 0.479351573305236 -42.7480982045568 0.162759379299698 -92.5279896387443 
                               0.47952841291046 -42.9774821351961 0.479351573305235 -42.7480982045568 0.544792247125833 48.9569820979103 0.493432840152903 -27.4604953872341 
                               0.162121632590382 -92.6569112471174 0.162759379299698 -92.5279896387441 0.493432840152903 -27.4604953872342 0.838898128360336 85.8518057077393 
10.3                           0.165205183717558 -161.923159898989 0.847659244500041 43.0244228575467 0.477585923287973 -45.9115044583893 0.161532470265144 -95.7843365594112 
                               0.847659244500046 43.0244228575466 0.16501091356549 -161.514571250593 0.477433250148684 -45.6814086164497 0.162181105427663 -95.6537975096155 
                               0.477585923287975 -45.9115044583892 0.477433250148683 -45.6814086164497 0.54663961422072 45.7989405954419 0.495130578607729 -30.3526030731255 
                               0.161532470265145 -95.784336559411 0.162181105427663 -95.6537975096154 0.49513057860773 -30.3526030731256 0.83812314782181 82.9713085146215 
10.325                         0.163618651351065 -164.639860712693 0.84917956416809 40.2968781678546 0.475625623601222 -48.8424690648311 0.160944934271315 -98.9086322493107 
                               0.849179564168095 40.2968781678545 0.163342152090501 -164.243483936858 0.475496990652895 -48.6117684103861 0.161604589754578 -98.7765935657121 
                               0.475625623601224 -48.842469064831 0.475496990652894 -48.6117684103862 0.548480878645707 42.645412190182  0.496841599740208 -33.242819892081 
                               0.160944934271316 -98.9086322493105 0.161604589754577 -98.7765935657121 0.496841599740208 -33.2428198920809 0.837334656504195 80.0941881982713 
10.35                          0.162028719052104 -167.350149547178 0.850699303993012 37.5717831702691 0.4736478601648  -51.7703840420175 0.160359266404253 -102.029861350192 
                               0.850699303993017 37.571783170269  0.161669310843032 -166.966575443197 0.473543105483398 -51.539187650822 0.161030069303101 -101.896442558818 
                               0.473647860164802 -51.7703840420174 0.473543105483396 -51.5391876508221 0.550314631326607 39.4963926729607 0.498566347125085 -36.1311929170191 
                               0.160359266404254 -102.029861350192 0.1610300693031  -101.896442558818 0.498566347125087 -36.1311929170191 0.836532183075107 77.2203444129548 
10.375                         0.16043597182738 -170.054097941412 0.852217977471209 34.8490755654863 0.471652989121145 -54.6952586961921 0.159775709826497 -105.148089739936 
                               0.852217977471215 34.8490755654862 0.159993061301647 -169.683911338804 0.47157191491514 -54.4636775278855 0.160457782633329 -105.013411963137 
                               0.471652989121147 -54.6952586961919 0.471571914915138 -54.4636775278856 0.552139444256788 36.3518691932338 0.500305286580583 -39.0177705283894 
                               0.159775709826498 -105.148089739936 0.160457782633328 -105.013411963138 0.500305286580584 -39.0177705283893 0.835715237048588 74.3496779427103 
10.4                           0.158841003137522 -172.751786871937 0.853735102216462 32.128695041956  0.469641375391923 -57.6171036467112 0.159194508791268 -108.263386234854 
                               0.853735102216467 32.1286950419559 0.158314086514122 -172.395565365045 0.469583747838594 -57.3852504488522 0.159887969585208 -108.127572065102 
                               0.469641375391924 -57.617103646711 0.469583747838591 -57.3852504488523 0.553953872451412 33.2118202192119 0.502058906114048 -41.9026025254999 
                               0.159194508791268 -108.263386234854 0.159887969585207 -108.127572065103 0.50205890611405 -41.9026025254998 0.834883308533682 71.4820906907014 
10.425                         0.157244413696844 -175.443307595758 0.855250201043084 29.4105831878489 0.467613391604956 -60.5359309186933 0.158615908368219 -111.375822683146 
                               0.855250201043088 29.4105831878488 0.15663307991861 -175.101620282328 0.467578940741122 -60.3039201281208 0.159320871023621 -111.238996052816 
                               0.467613391604956 -60.5359309186931 0.467578940741119 -60.3039201281208 0.555756455826529 30.0762155060361 0.50382771585352 -44.7857402369927 
                               0.158615908368219 -111.375822683146 0.15932087102362 -111.238996052817 0.503827715853522 -44.7857402369926 0.834035867961886 68.6174856678485 
10.45                          0.15564681026861 -178.128762526637 0.85676280301549 26.6946833976486 0.465569416996996 -63.451754034088 0.158040154171966 -114.485474058424 
                               0.856762803015493 26.6946833976485 0.15495074414895 -177.802168757759 0.46555783666371 -63.2197016758507 0.158756728586762 -114.347760105687 
                               0.465569416996995 -63.4517540340878 0.465557836663706 -63.2197016758507 0.557545720998914 26.9450160703075 0.50561224796766 -47.667236630626 
                               0.158040154171965 -114.485474058424 0.158756728586761 -114.347760105688 0.505612247967662 -47.6672366306258 0.833172365787925 65.7557669804546 
10.475                         0.154048804462207 179.191733854022 0.858272444462125 23.9809407730982 0.463509836292721 -66.364588101279 0.157467492093937 -117.592418553797 
                               0.858272444462128 23.9809407730981 0.153267789829187 179.502685705189 0.4635207841332  -66.132611685403 0.158195784438438 -117.453943484754 
                               0.46350983629272 -66.3645881012788 0.463520784133196 -66.1326116854029 0.55932018300268 23.8181741692952 0.507413056576525 -50.5471464225235 
                               0.157467492093935 -117.592418553798 0.158195784438437 -117.453943484755 0.507413056576527 -50.5471464225233 0.832292232158343 62.8968398165861 
10.5                           0.152451011539137 176.518054050295 0.859778669951727 21.2693020182494 0.461435038560448 -69.274449903305 0.156898168038114 -120.696737676979 
                               0.859778669951729 21.2693020182494 0.151584934363071 176.812827793629 0.461468136070307 -69.0426683196927 0.157638281024931 -120.557628624187 
                               0.461435038560445 -69.2744499033047 0.461468136070303 -69.0426683196926 0.561078346918798 20.6956332831915 0.509230717655557 -53.4255261860438 
                               0.156898168038112 -120.69673767698 0.15763828102493 -120.557628624188 0.50923071765556 -53.4255261860435 0.831394876542471 60.0406104310328 
10.525                         0.150854049235155 173.850056567185 0.861281033229967 18.5597153283846 0.459345416045157 -72.1813579847553 0.156332427661216 -123.79851634681 
                               0.861281033229968 18.5597153283845 0.149902900725035 174.128129367295 0.4594002486738  -71.9498913965365 0.157084460837084 -123.658901224377 
                               0.459345416045154 -72.181357984755 0.459400248673795 -71.9498913965363 0.562818709413697 17.5773280988302 0.511065828935098 -56.3024344604144 
                               0.156332427661213 -123.798516346811 0.157084460837083 -123.658901224379 0.511065828935101 -56.3024344604141 0.830479687320517 57.1869861287213 
10.55                          0.14925853660628 171.187584886438 0.862779098114565 15.8521302726068 0.457241362979619 -75.0853327373624 0.155770516117886 -126.897842991552 
                               0.862779098114564 15.8521302726068 0.148222416259788 171.44844839389  0.45731748028139 -74.854302473041 0.156534566178251 -126.757850346979 
                               0.457241362979615 -75.0853327373622 0.457317480281385 -74.8543024730408 0.56453976018318 14.4631844933531 0.512919009797575 -59.1779318592681 
                               0.155770516117883 -126.897842991553 0.15653456617825 -126.757850346981 0.512919009797578 -59.1779318592677 0.829546031323738 54.3358752465253 
10.575                         0.147665092906736 168.530466400382 0.864272439347013 13.1464976699198 0.455123274374545 -77.9863964842837 0.155212677811468 -129.994809649242 
                               0.864272439347011 13.1464976699198 0.146544211498346 168.773627835701 0.455220190208058 -77.7559249290459 0.155988838938793 -129.854568512195 
                               0.45512327437454 -77.9863964842834 0.455220190208053 -77.7559249290456 0.566239983297824 11.3531195163834 0.514790901174361 -62.0520811792077 
                               0.155212677811465 -129.994809649244 0.155988838938792 -129.854568512197 0.514790901174364 -62.0520811792074 0.82859325332199 51.4871871334777 
10.6                           0.146074336507195 165.878511301108 0.865760643399125 10.4427694586479 0.452991544788903 -80.8845735630219 0.154659156150939 -133.089512070306 
                               0.865760643399121 10.4427694586479 0.144869018998866 166.103494485093 0.453108737562731 -80.6547840495935 0.155447520377767 -132.949151798544 
                               0.452991544788897 -80.8845735630216 0.453108737562727 -80.6547840495932 0.567917858446038 8.2470413693584  0.516682165444095 -64.9249475085097 
                               0.154659156150934 -133.089512070307 0.155447520377766 -132.949151798546 0.516682165444097 -64.9249475085093 0.827620675454339 48.6408321294597 
10.625                         0.144486883861958 163.231511421842 0.867243309232654 7.74089855907994 0.450846567081743 -83.7798904069026 0.154110193314556 -136.182049822567 
                               0.867243309232649 7.74089855907993 0.143197572221242 163.43785774615  0.450983480044471 -83.5509071063622 0.154910850912483 -136.041699945228 
                               0.450846567081737 -83.7798904069024 0.450983480044466 -83.5509071063618 0.569571862070866 5.14484938076932 0.518593486333992 -67.7965983360657 
                               0.154110193314551 -136.182049822569 0.154910850912482 -136.04169994523 0.518593486333994 -67.7965983360653 0.826627596598886 45.7967215425125 
10.65                          0.142903348533934 160.589239026888 0.868720049010312 5.04083872925163 0.448688731147123 -86.6723756249841 0.15356603002081 -139.272526398715 
                               0.868720049010305 5.04083872925163 0.141530604444921 160.77650835925  0.448844772719541 -86.4443234379552 0.154379069916571 -139.132316457186 
                               0.448688731147115 -86.6723756249838 0.448844772719537 -86.4443234379548 0.571200468396555 2.04643397616979 0.520525568825428 -70.6671036606423 
                               0.153566030020805 -139.272526398716 0.15437906991657 -139.132316457188 0.52052556882543 -70.6671036606419 0.825613291678519 42.9547676249881 
10.675                         0.141324340286479 157.95144554601  0.870190488756554 2.34254441381819 0.446518422633935 -89.5620600802363 0.153026905307214 -142.361049326169 
                               0.870190488756545 2.3425444138182  0.139868847739854 158.119217064896 0.446692966781012 -89.3350645288987 0.153852415527213 -142.221108712777 
                               0.446518422633928 -89.5620600802361 0.446692966781008 -89.3350645288983 0.572802150340838 -1.04832335806937 0.522479139064713 -73.5365361005222 
                               0.153026905307208 -142.361049326171 0.153852415527212 -142.221108712779 0.522479139064714 -73.5365361005218 0.824577010899973 40.1148835488324 
10.7                           0.139750464251369 155.317860248517 0.871654268966609 -0.354029413997179 0.444336021652743 -92.4489769657894 0.152493056317477 -145.447730279228 
                               0.871654268966599 -0.354029413997149 0.138213032000955 155.465733202545 0.444528408292819 -92.2231640871593 0.153331124462144 -145.308188073967 
                               0.444336021652735 -92.4489769657892 0.444528408292816 -92.2231640871588 0.574375380308782 -4.13955011815379 0.524454944279676 -76.4049710035705 
                               0.152493056317472 -145.44773027923 0.153331124462143 -145.308188073969 0.524454944279677 -76.4049710035701 0.823517978924241 37.2769833803617 
10.725                         0.138182320182334 152.688188851733 0.873111045162257 -3.04892741735251 0.442141901471947 -95.3331618790043 0.151964718097582 -148.532685193254 
                               0.873111045162246 -3.04892741735246 0.136563884056818 152.815783239574 0.442351436920474 -95.1086581199457 0.152815431847051 -148.393669998797 
                               0.442141901471939 -95.3331618790041 0.442351436920472 -95.1086581199453 0.57591863086401 -7.22738283416528 0.526453752702228 -79.2724865577471 
                               0.151964718097577 -148.532685193255 0.15281543184705 -148.393669998799 0.526453752702229 -79.2724865577468 0.822435393967279 34.4409820549762 
10.75                          0.136620501803813 150.062112057798 0.874560488392963 -5.74219406757215 0.439936427205937 -98.2146528930879 0.151442123401245 -151.616034380555 
                               0.874560488392951 -5.74219406757211 0.134922126863843 150.169069224806 0.440162384650933 -97.9915850075243 0.1523055710539  -151.47767415578 
                               0.439936427205928 -98.2146528930877 0.440162384650931 -97.991585007524 0.57743037527307 -10.3119671298875 0.528476353496693 -82.1391639020677 
                               0.15144212340124 -151.616034380556 0.1523055710539  -151.477674155781 0.528476353496694 -82.1391639020674 0.82132842683075 31.606795352319  
10.775                         0.135065596264774 147.439284012069 0.876002285681058 -8.43387382266205 0.437719954498119 -101.093490625926 0.150925502505217 -154.697902647535 
                               0.876002285681045 -8.433873822662  0.133288478797303 147.525267160272 0.437961574504434 -100.871985574725 0.151801773550756 -154.560324539772 
                               0.437719954498111 -101.093490625926 0.437961574504434 -100.871985574725 0.578909087918672 -13.3934577916229 0.53052355669318 -85.0050872379847 
                               0.150925502505212 -154.697902647537 0.151801773550755 -154.560324539773 0.53052355669318 -85.0050872379844 0.820196219863616 28.7743398724705 
10.8                           0.133518183707737 144.819330675561 0.877436140409721 -11.1240113124138 0.435492828202031 -103.969718305778 0.150415083034836 -157.778419412538 
                               0.877436140409707 -11.1240113124138 0.131663653051246 144.88402528403  0.435749319241431 -103.749903159783 0.15130426876354 -157.641749588778 
                               0.435492828202023 -103.969718305778 0.43574931924143 -103.749903159783 0.580353244577621 -16.4720188463185 0.532596193124793 -87.8703439411434 
                               0.150415083034832 -157.778419412539 0.151304268763539 -157.641749588779 0.532596193124793 -87.8703439411431 0.819037885856386 25.9435330138307 
10.825                         0.131978836963442 142.201848103025 0.878861772652648 -13.812651529912 0.433255381064031 -106.843381833431 0.149911089800182 -160.85771882372 
                               0.878861772652634 -13.812651529912 0.130048357159551 142.244962255956 0.433525920068041 -106.625383680118 0.150813283950175 -160.722082300979 
                               0.433255381064024 -106.843381833431 0.433525920068042 -106.625383680118 0.581761322559308 -19.5478236491527 0.534695114366921 -90.7350246734356 
                               0.149911089800178 -160.857718823721 0.150813283950175 -160.72208230098 0.534695114366921 -90.7350246734354 0.81785250687102 23.1142929534171 
10.85                          0.130448121382018 139.586400617359 0.880278919444338 -16.4998400292178 0.431007932411355 -109.714529840379 0.14941374464313 -163.935939876167 
                               0.880278919444325 -16.4998400292179 0.128443292650917 139.607665237411 0.431291665343803 -109.4984756946  0.150329044087465 -163.801460351202 
                               0.431007932411349 -109.714529840379 0.431291665343804 -109.4984756946  0.583131800700795 -22.6210549805714 0.536821192676235 -93.5992234952466 
                               0.149413744643127 -163.935939876167 0.150329044087465 -163.801460351203 0.536821192676234 -93.5992234952465 0.816639133010694 20.2865386303707 
10.875                         0.128926594812031 136.972518870039 0.881687334990076 -19.1856231289654 0.428750786849602 -112.583213742564 0.148923266295542 -167.013226527348 
                               0.881687334990063 -19.1856231289654 0.12684915485107 136.97168785458  0.429046829295796 -112.369230461848 0.149851771770978 -166.880026205899 
                               0.428750786849597 -112.583213742564 0.429046829295799 -112.369230461848 0.584463159214794 -25.6919051525954 0.538975320926417 -96.4630379777662 
                               0.14892326629554 -167.013226527348 0.149851771770978 -166.8800262059  0.538975320926416 -96.4630379777662 0.815396781134946 17.46018973352   
10.9                           0.127414807739416 134.35969777625  0.88308679081476 -21.8700481215581 0.426484232974048 -115.449487789161 0.148439870248734 -170.08972780987 
                               0.883086790814747 -21.8700481215582 0.125266632846104 134.336548034129 0.426791670743555 -115.23770199402 0.149381687128159 -169.957927235589 
                               0.426484232974044 -115.449487789161 0.426791670743558 -115.23770199402 0.58575387938713 -28.7605761240368 0.541158412536968 -99.3265693151992 
                               0.148439870248732 -170.08972780987 0.149381687128161 -169.957927235589 0.541158412536967 -99.3265693151992 0.814124433527121 14.6351666939207 
10.925                         0.125913303599144 131.747394312236 0.884477075849847 -24.5531634876208 0.424208542099408 -118.313409105892 0.147963768634285 -173.165597940391 
                               0.884477075849835 -24.5531634876208 0.123696409621631 131.701725698484 0.424526431839478 -118.103947105572 0.148919007744745 -173.035315823589 
                               0.424208542099405 -118.313409105892 0.424526431839482 -118.103947105573 0.587002443120728 -31.8272796240956 0.543371401390688 -102.189922436684 
                               0.147963768634285 -173.16559794039 0.148919007744746 -173.035315823589 0.543371401390686 -102.189922436684 0.81282103652244 11.8113906833326 
10.95                          0.124422619273428 129.135025161219 0.885857996457797 -27.2350191153135 0.421923967013023 -121.175037732286 0.147495170116168 -176.240996423407 
                               0.885857996457786 -27.2350191153136 0.122139162393292 129.066660306695 0.422251336829801 -120.968025456388 0.148463948604487 -176.112349469738 
                               0.421923967013022 -121.175037732286 0.422251336829806 -120.968025456388 0.588207332323702 -34.8922372836106 0.545615241734714 -105.053206117693 
                               0.147495170116169 -176.240996423406 0.148463948604489 -176.112349469738 0.545615241734713 -105.053206117693 0.811485499106627 8.98878361965062 
10.975                         0.122943285791576 126.521964192966 0.887229376393499 -29.9156665240816 0.419630740756668 -124.034436652309 0.147034279794037 -179.316088148518 
                               0.88722937639349 -29.9156665240818 0.120595563145326 126.4307482253   0.419966590841465 -123.829999588682 0.14801672204207 -179.189190887683 
                               0.419630740756669 -124.034436652309 0.419966590841471 -123.829999588682 0.589367028139803 -37.9556807730618 0.54789090805914 -107.916533090657 
                               0.147034279794039 -179.316088148516 0.148016722042073 -179.189190887682 0.547890908059139 -107.916533090658 0.810116691496517 6.16726818034414 
11                             0.121475829248038 123.907539760744 0.888591056702291 -32.5951590923706 0.417329075442477 -126.891671817741 0.146581299117448 177.608956520354 
                               0.888591056702283 -32.5951590923708 0.119066279395205 123.793339911999 0.417672378700556 -126.689934957036 0.147577537708966 177.73399190583  
                               0.41732907544248 -126.891671817741 0.417672378700562 -126.689934957036 0.590480010020281 -41.0178519462207 0.550199394946405 -110.780020154521 
                               0.146581299117451 177.608956520356 0.147577537708969 177.733991905832 0.550199394946404 -110.780020154521 0.80871344371579 3.34676782499572 
11.025                         0.120020771957071 121.291031797978 0.889942895554284 -35.2735522887986 0.415019161108759 -129.746812163671 0.146136425810609 174.533961665452 
                               0.889942895554277 -35.2735522887988 0.11755197520402 121.153736893184 0.415368863788268 -129.547899950909 0.147146602551837 174.65702551133  
                               0.415019161108763 -129.746812163671 0.415368863788275 -129.54789995091 0.591544754637176 -44.0790029881523 0.552541716883731 -113.643788282893 
                               0.146136425810613 174.533961665455 0.14714660255184 174.657025511332 0.55254171688373 -113.643788282894 0.807274544180619 0.527206828058022 
11.05                          0.11857863386461 118.671668695452 0.891284768014823 -37.9509039062431 0.412701164621687 -132.599929615439 0.145699853807157 171.458745747153 
                               0.891284768014818 -37.9509039062435 0.116053312454238 118.511188514488 0.413056186940646 -132.40396590894 0.146724120802967 171.579731078479 
                               0.412701164621693 -132.599929615439 0.413056186940654 -132.403965908941 0.592559734639201 -47.1393965660695 0.554918908029912 -116.507962730435 
                               0.145699853807162 171.458745747157 0.146724120802971 171.579731078481 0.554918908029911 -116.507962730436 0.805798738311775 -2.29148967703593 
11.075                         0.117149934240549 116.048623938344 0.892616565751039 -40.6272742982583 0.410375228629161 -135.451099086381 0.145271773194315 168.383121549315 
                               0.892616565751036 -40.6272742982586 0.114570952418884 115.864888441502 0.410734465398635 -135.258207124349 0.146310293982015 168.501924251341 
                               0.410375228629169 -135.451099086381 0.410734465398643 -135.25820712435 0.59352341725266 -50.1993059813333 0.557332021926751 -119.372673137068 
                               0.14527177319432 168.383121549319 0.146310293982019 168.501924251343 0.557332021926751 -119.372673137069 0.804284727191479 -5.10939564126154 
11.1                           0.115735193677764 113.421012480784 0.893938196674526 -43.3027266172057 0.40804147057332 -138.300398465668 0.144852370165601 165.306896140035 
                               0.893938196674525 -43.3027266172061 0.113105557649013 113.213970885616 0.408403791815252 -138.110700840715 0.145905320908227 165.423415129118 
                               0.408041470573328 -138.300398465668 0.40840379181526 -138.110700840716 0.59443426273135 -53.2590153206825 0.559782131144364 -122.23805362956 
                               0.144852370165607 165.306896140039 0.145905320908232 165.42341512912  0.559782131144364 -122.23805362956 0.802731166285076 -7.92658402974679 
11.125                         0.114334936427854 110.787886833996 0.895249584520321 -45.9773270534474 0.405699981768447 -141.147908595568 0.14444182698115 162.229870849965 
                               0.895249584520323 -45.9773270534478 0.111657794209807 110.557506527666 0.406064233326949 -140.961527237429 0.145509397722074 162.344008244526 
                               0.405699981768457 -141.147908595568 0.406064233326956 -140.96152723743 0.595290722661095 -56.3188196045572 0.562270326848427 -125.104242919993 
                               0.144441826981156 162.229870849969 0.14550939772208 162.344008244529 0.562270326848428 -125.104242919993 0.801136664249388 -10.7431267367367 
11.15                          0.11294969310791 108.148232842433 0.896550668362449 -48.6511450749124 0.403350826551235 -143.993713237431 0.144040321934491 159.151841270452 
                               0.896550668362452 -48.6511450749129 0.110228334299613 107.894498109578 0.403715830696475 -143.810769404074 0.145122717915074 159.263502562113 
                               0.403350826551246 -143.993713237431 0.403715830696482 -143.810769404076 0.596091238126484 -59.3790249301611 0.564797718276274 -127.97138440058 
                               0.144040321934497 159.151841270456 0.14512271791508 159.263502562116 0.564797718276276 -127.971384400581 0.799499781851379 -13.5590944846682 
11.175                         0.111580003817697 105.500965120713 0.897841402066381 -51.3242536663196 0.400994041510546 -146.837899025699 0.14364802932449 156.072597273885 
                               0.897841402066385 -51.3242536663201 0.108817859291126 105.223875661652 0.401358597534817 -146.658513303023 0.144745472366364 156.181691498913 
                               0.400994041510558 -146.837899025699 0.401358597534824 -146.658513303025 0.596834237749518 -62.4399486066758 0.56736543210746 -130.839626234242 
                               0.143648029324496 156.07259727389  0.14474547236637 156.181691498915 0.567365432107461 -130.839626234243 0.797819031022498 -16.3745567062796 
11.2                           0.110226421712549 102.844922122606 0.89912175367889 -53.9967295673049 0.398629634804053 -149.680555409261 0.143265119430965 152.991923058752 
                               0.899121753678896 -53.9967295673053 0.10742706323951 102.544491330348 0.398992519609984 -149.504847719521 0.144377849384386 153.09836296997  
                               0.398629634804065 -149.680555409261 0.398992519609991 -149.504847719522 0.59751813561229 -65.5019192798118 0.569974611713115 -133.709121440302 
                               0.143265119430971 152.991923058756 0.144377849384393 153.098362969972 0.569974611713117 -133.709121440302 0.796092874075775 -19.189581408731 
11.225                         0.108889517084209 100.178860811916 0.90039170475582 -56.6686535086699 0.396257585569276 -152.52177457947 0.1428917584923  149.909597222001 
                               0.900391704755826 -56.6686535086703 0.106056656908986 99.8551137686918 0.396617554250628 -152.349864198548 0.144020034751828 150.013299461342 
                               0.396257585569288 -152.52177457947 0.396617554250634 -152.349864198549 0.598141329078449 -68.5652770426358 0.572626416267015 -136.580027974618 
                               0.142891758492305 149.909597222005 0.144020034751834 150.013299461344 0.572626416267017 -136.580027974619 0.794319723114368 -22.0042350187723 
11.25                          0.10756988200989 97.5014509039376 0.901651249628409 -59.3401104459389 0.393877843436742 -155.361651384164 0.142528108683192 146.825392861437 
                               0.901651249628415 -59.3401104459393 0.104707372377216 97.1544220484316 0.394233629852684 -155.193656967759 0.143672211771723 146.92627813331  
                               0.393877843436754 -155.361651384164 0.394233629852689 -155.19365696776 0.598702196531161 -71.6303735293718 0.575322019699824 -139.452508803401 
                               0.142528108683196 146.82539286144  0.14367221177173 146.926278133312 0.575322019699827 -139.452508803402 0.792497939661793 -24.8185822080739 
11.275                         0.106268135639209 94.8112686452974 0.902900394608857 -62.0111897893827 0.391490328153095 -158.200283227039 0.142174328090482 143.739077710933 
                               0.902900394608863 -62.0111897893831 0.103379968286013 94.4409990501991 0.391840645497369 -158.036322845832 0.143334561312407 143.8370709566   
                               0.391490328153106 -158.200283227039 0.391840645497373 -158.036322845833 0.599199095048442 -74.6975719886226 0.578062609476477 -142.326731969895 
                               0.142174328090485 143.739077710936 0.143334561312413 143.837070956601 0.578062609476479 -142.326731969895 0.790625834545478 -27.6326856979353 
11.3                           0.104984930199497 92.1067900996534 0.904139157135909 -64.6819856296339 0.389094929322148 -161.037769951783 0.141830570684805 140.650414311388 
                               0.904139157135915 -64.6819856296342 0.102075235817649 91.7133242849921 0.389438470689035 -160.877961135576 0.143007261848761 140.745444884516 
                               0.389094929322158 -161.037769951783 0.389438470689038 -160.877961135576 0.599630358040305 -77.7672473321995 0.580849385175034 -145.202870653062 
                               0.141830570684806 140.650414311391 0.143007261848767 140.745444884517 0.580849385175037 -145.202870653063 0.788701668066559 -30.4466060426864 
11.325                         0.10372095781256 89.3863839070109 0.905367564861263 -67.3525969579943 0.386691506271948 -163.874213710363 0.141496986285614 137.559160220375 
                               0.905367564861268 -67.3525969579945 0.100794005488588 88.9697660975031 0.387026945221474 -163.718673501183 0.142690489496955 137.651162063949 
                               0.386691506271956 -163.874213710363 0.387026945221476 -163.718673501184 0.599994292875907 -80.8397861554896 0.583683556843741 -148.081103217313 
                               0.141496986285614 137.559160220377 0.14269048949696 137.651162063949 0.583683556843744 -148.081103217313 0.786723650489887 -33.2604013912379 
11.35                          0.102476958230558 86.6483034856642 0.906585654677684 -70.0231278805014 0.384279888056004 -166.709718814962 0.141173720516941 134.465068263559 
                               0.906585654677687 -70.0231278805015 0.0995371548671053 86.2085731992516 0.384605879181381 -166.558563829074 0.142384418039627 134.553980088283 
                               0.384279888056011 -166.709718814962 0.384605879181383 -166.558563829074 0.600289178533074 -83.9155867250222 0.586566343111238 -150.961613252252 
                               0.14117372051694 134.46506826356  0.142384418039632 134.553980088283 0.586566343111241 -150.961613252252 0.784689942889112 -36.0741272263715 
11.375                         0.101253727615409 83.8906786482013 0.907793471689741 -72.6936878247951 0.38185987359687 -169.544391573048 0.140860914751032 131.367886830978 
                               0.907793471689744 -72.6936878247951 0.0983056173383166 83.4278654772804 0.382175053097699 -169.397738071798 0.142089218938225 131.453652295287 
                               0.381859873596875 -169.544391573048 0.3821750530977  -169.397738071798 0.600513263306971 -86.9950589286335 0.589498969023157 -153.844589601344 
                               0.140860914751029 131.367886830979 0.142089218938229 131.453652295286 0.589498969023159 -153.844589601344 0.782598658382273 -38.8878360815327 
11.4                           0.10005212850552 81.111506607078  0.908991068128115 -75.3643917387921 0.379431231980267 -172.37834010517 0.140558706036863 128.267360221353 
                               0.908991068128117 -75.364391738792 0.0971003920599783 80.6256240225547 0.379734218245602 -172.236304074562 0.141805061328949 128.349928113081 
                               0.37943123198027 -172.37834010517 0.379734218245601 -172.236304074562 0.600664762619459 -90.0786241833527 0.59248266357645 -156.730226378297 
                               0.14055870603686 128.267360221352 0.141805061328953 128.34992811308  0.592482663576452 -156.730226378297 0.780447863793662 -41.701577235066 
11.425                         0.0988731011359011 78.3086423514049 0.91017850220847 -78.0353602801479 0.376993702907902 -175.211674145109 0.140267227010303 125.163229037601 
                               0.91017850220847 -78.0353602801478 0.0959225552754482 77.7996803213925 0.377283097113814 -175.074371383972 0.141532111998517 125.242553457324 
                               0.376993702907903 -175.211674145109 0.377283097113813 -175.074371383972 0.600741856975772 -93.1667152958726 0.595518656920959 -159.618722969859 
                               0.1402672270103  125.1632290376   0.14153211199852 125.242553457323 0.595518656920961 -159.618722969858 0.778235581777663 -44.5153963820405 
11.45                          0.0977176763032011 75.4797883854277 0.911355836935887 -80.7067199954557 0.374546997317026 -178.044504822095 0.139986605782574 122.055230636763 
                               0.911355836935887 -80.7067199954555 0.0947732731769183 74.9477045535825 0.37482138404388 -177.91205103871 0.141270535335717 122.131271182721 
                               0.374546997317026 -178.044504822095 0.374821384043879 -177.91205103871 0.600742690120465 -96.2597762702008 0.598608177195795 -162.510284023648 
                               0.13998660578257 122.055230636762 0.141270535335719 122.13127118272  0.598608177195796 -162.510284023648 0.775959793439865 -47.329335284028 
11.475                         0.0965869899964198 72.6224838314297 0.912523138855925 -83.3786034880931 0.372090798174653 179.123055575097 0.13971696580346 118.943099637523 
                               0.912523138855926 -83.378603488093 0.0936538165429288 72.0671929426818 0.372348746049817 179.250544658083 0.141020493254503 119.015821591961 
                               0.372090798174653 179.123055575097 0.372348746049815 179.250544658083 0.600665367450294 -99.3582620568296 0.601752446966181 -165.405119419489 
                               0.139716965803457 118.943099637522 0.141020493254503 119.01582159196  0.601752446966182 -165.405119419489 0.773618441489865 -50.1434313974388 
11.5                           0.095482300047221 69.7340929163357 0.913680476753329 -86.0511495736033 0.369624761454093 176.290893852287 0.13945842569563 115.826568488474 
                               0.913680476753333 -86.0511495736032 0.0925655774098191 69.1554541078183 0.369864823826355 176.413302384835 0.140782145084143 115.895943005109 
                               0.369624761454093 176.290893852287 0.369864823826354 176.413302384835 0.600507954747508 -102.462638237522 0.604952679224475 -168.303444222626 
                               0.13945842569563 115.826568488473 0.140782145084142 115.895943005109 0.604952679224475 -168.303444222626 0.771209433958852 -52.957717481277 
