! Generated from PyAEDT SolutionData; AEDT ExportNetworkData workaround
# GHz S MA R 50
9 0.625254841936 47.4485840945 0.220480143528 12.0583199138 0.409880041482 16.2587689307 0.626452903689 42.431673745 0.220480143528 12.0583199138 0.624883607047 47.4435080099 0.40983748042 16.2587668356 0.626851037804 -137.576695348 0.409880041482 16.2587689307 0.40983748042 16.2587668356 0.814881327923 174.086151847 0.000112426925805 177.466919753 0.626452903689 42.431673745 0.626851037804 -137.576695348 0.0001124269258 177.466919753 0.463265067995 -158.58956758
9.025 0.623682085638 44.3545854823 0.218981387506 8.43074586653 0.413639075243 11.6222669549 0.62607550618 39.5633353696 0.218981387506 8.43074586652 0.623311296789 44.3476214226 0.413596179868 11.6219228601 0.626472976763 -140.445735612 0.413639075243 11.6222669549 0.413596179868 11.6219228601 0.811075720426 168.006651465 0.000114664591688 170.962137428 0.62607550618 39.5633353696 0.626472976763 -140.445735612 0.000114664591675 170.96213743 0.464285542067 -161.296831074
9.05 0.622120999243 41.2720946173 0.217494043351 4.80890531566 0.417337367748 6.9981599238 0.625692697949 36.7026116493 0.217494043351 4.80890531565 0.621751045754 41.2632062793 0.417294025065 6.99745864697 0.626089208209 -143.307160906 0.417337367748 6.99815992379 0.417294025065 6.99745864697 0.807278675752 161.940619679 0.000116913255269 164.473782948 0.625692697949 36.7026116493 0.626089208209 -143.307160906 0.000116913255255 164.473782951 0.465318113935 -163.99846818
9.075 0.620571996748 38.2008744951 0.216019064874 1.19251463122 0.42097560536 2.38653780514 0.625304510165 33.8493618887 0.216019064874 1.19251463121 0.620203277206 38.1900286929 0.420931694206 2.38546464469 0.625699762605 -146.161110244 0.42097560536 2.38653780514 0.420931694206 2.38546464469 0.803491897427 155.888481183 0.00011917065839 158.001688691 0.625304510165 33.8493618887 0.625699762605 -146.161110244 0.000119170658378 158.001688694 0.466362596004 -166.694578321
9.1 0.619035379522 35.1406893694 0.214557335058 -2.41872201459 0.42455465219 -2.21252899545 0.624910970844 31.0034487342 0.214557335058 -2.4187220146 0.618668301514 35.1278561804 0.424510043197 -2.21398823296 0.625304668184 -149.007719381 0.42455465219 -2.21252899545 0.424510043197 -2.21398823296 0.799716678538 149.850623993 0.00012143457321 151.545611613 0.624910970844 31.0034487342 0.625304668184 -149.007719381 0.000121434573201 151.545611615 0.467418807513 -169.385258567
9.125 0.617511336149 32.0913057979 0.213109662234 -6.02511158425 0.428075539328 -6.79898981515 0.624512105038 28.1647380562 0.213109662234 -6.02511158426 0.617146315909 32.0764587032 0.428030094902 -6.80084878671 0.624903951061 -151.847120912 0.428075539328 -6.79898981516 0.428030094902 -6.80084878671 0.795953945343 143.827397952 0.000123702811774 145.105242169 0.624512105038 28.1647380562 0.624903951061 -151.847120912 0.00012370281177 145.10524217 0.468486574326 -172.070603711
9.15 0.615999943672 29.0524936528 0.211676777196 -9.62697099323 0.431539453415 -11.3728138406 0.624107934991 25.3330988365 0.211676777196 -9.62697099323 0.615637405626 29.035609673 0.431493027731 -11.3750856381 0.624497635331 -154.679444363 0.431539453415 -11.3728138406 0.431493027731 -11.3750856381 0.792204295324 137.819113278 0.000125973235002 138.68021225 0.624107934991 25.3330988365 0.624497635331 -154.679444363 0.000125973235002 138.680212251 0.469565728732 -174.750706342
9.175 0.614501170044 26.0240270872 0.210259331182 -13.224625838 0.434947724672 -15.9339901383 0.623698480276 22.508403061 0.210259331182 -13.224625838 0.614141546294 26.005086914 0.434900163691 -15.9366872594 0.624085743162 -157.504816289 0.434947724672 -15.9339901383 0.434900163691 -15.9366872594 0.788468030268 131.826039208 0.000128243761042 132.270102194 0.623698480276 22.508403061 0.624085743162 -157.504816289 0.000128243761043 132.270102194 0.470656109238 -177.42565692
9.2 0.613014877634 23.0056854531 0.208857894671 -16.8184090596 0.438301814495 -20.4825276072 0.623283757907 19.6905256174 0.208857894671 -16.8184090596 0.612658607383 22.9846735751 0.438252955998 -20.4856619264 0.623668294888 -160.323360362 0.438301814495 -20.4825276072 0.438252955998 -20.4856619264 0.784745184943 125.848402761 0.000130512372954 125.874446928 0.623283757907 19.6905256174 0.623668294888 -160.323360362 0.000130512372956 125.874446928 0.47175756037 179.904456155
9.225 0.611540827654 19.9972541648 0.207472956899 -20.4086595652 0.441603302729 -25.0184548548 0.622863782439 16.8793441976 0.207472956899 -20.4086595652 0.611188356565 19.9741589885 0.441552976368 -25.0220375937 0.62324530909 -163.135197466 0.441603302729 -25.0184548548 0.441552976368 -25.0220375937 0.781035552006 119.886387653 0.000132777125707 119.492741323 0.622863782439 16.8793441976 0.62324530909 -163.135197466 0.000132777125709 119.492741323 0.472869932474 177.239546473
9.25 0.610078685342 16.9985255061 0.206104926033 -23.9957208296 0.444853874737 -29.5418199954 0.622438566047 14.0747392035 0.206104926033 -23.9957208296 0.609730464867 16.9733394713 0.4448019021 -29.5458616942 0.622816802677 -165.940445784 0.444853874737 -29.5418199954 0.4448019021 -29.5458616942 0.777338703678 113.940133394 0.000135036152444 113.124444841 0.622438566047 14.0747392035 0.622816802677 -165.940445784 0.000135036152444 113.124444841 0.473993081523 174.579529549
9.275 0.608628025803 14.0092993772 0.20475412992 -27.5799394931 0.448055308354 -34.0526903767 0.622008118599 11.2765936589 0.20475412992 -27.5799394931 0.608284512464 13.9820190665 0.448001503053 -34.0572008645 0.622382790958 -168.739220885 0.448055308354 -34.0526903767 0.448001503053 -34.0572008645 0.773654010779 108.00973456 0.000137287670027 106.76898555 0.622008118599 11.2765936589 0.622382790958 -168.739220885 0.000137287670025 106.768985551 0.47512686892 171.924322755
9.3 0.607188340381 11.0293839828 0.203420817329 -31.1616639726 0.451209460844 -38.5511522342 0.621572447723 8.48479312315 0.203420817328 -31.1616639725 0.606849995025 11.000010225 0.451153628616 -38.5561406005 0.621943287717 -171.531635806 0.451209460844 -38.5511522342 0.451153628616 -38.5561406005 0.769980659599 102.095240258 0.000139529983866 100.42576361 0.621572447723 8.48479312314 0.621943287717 -171.531635806 0.000139529983861 100.425763612 0.476271161317 169.27384526
9.325 0.605759043463 8.05859645926 0.202105159628 -34.7412430989 0.45431825594 -43.0373102805 0.621131558858 5.69922561025 0.202105159628 -34.7412430989 0.605426330481 8.02713442584 0.454260194763 -43.0427848469 0.621498305274 -174.317801139 0.45431825594 -43.0373102805 0.454260194763 -43.0427848469 0.766317667086 96.1966537922 0.000141761492034 94.0941542881 0.621131558858 5.69922561025 0.621498305274 -174.317801139 0.000141761492026 94.0941542904 0.477425830429 166.628017965
9.35 0.604339479624 5.09676344214 0.200807252811 -38.3190247918 0.457383671053 -47.5112872319 0.620685455303 2.91978151064 0.200807252811 -38.3190247918 0.604012866153 5.06322273675 0.457323171285 -47.5172555241 0.621047854548 -177.097825105 0.457383671053 -47.5112872319 0.457323171285 -47.5172555242 0.762663894744 90.3139325145 0.000143980688714 87.773510592 0.620685455303 2.91978151063 0.621047854548 -177.097825105 0.000143980688703 87.7735105951 0.478590752856 163.98676345
9.375 0.60292893103 2.14372157536 0.199527119809 -41.8953547812 0.460407724733 -51.9732232799 0.620234138267 0.146353516559 0.199527119809 -41.8953547812 0.602608886128 2.10811631578 0.460344569255 -51.9796920006 0.620591945115 -179.871813636 0.460407724733 -51.9732232799 0.460344569255 -51.9796920007 0.759018061592 84.4469878577 0.000146186167007 81.4631655956 0.620234138267 0.146353516557 0.620591945115 -179.871813636 0.000146186166995 81.4631655994 0.47976580991 161.350005907
9.4 0.601526625032 -0.800682036721 0.19826471304 -45.4705753832 0.463392464435 -56.4232755104 0.619777606906 -2.62116344936 0.19826471304 -45.4705753832 0.601213618843 -0.838333144719 0.463326428822 -56.430250513 0.620130585259 177.360129555 0.463392464435 -56.4232755104 0.463326428822 -56.430250513 0.755378756481 78.5956855441 0.000148376621161 75.1624345085 0.619777606906 -2.62116344937 0.620130585259 177.360129555 0.000148376621148 75.1624345128 0.480950887446 158.717671095
9.425 0.60013174189 -3.7365894322 0.197019917119 -49.0450243358 0.466339954662 -60.8616172798 0.619315858364 -5.38287230261 0.197019917119 -49.0450243358 0.599826244788 -3.7762630294 0.466270807362 -60.869103542 0.619663782027 174.597902898 0.466339954662 -60.8616172798 0.466270807362 -60.869103542 0.751744449999 72.7598459528 0.000150550848271 68.8706165557 0.619315858364 -5.38287230261 0.619663782027 174.597902898 0.000150550848257 68.8706165603 0.482145875699 156.089686278
9.45 0.598743422564 -6.66413144715 0.195792551691 -52.6190336988 0.469252265519 -65.2884375502 0.618848887812 -8.13887386235 0.195792551691 -52.6190336988 0.598445904288 -6.70579946434 0.46917976805 -65.2964391498 0.619191541267 171.841406898 0.469252265519 -65.2884375502 0.46917976805 -65.2964391498 0.748113506165 66.9392446324 0.00015270774952 62.5869967122 0.618848887812 -8.13887386235 0.619191541267 171.841406898 0.000152707749505 62.5869967168 0.483350669126 153.465980178
9.475 0.597360776542 -9.58342742133 0.19458237434 -56.1929288208 0.472131461728 -69.7039401927 0.618376688484 -10.8892669144 0.19458237434 -56.1929288208 0.597071705321 -9.62705703215 0.472055368883 -69.7124602836 0.61871386768 169.090544065 0.472131461727 -69.7039401927 0.472055368883 -69.7124602836 0.744484194035 61.1336129426 0.000154846331026 56.3108473345 0.618376688484 -10.8892669144 0.61871386768 169.090544065 0.000154846331013 56.310847339 0.484565166252 150.846482921
9.5 0.595982889654 -12.4945849515 0.193389083525 -59.7670273754 0.474979592115 -74.1083432631 0.617899251716 -13.6341482715 0.193389083525 -59.7670273754 0.595702731328 -12.5401385349 0.474899652198 -74.1173840523 0.618230764849 166.345218854 0.474979592115 -74.1083432631 0.474899652198 -74.1173840523 0.740854699345 55.3426388096 0.000156965704376 50.0414297255 0.617899251716 -13.6341482715 0.618230764849 166.345218854 0.000156965704364 50.0414297296 0.485789269525 148.231125991
9.525 0.594608831849 -15.3976996896 0.192212321513 -63.341638466 0.477798679615 -78.5018782553 0.617416566978 -16.3736128314 0.192212321513 -63.341638466 0.594338048983 -15.4451348027 0.477714634673 -78.5114409817 0.617742235282 163.605337594 0.477798679615 -78.5018782553 0.477714634673 -78.5114409817 0.737223136238 49.5659675767 0.000159065086893 43.7779956579 0.617416566978 -16.3736128314 0.617742235282 163.605337594 0.000159065086883 43.7779956614 0.487022885167 145.619842182
9.55 0.593237664909 -18.2928551829 0.191051677273 -66.9170618003 0.480590711782 -82.8847893397 0.616928621918 -19.1077536326 0.191051677273 -66.9170618003 0.592976715904 -18.342124544 0.480502297866 -82.8948742532 0.617248280444 160.870808435 0.480590711782 -82.8847893397 0.480502297866 -82.8948742532 0.733587559127 43.8032029351 0.000161143801729 37.5197888821 0.616928621918 -19.1077536326 0.617248280444 160.870808435 0.000161143801722 37.5197888848 0.488265923041 143.012565553
9.575 0.591868450075 -21.1801227539 0.189906689315 -70.4935869323 0.483357631822 -87.2573325883 0.616435402395 -21.8366619075 0.189906689315 -70.4935869323 0.591617788289 -21.231174237 0.483264579258 -87.2679389312 0.616748900779 158.141541283 0.483357631822 -87.2573325883 0.483264579258 -87.2679389312 0.729945974696 38.0539079179 0.000163201277819 31.2660466332 0.616435402395 -21.8366619075 0.616748900779 158.141541283 0.000163201277814 31.2660466349 0.489518296513 140.409231381
9.6 0.590500255582 -24.059561417 0.188776848432 -74.0714925712 0.48610133015 -91.619775195 0.615936892523 -24.5604271345 0.188776848432 -74.0714925712 0.590260328442 -24.1123380573 0.486003363825 -91.6309011841 0.616244095744 155.417447747 0.48610133015 -91.619775195 0.486003363825 -91.6309011841 0.726296354053 32.3176059429 0.000165237049763 25.016001152 0.615936892523 -24.5604271345 0.616244095744 155.417447747 0.000165237049761 25.0160011527 0.490779922327 137.809776125
9.625 0.589132164084 -26.93121783 0.187661600342 -77.6510459526 0.488823636453 -95.9723946918 0.615433074707 -27.2791370871 0.187661600342 -77.6510459526 0.588903412215 -26.9856578408 0.488720476116 -95.9840375022 0.615733863826 152.69844108 0.488823636453 -95.9723946918 0.488720476116 -95.9840375022 0.722636645 26.5937818888 0.000167250757686 18.7688812299 0.615433074707 -27.2791370871 0.615733863826 152.69844108 0.000167250757686 18.7688812297 0.492050720476 135.214137378
9.65 0.58776327997 -29.7951262769 0.186560348216 -81.2325022715 0.491526312255 -100.315478168 0.614923929692 -29.9928778819 0.186560348216 -81.2325022715 0.587546136329 -29.8511630794 0.491417672841 -100.327633918 0.615218202565 149.984436131 0.491526312255 -100.315478168 0.491417672841 -100.327633918 0.718964784415 20.8818831932 0.00016924214708 12.5239137839 0.614923929692 -29.9928778819 0.615218202565 149.984436131 0.000169242147083 12.5239137828 0.493330614083 132.622253832
9.675 0.586392736566 -32.6513086824 0.185472455057 -84.8161041717 0.49421104397 -104.649321491 0.6144094366 -32.7017340243 0.185472455057 -84.8161041717 0.586187625585 -32.708870947 0.494096635929 -104.661985232 0.614697108566 147.275349287 0.49421104397 -104.649321491 0.494096635929 -104.661985232 0.715278710711 15.1813209595 0.0001712110687 6.28032546764 0.6144094366 -32.7017340243 0.614697108566 147.275349287 0.000171211068704 6.28032546567 0.494619529281 130.034065236
9.7 0.585019703226 -35.4997746539 0.184397245959 -88.4020812894 0.496879436408 -108.97422854 0.613889572982 -35.4057884534 0.184397245959 -88.4020812894 0.584827039977 -35.5587863546 0.496758966061 -108.98739424 0.614170577515 144.571098429 0.496879436408 -108.97422854 0.496758966061 -108.98739424 0.711576376345 9.4914710624 0.000173157478473 0.0373443224735 0.613889572982 -35.4057884534 0.614170577515 144.571098429 0.000173157478479 0.0373443198237 0.495917395103 127.449512362
9.725 0.583643392322 -38.3405215505 0.183334010201 -91.9906498454 0.499533006734 -113.290510444 0.613364314863 -38.1051225848 0.183334010201 -91.9906498454 0.58346358169 -38.4009020324 0.49940617664 -113.304170983 0.613638604185 141.871602879 0.499533006734 -113.290510444 0.49940617664 -113.304170983 0.707855760357 3.81167524354 0.000175081437474 -6.20579852862 0.613364314864 -38.1051225848 0.613638604185 141.871602879 0.000175081437481 -6.20579853178 0.497224143366 124.868536969
9.75 0.582263066129 -41.1735345789 0.182282003205 -95.5820122825 0.50217317884 -117.598484837 0.612833636796 -40.7998163516 0.182282003205 -95.5820122825 0.582096502013 -41.2351986386 0.502039688181 -117.612631996 0.613101182449 139.176783357 0.50217317884 -117.598484837 0.502039688181 -117.612631996 0.704114880923 -1.85875781095 0.000176983111917 -12.4498671418 0.612833636796 -40.7998163516 0.613101182449 139.176783357 0.000176983111924 -12.4498671453 0.498539708567 122.291081764
9.775 0.580878043623 -43.9987869136 0.181240448332 -99.1763569437 0.504801278107 -121.898475121 0.612297511906 -43.4899482451 0.181240448332 -99.1763569437 0.580725108154 -44.0616448936 0.504660823095 -121.913099578 0.612558305274 136.486561933 0.504801278107 -121.898475121 0.504660823095 -121.913099578 0.700351807902 -7.52055141727 0.000178862773175 -18.6956189651 0.612297511906 -43.4899482451 0.612558305274 136.486561933 0.000178862773182 -18.6956189687 0.499864027773 119.717090375
9.8 0.579487707201 -46.8162398419 0.180208538531 -102.773857785 0.507418526536 -126.190809751 0.611755911955 -46.1755953536 0.180208538531 -102.773857785 0.579348769989 -46.8801977385 0.507270800835 -126.205901078 0.612009964732 133.800861987 0.507418526536 -126.190809751 0.507270800835 -126.205901078 0.696564675387 -13.1744598697 0.000180720797784 -24.9438030005 0.611755911955 -46.1755953535 0.612009964732 133.800861987 0.000180720797791 -24.943803004 0.501197040521 117.146507312
9.825 0.578091509333 -49.6258429348 0.179185437847 -106.374674122 0.510026038223 -130.47582153 0.611208807391 -48.8568333996 0.179185437847 -106.374674122 0.577966926735 -49.6908025203 0.509870733387 -130.49136819 0.611456151986 131.119608159 0.510026038223 -130.47582153 0.509870733387 -130.49136819 0.692751694253 -18.8212674496 0.000182557667407 -31.195157913 0.611208807391 -48.8568333996 0.611456151986 131.119608159 0.000182557667412 -31.1951579162 0.502538688714 114.579277942
9.85 0.576688979159 -52.427534242 0.178170282777 -109.978950398 0.512624815144 -134.753846929 0.61065616741 -51.5337367774 0.178170282777 -109.978950398 0.57657909358 -52.4933932009 0.51246162108 -134.769836275 0.610896857295 128.442726318 0.512624815144 -134.753846929 0.51246162108 -134.769836275 0.688911164731 -24.4617874687 0.000184373968698 -37.4504100833 0.61065616741 -51.5337367774 0.610896857295 128.442726318 0.000184373968703 -37.4504100861 0.503888916521 112.015348453
9.875 0.575279729037 -55.2212405141 0.177162183493 -113.586815975 0.515215743236 -139.025225408 0.610097960019 -54.2063785876 0.177162183493 -113.586815975 0.575184868263 -55.2878925941 0.515044348682 -139.04164369 0.610332069998 125.770143514 0.515215743236 -139.025225408 0.515044348682 -139.04164369 0.685041489018 -30.0968613494 0.000186170393046 -43.7102716021 0.610097960019 -54.2063785876 0.610332069998 125.770143514 0.000186170393049 -43.7102716043 0.50524767028 109.454665829
9.9 0.573863461069 -58.0068774525 0.17616022494 -117.198384943 0.517799588748 -143.290298776 0.609534152093 -56.8748306727 0.17616022494 -117.198384943 0.57378393763 -58.0742126298 0.517619681773 -143.30713114 0.609761778508 123.101787943 0.517799588748 -143.290298776 0.517619681773 -143.30713114 0.681141183964 -35.7273577408 0.000187947736113 -49.9754382021 0.609534152093 -56.8748306727 0.609761778508 123.101787943 0.000187947736115 -49.9754382037 0.506614898397 106.897177819
9.925 0.572439973603 -60.7843499887 0.175163467809 -120.81375594 0.520376994834 -147.549410545 0.608964709449 -59.5391636505 0.175163467809 -120.81375594 0.572376084167 -60.8522546481 0.520188263357 -147.566641048 0.609185970296 120.43758891 0.520376994834 -147.549410545 0.520188263357 -147.566641048 0.677208893881 -41.3541716688 0.000189706897134 -56.2465871268 0.608964709449 -59.5391636505 0.609185970296 120.43758891 0.000189706897135 -56.2465871276 0.50799055125 104.342832913
9.95 0.571009167716 -63.5535525961 0.174170949404 -124.433011969 0.522948478387 -151.802905319 0.608389596908 -62.1994469477 0.174170949404 -124.433011969 0.570961192522 -63.6219097262 0.522750610716 -151.820516932 0.608604631875 117.777476792 0.522948478387 -151.802905319 0.522750610716 -151.820516932 0.673243403499 -46.9782237186 0.000191448877903 -62.5243749335 0.608389596908 -62.1994469477 0.608604631875 117.777476792 0.000191448877903 -62.5243749336 0.509374581095 101.791580312
9.975 0.569571053708 -66.3143696372 0.17318168441 -128.056220233 0.525514427073 -156.051128188 0.607808778364 -64.8557488315 0.17318168441 -128.056220233 0.569539256031 -66.3830590402 0.525307112464 -156.069102809 0.608017748783 115.121383002 0.525514427073 -156.051128188 0.525307112464 -156.069102809 0.669243651152 -52.6004592453 0.000193174781388 -68.8094352311 0.607808778364 -64.8557488315 0.608017748783 115.121383002 0.000193174781387 -68.8094352305 0.510766941972 99.2433699054
10 0.568125757589 -69.0666757491 0.172194665571 -131.683431947 0.528075096575 -160.294424139 0.607222216861 -67.5081364424 0.172194665571 -131.683431947 0.568110383241 -69.1355742658 0.527858025816 -160.312742611 0.607425305567 112.469239959 0.528075096575 -160.294424139 0.527858025816 -160.312742611 0.665208742216 -58.2218476066 0.000194885809908 -75.1023763528 0.607222216861 -67.5081364424 0.607425305567 112.469239959 0.000194885809906 -75.1023763517 0.512167589604 96.6981522465
10.025 0.566673527572 -71.8103362723 0.1712088643 -135.314682154 0.530630608021 -164.533137484 0.606629874661 -70.1566758245 0.1712088643 -135.314682154 0.566674804436 -71.8793180216 0.530403474028 -164.551779608 0.606827285755 109.820981052 0.530630608021 -164.533137484 0.530403474028 -164.551779608 0.661137962881 -63.8433814131 0.000196583262807 -81.4037789674 0.606629874661 -70.1566758245 0.606827285755 109.820981052 0.000196583262805 -81.4037789658 0.513576481309 94.1558785284
10.05 0.565214740569 -74.5452077266 0.170223231228 -138.949989527 0.533180945587 -168.767611299 0.60603171332 -72.8014319573 0.170223231228 -138.949989527 0.565232878169 -74.6141443599 0.532943444028 -168.786555857 0.606223671839 107.176540608 0.533180945587 -168.767611299 0.532943444028 -168.786555857 0.6570307943 -69.4660757856 0.000198268533561 -87.7141936339 0.60603171332 -72.8014319573 0.606223671839 107.176540608 0.000198268533558 -87.7141936319 0.514993575905 91.6165005623
10.075 0.56374990869 -77.2711383393 0.169236696704 -142.589356139 0.535725954284 -172.998186878 0.605427693766 -75.4424687854 0.169236696704 -142.589356139 0.563785097791 -77.3398993099 0.53547778422 -173.017411651 0.60561444525 104.535853866 0.535725954284 -172.998186878 0.53547778422 -173.017411651 0.652886927175 -75.0909676124 0.000199943106243 -94.0341383069 0.605427693766 -75.4424687854 0.605614445251 104.535853866 0.00019994310624 -94.0341383047 0.516418833616 89.0799707556
10.1 0.56227968572 -79.9879686322 0.168248171271 -146.232767229 0.538265337905 -177.225203194 0.604817776375 -78.0798492486 0.168248171271 -146.232767229 0.562332097962 -80.0564214785 0.538006202451 -177.244684991 0.604999586335 101.898856942 0.538265337905 -177.225203194 0.538006202451 -177.244684991 0.648706276825 -80.7191147942 0.000201608551292 -100.364095804 0.604817776375 -78.0798492486 0.604999586335 101.898856942 0.000201608551289 -100.364095802 0.51785221598 86.5462420913
10.125 0.560804873581 -82.6955320712 0.167256546121 -149.880190922 0.540798657152 178.551003624 0.604201921046 -80.7136353122 0.167256546121 -149.880190922 0.560874661135 -82.7635427143 0.540528264159 178.531288941 0.604379074333 99.2654868066 0.540798657152 178.551003624 0.540528264159 178.531288941 0.644488998796 -86.3515954638 0.000203266520516 -106.704511249 0.604201921046 -80.7136353122 0.604379074333 99.2654868066 0.000203266520514 -106.704511247 0.519293685756 84.0152681085
10.15 0.559326428732 -85.3936557875 0.166260693553 -153.531577928 0.543325327935 174.330100806 0.603580087287 -83.3438879962 0.166260693553 -153.531577928 0.559413723992 -85.4610888426 0.543043390688 174.310178293 0.60375288735 96.6356812526 0.543325327935 174.330100806 0.543043390688 174.310178293 0.640235505031 -91.9895071666 0.000204918741258 -113.055789505 0.603580087287 -83.3438879962 0.60375288735 96.6356812526 0.000204918741256 -113.055789503 0.520743206834 81.4870028829
10.175 0.557845468506 -88.0821613754 0.165259467448 -157.1868612 0.545844619846 170.11175945 0.602952234284 -85.970667405 0.165259467448 -157.1868612 0.557950383792 -88.1488804759 0.545550857784 170.091655044 0.603121002341 94.0093788724 0.545844619846 170.11175945 0.545550857784 170.091655044 0.63594648065 -97.6339659836 0.000206567009673 -119.41829262 0.602952234284 -85.970667405 0.603121002341 94.0093788724 0.000206567009671 -119.418292618 0.522200744141 78.9614010087
10.2 0.556363277326 -90.7608657735 0.164251703778 -160.845955544 0.548355654831 165.895655015 0.602318320987 -88.5940327564 0.164251703778 -160.845955544 0.556485904615 -90.8267339085 0.548049794282 165.875395504 0.602483395084 91.3865190314 0.548355654831 165.895655015 0.548049794282 165.875395504 0.63162290134 -103.286105579 0.000208213183057 -125.79233731 0.602318320987 -88.5940327564 0.602483395084 91.3865190314 0.000208213183056 -125.792337309 0.523666263553 76.4384175814
10.225 0.554881312775 -93.4295822376 0.163236221162 -164.508757193 0.550857406061 161.681467817 0.601678306187 -91.2140424114 0.163236221162 -164.508757193 0.555021723442 -93.4944621007 0.550539180992 161.661080799 0.601840040163 88.767041844 0.550857406061 161.681467817 0.550539180992 161.661080799 0.627266051369 -108.947076151 0.000209859171158 -132.178192504 0.601678306187 -91.2140424114 0.601840040163 88.767041844 0.000209859171157 -132.178192503 0.525139731801 73.9180081803
10.25 0.553401211463 -96.0881214115 0.162211821485 -168.17514332 0.553348697012 157.468883509 0.601032148588 -93.8307539033 0.162211821485 -168.17514332 0.553559456033 -96.1518757613 0.553017849796 157.44839735 0.601190910954 86.1508881507 0.553348697012 157.468883509 0.553017849796 157.44839735 0.622877542208 -114.618043255 0.000211506926432 -138.576076973 0.601032148588 -93.8307539033 0.601190910954 86.1508881507 0.000211506926432 -138.576076972 0.526621116378 71.4001288533
10.275 0.551924794633 -98.7362925029 0.161177290603 -171.844971496 0.555828200783 153.257593558 0.600379806889 -96.4442239669 0.161177290603 -171.844971496 0.552100902539 -98.7987845328 0.555484482982 153.237037351 0.600535979603 83.5379994953 0.555828200783 153.257593558 0.555484482982 153.237037351 0.618459331725 -120.300186487 0.000213158433187 -144.986157093 0.600379806889 -96.4442239669 0.600535979603 83.5379994953 0.000213158433188 -144.986157093 0.528110385452 68.8847361004
10.3 0.550454073442 -101.373904571 0.160131399146 -175.518079092 0.558294439665 149.047295714 0.599721239852 -99.0545085683 0.160131399146 -175.518079092 0.55064805278 -101.434998289 0.557937612819 149.026699232 0.599875217024 80.9283181035 0.558294439665 149.047295714 0.557937612819 149.026699232 0.614013743919 -125.994697974 0.000214815695578 -151.408544758 0.599721239852 -99.0545085683 0.599875217024 80.9283181035 0.000214815695579 -151.408544758 0.529607507773 66.3717868595
10.325 0.548991253843 -104.000767931 0.159072903423 -179.194282607 0.560745784981 144.837694476 0.59905640638 -101.661662934 0.159072903423 -179.194282607 0.549203091122 -104.060328548 0.560375621409 144.817088122 0.599208592888 78.3217868626 0.560745784981 144.837694476 0.560375621409 144.817088122 0.609543489091 -131.702780659 0.000216480724416 -157.843295489 0.59905640638 -101.661662934 0.599208592888 78.3217868626 0.000216480724417 -157.84329549 0.531112452579 63.8612384921
10.35 0.547538740978 -106.616695687 0.158000546473 177.126623071 0.563180457219 140.628501546 0.59838526558 -104.265741582 0.158000546473 177.126623071 0.547768400863 -106.674590008 0.562796740831 140.607916303 0.598536075623 75.7183493013 0.563180457219 140.628501546 0.562796740831 140.607916303 0.605051684385 -137.425646328 0.000218155522775 -164.290406769 0.59838526558 -104.265741582 0.598536075623 75.7183493013 0.000218155522776 -164.29040677 0.532625189504 61.3530487691
10.375 0.546099143001 -109.221505387 0.156913059238 173.444865491 0.565596526491 136.419436283 0.597707776831 -106.86679835 0.156913059239 173.444865491 0.54634656803 -109.277602212 0.565199053601 136.398903658 0.597857632417 73.1179495708 0.565596526491 136.419436283 0.565199053601 136.398903658 0.600541874546 -143.164513349 0.000219842070381 -170.74981665 0.597707776831 -106.86679835 0.597857632417 73.1179495708 0.000219842070382 -170.749816651 0.534145688487 58.8471758584
10.4 0.544675274218 -111.815020812 0.155809161913 169.760695537 0.567991913334 132.210226144 0.597023899847 -109.464886425 0.155809161913 169.760695537 0.544940384497 -111.869191338 0.567580493478 132.189778113 0.59717322923 70.520532426 0.567991913334 132.210226144 0.567580493478 132.189778113 0.596018052753 -148.920604065 0.000221542306785 -177.221402655 0.597023899847 -109.464886425 0.59717322923 70.520532426 0.000221542306786 -177.221402656 0.535673919673 56.3435783119
10.425 0.54327015744 -114.397073903 0.154687565447 166.07438843 0.570364389889 128.000607122 0.596333594735 -112.060058376 0.154687565447 166.07438843 0.543552850312 -114.449192128 0.569938846643 127.980276068 0.596482830805 67.9260432078 0.570364389889 128.000607122 0.569938846643 127.980276068 0.59148468133 -154.695141808 0.000223258113344 176.295018982 0.596333594735 -112.060058376 0.596482830805 67.9260432078 0.000223258113345 176.295018981 0.537209853325 53.8422150532
10.45 0.541887025438 -116.967506821 0.153546973243 162.386244819 0.572711581485 123.790324172 0.595636822046 -114.652366183 0.153546973243 162.386244819 0.542187175111 -117.017449943 0.572271753276 123.770142825 0.595786400698 65.3344278256 0.572711581485 123.790324172 0.572271753276 123.770142825 0.586946712107 -160.489347474 0.000224991294041 169.799693703 0.595636822046 -114.652366183 0.595786400698 65.3344278256 0.000224991294042 169.799693702 0.538753459723 51.3430453666
10.475 0.540529321365 -119.526174131 0.152386083044 158.696591994 0.575030968648 119.57913163 0.594933542828 -117.241861267 0.152386083044 158.696591994 0.540846778503 -119.573822953 0.574576709561 119.559133001 0.595083901302 62.7456327405 0.575030968648 119.57913163 0.574576709561 119.559133001 0.582409606164 -166.304435606 0.000226743555204 163.292928628 0.594933542828 -117.241861267 0.595083901302 62.7456327405 0.000226743555205 163.292928627 0.540304709066 48.8460288856
10.5 0.539200698028 -122.072945133 0.151203589025 155.005785199 0.577319889582 115.366793622 0.594223718665 -119.828594523 0.151203589025 155.005785199 0.539535289291 -122.118184451 0.576851070155 115.347010935 0.594375293892 60.1596049484 0.577319889582 115.366793622 0.576851070155 115.347010935 0.577879352652 -172.141609932 0.000228516484208 156.775092132 0.594223718665 -119.828594523 0.594375293892 60.1596049484 0.000228516484209 156.775092131 0.541863571379 46.3511255822
10.525 0.53790501587 -124.607706297 0.14999818411 151.31420909 0.579575543131 111.153084456 0.593507311721 -122.412616348 0.14999818411 151.31420909 0.538256543406 -124.650425292 0.57909205114 111.13355108 0.59366053867 57.5762919639 0.579575543131 111.153084456 0.57909205114 111.13355108 0.573362486324 -178.002058299 0.000230311527249 150.246612987 0.593507311721 -122.412616348 0.59366053867 57.5762919639 0.00023031152725 150.246612987 0.543430016406 43.8582957569
10.55 0.536646339534 -127.130363819 0.148768562502 147.622279321 0.581794992273 106.937789005 0.592784284765 -124.993976674 0.148768562502 147.622279321 0.537014580414 -127.170456429 0.581296733484 106.918538383 0.592939594822 54.995641804 0.581794992273 106.937789005 0.581296733484 106.918538383 0.568866103389 176.113053045 0.000232129966331 143.707979056 0.592784284765 -124.993976674 0.592939594822 54.995641804 0.000232129966332 143.707979056 0.545004013516 41.3675000284
10.575 0.535428932859 -129.640846276 0.147513422458 143.930444294 0.583975168146 102.720703075 0.592054601206 -127.572725 0.147513422458 143.930444294 0.53581363846 -129.678211559 0.583462067058 102.701768646 0.592212420586 52.417602972 0.583975168146 102.720703075 0.583462067058 102.701768646 0.564397875227 170.202585888 0.000233972895607 137.159735538 0.592054601206 -127.572725 0.592212420586 52.417602972 0.000233972895607 137.159735538 0.546585531592 38.8786993247
10.6 0.534257252203 -132.139107359 0.146231469303 140.23918707 0.586112874656 98.5016337524 0.591318225107 -130.148910422 0.146231469303 140.23918707 0.534658147528 -132.173649838 0.585584875208 98.4830488753 0.591478973327 49.8421244409 0.586112874656 98.5016337524 0.585584875208 98.4830488753 0.559966059463 164.265437251 0.000235841197253 130.602482751 0.591318225107 -130.148910422 0.591478973327 49.8421244409 0.000235841197253 130.602482752 0.54817453893 36.3918548735
10.625 0.533135937931 -134.625128667 0.144921418689 136.54902748 0.58820479368 94.280399728 0.590575121203 -132.722581664 0.144921418689 136.54902748 0.533552720876 -134.656758657 0.587661859922 94.2621976053 0.590739209627 47.2691556375 0.58820479368 94.280399728 0.587661859922 94.2621976053 0.555579507849 158.300547378 0.000237735517073 124.036873491 0.590575121203 -132.722581664 0.590739209627 47.2691556375 0.000237735517073 124.036873492 0.549771003131 33.9069281932
10.65 0.532069803981 -137.098922537 0.14358200012 132.860524431 0.590247490877 90.0568316068 0.589825254908 -135.293787111 0.14358200012 132.860524431 0.532502144542 -137.127556448 0.589689607606 90.0390452009 0.589993085382 44.6986464253 0.590247490877 90.0568316068 0.589689607606 90.0390452009 0.551247670357 152.306908574 0.000239656240056 117.463609949 0.589825254908 -135.293787111 0.589993085382 44.6986464253 0.000239656240056 117.46360995 0.551374890989 31.4238810851
10.675 0.531063825374 -139.560534874 0.142211960723 129.174278458 0.59223742214 85.8307721843 0.589068592319 -137.862574841 0.142211960723 129.174278458 0.531511364811 -139.586095488 0.591664595487 85.813434135 0.589240555909 42.1305470872 0.59223742214 85.8307721843 0.591664595487 85.813434135 0.546980594829 146.283574883 0.000241603466122 110.883440247 0.589068592319 -137.862574841 0.589240555909 42.1305470872 0.000241603466122 110.883440247 0.55298616838 28.9426756241
10.7 0.5301231236 -142.010047957 0.140810069301 125.490934526 0.594170940685 81.6020766982 0.588305100214 -140.428992652 0.140810069301 125.490934526 0.530585473546 -142.032464679 0.593583198652 81.5852192371 0.588481576072 39.5648083078 0.594170940685 81.6020766982 0.593583198652 81.5852192371 0.542788921514 140.229672625 0.000243576986307 104.29715459 0.588305100214 -140.428992652 0.588481576072 39.5648083078 0.000243576986307 104.29715459 0.554604800146 26.4632741513
10.725 0.529252949792 -144.447583174 0.139375120644 121.811185133 0.596044304793 77.3706130456 0.587534746041 -142.9930881 0.139375120644 121.811185133 0.529729691333 -144.46679225 0.595441697734 77.3542679089 0.587716100407 37.001381155 0.596044304793 77.3706130456 0.595441697734 77.3542679089 0.538683871764 134.144411754 0.000245576259661 97.7055811084 0.587534746041 -142.9930881 0.587716100407 37.001381155 0.000245576259661 97.7055811084 0.556230749972 23.9856392658
10.75 0.528458665644 -146.873303639 0.137905940124 118.13577373 0.597853686206 73.1362619664 0.58675749791 -145.554908525 0.137905940124 118.13577373 0.528949348373 -146.889248341 0.597236287243 73.1204603058 0.58694408327 34.44021706 0.597853686206 73.1362619664 0.597236287243 73.1204603058 0.534677230166 128.027097998 0.000247600391122 91.1095813998 0.58675749791 -145.554908525 0.58694408327 34.44021706 0.000247600391121 91.1095813995 0.557863980268 21.5097338168
10.775 0.527745722064 -149.287416658 0.136401388564 114.465498525 0.599595179169 68.8989171862 0.585973324572 -148.114501084 0.136401388564 114.465498525 0.52824986312 -149.300047434 0.598963084539 68.8836894777 0.586165478991 31.8812677972 0.599595179169 68.8989171862 0.598963084539 68.8836894777 0.530781319393 121.877145681 0.000249648110629 84.5100458477 0.585973324572 -148.114501084 0.586165478991 31.8812677972 0.000249648110629 84.5100458472 0.559504452038 19.035520896
10.8 0.527119635566 -151.690175985 0.134860367403 110.801216694 0.601264810102 64.6584855163 0.585182195405 -150.671912783 0.134860367403 110.801216694 0.527636718678 -151.699450571 0.600618139427 64.643861468 0.585380242037 29.3244854623 0.601264810102 64.6584855163 0.600618139427 64.643861468 0.527008967044 115.694091115 0.000251717753752 77.9078887549 0.585182195405 -150.671912783 0.585380242037 29.3244854623 0.000251717753751 77.9078887543 0.56115212475 16.56296383
10.825 0.526585962455 -154.08188381 0.133281824141 107.143849074 0.602858547892 60.4148869071 0.584384080386 -153.227190505 0.133281824141 107.143849074 0.527115437013 -154.087767301 0.602197444369 60.4008953644 0.584588327195 26.7698224488 0.602858547892 60.4148869071 0.602197444369 60.4008953644 0.523373463841 109.477606393 0.000253807244062 71.3040433519 0.584384080386 -153.227190505 0.584588327195 26.7698224488 0.000253807244061 71.3040433513 0.562806956197 14.0920261728
10.85 0.526150270906 -156.462892438 0.131664758101 103.494385397 0.604372314762 56.168054449 0.583578950074 -155.780381041 0.131664758101 103.494385397 0.526691551072 -156.465357327 0.603696945261 56.1547232995 0.583789689751 24.2172314239 0.604372314762 56.168054449 0.603696945261 56.1547232995 0.519888512574 103.227513357 0.000255914077493 64.6994567394 0.583578950074 -155.780381041 0.583789689751 24.2172314239 0.000255914077492 64.699456739 0.564468902353 11.6226716979
10.875 0.525818111067 -158.833605596 0.130008226487 99.8538901406 0.605801997682 51.9179343195 0.582766775584 -158.331531124 0.130008226487 99.8538901406 0.526370574951 -158.832631766 0.605112552755 51.9052903951 0.582984285696 21.6666653013 0.605801997682 51.9179343195 0.605112552755 51.9052903951 0.51656816735 96.9437974908 0.000258035308865 58.0950848228 0.582766775584 -158.331531124 0.582984285696 21.6666653013 0.000258035308866 58.0950848228 0.566137917229 9.15486439087
10.9 0.525594983372 -161.194479318 0.128311350784 96.2235090845 0.607143460284 47.6644856689 0.581947528566 -160.880687452 0.128311350784 96.2235090845 0.526157972306 -161.190054001 0.606440154065 47.6525546479 0.582172071933 19.1180772134 0.607143460284 47.6644856689 0.606440154065 47.6525546479 0.513426762812 90.6266214118 0.000260167540754 51.4918872987 0.581947528566 -160.880687452 0.582172071933 19.1180772134 0.000260167540756 51.4918872993 0.567813952709 6.68856844175
10.925 0.525486305304 -163.546022355 0.126573323498 92.6044766803 0.608392555192 43.4076804436 0.58112118119 -163.427896723 0.126573323498 92.6044766803 0.526059123227 -163.53814005 0.607675625199 43.3964867507 0.58135300649 16.5714204806 0.608392555192 43.4076804436 0.607675625199 43.3964867507 0.510478833207 84.2763375971 0.000262306914805 44.8908227528 0.58112118119 -163.427896723 0.58135300649 16.5714204807 0.000262306914808 44.8908227542 0.56949695839 4.22374823698
10.95 0.525497376885 -165.888796068 0.124793415262 88.9981243504 0.609545136727 39.1475031407 0.580287706133 -165.973205663 0.124793415262 88.9981243504 0.526079289882 -165.877458429 0.608814843546 39.1370698464 0.580527048749 14.0266485785 0.609545136727 39.1475031407 0.608814843546 39.1370698464 0.507739021409 77.8934999403 0.000264449105589 38.2928439282 0.580287706133 -165.973205663 0.580527048749 14.0266485785 0.000264449105594 38.2928439307 0.571186881407 1.76036835163
10.975 0.525633345232 -168.223413757 0.12297098236 85.4058898618 0.610597073877 34.8839504916 0.579447076571 -168.516661053 0.12297098236 85.4058898618 0.526223581242 -168.20862945 0.609853700731 34.8742992097 0.579694159684 11.4837151028 0.610597073877 34.8839504916 0.609853700731 34.8742992097 0.505221978269 71.4788736895 0.000266589317009 31.6988932238 0.57944707657 -168.516661053 0.579694159684 11.4837151028 0.000266589317017 31.6988932275 0.572883666252 -0.701606458793
11 0.525899168554 -170.550539409 0.121105474686 81.8293279405 0.611544263453 30.6170310694 0.578599266185 -171.05830976 0.121105474686 81.8293279405 0.526496917282 -170.532323936 0.610788115649 30.6081818548 0.578854302095 8.94257373166 0.611544263453 30.6170310694 0.610788115649 30.6081818548 0.502942252976 65.0334432993 0.000268722281252 25.1098984801 0.578599266185 -171.05830976 0.578854302095 8.94257373166 0.000268722281263 25.109898485 0.574587254579 -3.16221126663
11.025 0.526299580008 -172.870885815 0.11919644421 78.2701223214 0.61238264331 26.3467648184 0.57774424918 -173.598198766 0.11919644421 78.2701223214 0.526903993066 -172.84926133 0.611614047562 26.3387360629 0.578007440861 6.40317818494 0.61238264331 26.3467648184 0.611614047562 26.3387360629 0.500914175436 58.5584177262 0.000270842260218 18.5267691129 0.57774424918 -173.598198766 0.578007440861 6.40317818494 0.000270842260233 18.5267691191 0.576297585 -5.62148098057
11.05 0.526839051886 -175.185212085 0.117243554029 74.7300994653 0.613108205524 22.0731825021 0.576882000308 -176.136375195 0.117243554029 74.7300994653 0.527449243188 -175.160207177 0.61232750914 22.0659908301 0.577153543188 3.8654821809 0.613108205524 22.0731825021 0.61232750914 22.0659908301 0.499151732016 52.0552327053 0.000272943049324 11.9503926559 0.576882000308 -176.136375195 0.577153543188 3.8654821809 0.000272943049342 11.9503926632 0.578014592868 -8.07945035446
11.075 0.527521760607 -177.494320517 0.115246588076 71.2112442116 0.613717009389 17.7963250669 0.576012494921 -178.672886346 0.115246588076 71.2112442116 0.52813680704 -177.465969996 0.61292457933 17.7899852299 0.57629257887 1.32943938947 0.613717009389 17.7963250669 0.61292457933 17.7899852299 0.497668436353 45.5255495908 0.000275017983554 5.38163177342 0.576012494921 -178.672886346 0.57629257887 1.32943938947 0.000275017983573 5.38163178159 0.579738210047 -10.5361539963
11.1 0.528351553027 -179.799052874 0.113205461624 67.715717689 0.61420519409 13.5162429213 0.575135709037 178.792220283 0.113205461624 67.715717689 0.528970495418 -179.767397552 0.61340141589 13.5107676921 0.575424520541 -1.2049966176 0.61420519409 13.5162429213 0.61340141589 13.5107676921 0.496477197238 38.9712504034 0.00027705994561 -1.17867818816 0.575135709037 178.792220283 0.575424520541 -1.2049966176 0.000277059945629 -1.17867817958 0.581468364665 -12.9916263775
11.125 0.529331914586 177.899713919 0.111120232739 64.2458778582 0.614568990903 9.23299512831 0.574251619429 176.258896962 0.111120232739 64.2458778582 0.529953758987 177.934627449 0.613754267453 9.22839519439 0.574549343941 -3.73787242007 0.614568990903 9.23299512831 0.613754267453 9.22839519439 0.495590185852 32.3944288218 0.000279061376025 -7.72973104288 0.574251619429 176.258896962 0.574549343941 -3.73787242006 0.000279061376041 -7.72973103447 0.583204980854 -15.4459018425
11.15 0.53046593982 175.601072616 0.108991114854 60.8043031325 0.614804734772 4.94664851233 0.57336020374 173.727095696 0.108991114854 60.8043031325 0.531089659104 175.639192183 0.61397948496 4.94293236873 0.573667028171 -6.26923480608 0.614804734772 4.94664851233 0.61397948496 4.94293236873 0.495018704873 25.7973769708 0.000281014285106 -14.2707509255 0.57336020374 173.727095696 0.573667028171 -6.26923480608 0.000281014285117 -14.270750918 0.584947978467 -17.8990146185
11.175 0.53175630571 173.304090961 0.106818490747 57.3938196005 0.614908875078 0.657276680819 0.572461440635 171.196768196 0.106818490747 57.3938196005 0.532380841509 173.345359002 0.614073532295 0.654450522671 0.57277755595 -8.7991308328 0.614908875078 0.65727668082 0.614073532295 0.65445052267 0.494773062064 19.1825679971 0.000282910266657 -20.8009926917 0.572461440635 171.196768196 0.57277755595 -8.7991308328 0.000282910266658 -20.8009926859 0.586697272788 -20.3509988258
11.2 0.533205248383 171.007817397 0.10460292819 54.0175324671 0.614877985451 -3.63504103624 0.571555309975 168.667865846 0.10460292819 54.0175324671 0.533829513346 171.052171121 0.614032995952 -3.63697342172 0.57188091387 -11.3276078909 0.614877985451 -3.63504103624 0.614032995952 -3.63697342172 0.49486245101 12.5526345785 0.00028474051346 -27.3197414748 0.571555309975 168.667865846 0.57188091387 -11.3276078909 0.000284740513445 -27.3197414715 0.588452774204 -22.801888488
11.225 0.534814543566 168.71128709 0.102345197701 50.6788624388 0.614708772442 -7.93022072576 0.570641793036 166.140339663 0.102345197701 50.6788624388 0.535437423943 168.758658609 0.613854593565 -7.93125806758 0.570977092643 -13.8547137728 0.614708772443 -7.93022072576 0.613854593565 -7.93125806758 0.495294841568 5.91034367444 0.000286495834631 -33.826311313 0.570641793036 166.140339663 0.570977092643 -13.8547137728 0.000286495834595 -33.8263113131 0.590214387875 -25.2517175427
11.25 0.536585491186 166.413528176 0.100046292863 47.3815879043 0.614398082884 -12.2281751045 0.569720872769 163.614140264 0.100046292863 47.3815879043 0.537205849726 166.463844603 0.613535181136 -12.2283187565 0.570066087341 -16.3804967455 0.614398082884 -12.2281751045 0.613535181136 -12.2283187565 0.496076882365 -0.741432015016 0.000288166675099 -40.3200427612 0.569720872769 163.614140264 0.570066087341 -16.3804967456 0.000288166675035 -40.3200427654 0.591982013365 -27.7005198523
11.275 0.538518904428 164.113568118 0.0977074538385 44.1298939011 0.613942909779 -16.5288147988 0.568792534098 161.089217822 0.0977074538387 44.1298939011 0.539135583575 164.166751621 0.613071758779 -16.5280688486 0.569147897626 -18.9050056272 0.613942909779 -16.5288147988 0.613071758779 -16.5280688486 0.49721381736 -7.39974526436 0.000289743137576 -46.8002994007 0.568792534098 161.089217822 0.569147897626 -18.9050056272 0.000289743137478 -46.8002994096 0.593755544253 -30.1483292153
11.3 0.540615103485 161.810440066 0.0953301948565 40.9284290141 0.613340396552 -20.8320496826 0.567856764276 158.565522021 0.0953301948567 40.9284290141 0.541226928848 161.866407885 0.61246147484 -20.8304210604 0.568222527973 -21.428289868 0.613340396552 -20.8320496826 0.61246147484 -20.8304210604 0.498709418039 -14.0616074693 0.000291215007618 -53.266463169 0.567856764277 158.565522021 0.568222527972 -21.428289868 0.000291215007481 -53.2664631829 0.595534867727 -32.5951793772
11.325 0.542873914146 159.503189114 0.0929163366307 37.7823715212 0.612587839515 -25.1377902632 0.566913553287 156.043002011 0.0929163366311 37.7823715211 0.543479698225 159.561853532 0.611701628232 -25.135288851 0.56728998787 -23.9503996355 0.612587839515 -25.1377902632 0.611701628232 -25.135288851 0.500565932231 -20.724022886 0.000292571782527 -59.7179284412 0.566913553288 156.043002011 0.56728998787 -23.9503996355 0.000292571782349 -59.71792846 0.597319864132 -35.0411040422
11.35 0.545294671281 157.190878333 0.0904680449227 34.6975062616 0.611682688417 -29.4459491024 0.565962894307 153.521606346 0.0904680449231 34.6975062615 0.545893217411 157.252146602 0.610789668847 -29.4425878426 0.566350292016 -26.4713859044 0.611682688417 -29.4459491025 0.610789668847 -29.4425878426 0.502784049973 -27.384023068 0.000293802705082 -66.1540948107 0.565962894308 153.521606346 0.566350292016 -26.4713859044 0.000293802704862 -66.1540948338 0.599110406502 -37.4861368845
11.375 0.547876227181 154.872594479 0.0879878767503 31.6803138538 0.610622544952 -33.7564422589 0.565004784227 151.001282934 0.0879878767508 31.6803138536 0.54846633367 154.936368708 0.609723195946 -33.7522372627 0.565403460488 -28.9913005508 0.610622544952 -33.756442259 0.609723195947 -33.7522372627 0.505362886151 -34.0387005882 0.000294896803243 -72.5743585428 0.565004784227 151.001282934 0.565403460488 -28.9913005508 0.000294896802988 -72.574358569 0.600906360058 -39.9303115598
11.4 0.550616964603 152.547453272 0.0854788361085 28.7380739803 0.609405159145 -38.0691907341 0.564039224239 148.481978957 0.085478836109 28.7380739801 0.551197429037 152.613630272 0.608499954416 -38.0641613896 0.564449518894 -31.5101964507 0.609405159145 -38.0691907341 0.608499954416 -38.0641613896 0.508299979029 -40.6852411658 0.000295842937185 -78.9781027046 0.56403922424 148.481978957 0.564449518894 -31.5101964507 0.000295842936908 -78.9781027321 0.602707581666 -42.3736617164
11.425 0.553514814283 150.214604154 0.0829444415088 25.8789844398 0.608028423534 -42.3841219036 0.563066220492 145.963640809 0.0829444415093 25.8789844395 0.554084437959 150.283075252 0.607117828833 -42.3782909826 0.563488498507 -34.0281275834 0.608028423534 -42.3841219037 0.607117828833 -42.3782909826 0.511591303154 -47.3209533814 0.000296629855097 -85.3646860144 0.563066220493 145.963640809 0.563488498507 -34.0281275834 0.000296629854821 -85.3646860408 0.604513919266 -44.8162210067
11.45 0.556567276587 147.873234448 0.0803888081718 23.1122974442 0.606490365125 -46.7011709129 0.56208578482 143.446213996 0.0803888081723 23.112297444 0.557124869047 147.943885267 0.605574835305 -46.694564676 0.562520436364 -36.5451491387 0.606490365125 -46.7011709129 0.605574835305 -46.694564676 0.515231294568 -53.9432952726 0.000297246259292 -91.733430504 0.562085784821 143.446213996 0.562520436364 -36.5451491387 0.000297246259053 -91.733430526 0.606325211264 -47.2580230979
11.475 0.559771446856 145.522572852 0.0778167483286 20.4484740575 0.604789135119 -51.0202820121 0.561097935545 140.929643052 0.0778167483289 20.4484740574 0.5603158305 145.595283074 0.603869111084 -51.0129303122 0.56154537535 -39.0613176295 0.604789135119 -51.0202820121 0.603869111084 -51.0129303122 0.519212885841 -60.5498972277 0.000297680884116 -98.08360814 0.561097935545 140.929643052 0.56154537535 -39.0613176295 0.000297680883963 -98.0836081541 0.608141285879 -49.6991016826
11.5 0.563124043954 143.16189222 0.0752338937877 17.899356485 0.602922996444 -55.3414098057 0.560102698356 138.413871422 0.0752338937877 17.899356485 0.563654058706 143.236535329 0.601998901992 -55.3333461884 0.560563364243 -41.5766910081 0.602922996444 -55.3414098057 0.601998901992 -55.3333461884 0.523527548083 -67.138580748 0.000297922587009 -104.414426617 0.560102698356 138.413871422 0.560563364243 -41.5766910081 0.000297922587012 -104.414426619 0.609961960457 -52.1394904891
