! Touchstone file exported from HFSS 2025.2.4
!        File:           C:/Users/chaoy/Documents/single_magictee_v2_stageA/g2_5p00mm_lt_6p00mm/single_magictee_v2.aedt
!        Generated:      02:58:31 PM Sep 19, 2026
!        Design:         SingleMagicT_v2
!        Project:        single_magictee_v2
!
! Variables:
!        f_adapt = 10.2GHz
!        ridge_g1 = 7.672mm
!        ridge_g2 = 5mm
!        ridge_l1 = 9.872mm
!        ridge_l2 = 8.857mm
!        ridge_w = 4.572mm
!        terminal_ridge_len = 6mm
!        wg_a = 22.86mm
!        wg_b = 10.16mm
!
!Data is not renormalized
# GHz S MA
! Terminal data exported
! Port[1] = P1_CollinearMinusX
! Port[2] = P2_CollinearPlusX
! Port[3] = P3_HArm_Ridged
! Port[4] = P4_EArm
9                              0.174243571082419 -157.277685163795 0.524030470968583 -159.363115355669 0.506310997671073 105.093909147142 0.662329538122965 45.2133509069235 
                               0.524030470968623 -159.363115355665 0.173665162164204 -157.393255283788 0.506538026575605 105.177134407915 0.662307862387129 -134.763393378152 
                               0.50631099767108 105.093909147135 0.506538026575603 105.177134407922 0.697902670661293 -170.871165237016 0.000513375152861387 88.994637644171  
                               0.662329538122978 45.2133509069254 0.662307862387113 -134.763393378154 0.000513375152807294 88.9946376474926 0.350239367855709 -109.179907872069 
9.025                          0.174282017536123 -159.771424964205 0.525706997913487 -162.266376497034 0.505149147048781 102.014524947116 0.661878481082832 42.3040537056673 
                               0.525706997913527 -162.266376497032 0.173714456970131 -159.886442795528 0.505377371315235 102.098239322137 0.661853466670393 -137.672814236035 
                               0.505149147048792 102.01452494711  0.505377371315229 102.098239322143 0.699582928168602 -174.227090473651 0.000510287191077472 85.3915679309943 
                               0.661878481082854 42.3040537056708 0.661853466670376 -137.672814236038 0.000510287190984115 85.3915679295922 0.351945942311515 -111.897461753445 
9.05                           0.17433100687883 -162.258746532721 0.527385855945836 -165.160992035673 0.503976664324523 98.9393003577348 0.661424041597913 39.4026723656225 
                               0.527385855945875 -165.160992035673 0.173774370427142 -162.373141600295 0.504206087948427 99.0235002490568 0.661395674354534 -140.574299889021 
                               0.503976664324537 98.9393003577302 0.504206087948418 99.0235002490614 0.701271018612654 -177.582319378105 0.000507117536470313 81.8071740284079 
                               0.66142404159794 39.4026723656269 0.661395674354516 -140.574299889026 0.000507117536349812 81.807174024521  0.353656187941095 -114.610690063369 
9.075                          0.174390937565553 -164.739988291736 0.529067471173077 -168.047161435006 0.502792965110457 95.8681981534309 0.660966187524515 36.5090718669907 
                               0.529067471173114 -168.047161435006 0.173845289246782 -164.853690640485 0.50302358713541 95.9528797562345 0.660934460659546 -143.467985285513 
                               0.502792965110471 95.8681981534272 0.5030235871354  95.9528797562382 0.70296752311636 179.063275587916 0.00050387543991325 78.2402905634371 
                               0.660966187524544 36.5090718669955 0.660934460659529 -143.467985285518 0.000503875439777468 78.240290558677  0.355370034009572 -117.319661445871 
9.1                            0.174462140573108 -167.215488911925 0.530752247521564 -170.925083468754 0.501597485546726 92.8011811219525 0.660504889857011 33.6231177704924 
                               0.530752247521597 -170.925083468755 0.17392753232819 -167.328429090786 0.501829300159283 92.8863404345142 0.660469803749039 -146.354004813774 
                               0.50159748554674 92.8011811219497 0.501829300159273 92.8863404345171 0.704672993148261 175.709823238866 0.000500567827874771 74.6898661616655 
                               0.660504889857039 33.6231177704971 0.660469803749023 -146.354004813778 0.000500567827734536 74.6898661571032 0.357087416790965 -120.024443436071 
9.125                          0.174544882399242 -169.68558595466 0.53244056541173 -173.794955745656 0.5003896842812  89.738212473555  0.660040122194063 30.7446765005612 
                               0.532440565411759 -173.794955745657 0.174021353773501 -169.797695002314 0.500622680901134 89.8238453080119 0.660001684221387 -149.232492017909 
                               0.500389684281212 89.7382124735528 0.500622680901124 89.8238453080141 0.706387946813235 172.357453741632 0.000497199682613529 71.1549844279899 
                               0.660040122194089 30.7446765005656 0.660001684221373 -149.232492017913 0.000497199682478077 71.1549844242476 0.358808279079966 -122.725102464875 
9.15                           0.174639368050333 -172.150614617202 0.534132780641364 -176.656974277584 0.499169044318768 86.6792562000046 0.659571860252663 27.8736155938583 
                               0.534132780641389 -176.656974277585 0.174126945890424 -172.261824049858 0.49940320768548 86.7653581938851 0.659530084646567 -152.103579348671 
                               0.49916904431878 86.679256200003  0.49940320768547 86.7653581938868 0.708112865468303 169.00629864585  0.000493774415971986 67.6348783372512 
                               0.659571860252686 27.8736155938621 0.659530084646554 -152.103579348675 0.000493774415848621 67.6348783345955 0.360532569740065 -125.421703867476 
9.175                          0.1747457439998  -174.610906575778 0.535829223466539 -179.511333088937 0.497935074735838 83.6242773847188 0.659100081427961 25.0098039152969 
                               0.535829223466559 -179.511333088938 0.174244442164438 -174.721148377246 0.498170384991723 83.7108440132006 0.659054989146616 -154.967397946877 
                               0.497935074735848 83.6242773847176 0.498170384991714 83.7108440132017 0.709848190673042 165.656490869213 0.000490294227776166 64.128938450868  
                               0.659100081427979 25.0098039153001 0.659054989146605 -154.96739794688 0.000490294227670111 64.1289384493008 0.362260243286482 -128.1143118952  
9.2                            0.174864101103161 -177.066788921579 0.53753019786962 177.641776134831 0.496687312256196 80.5732424655755 0.658624764396656 22.1531118437536 
                               0.537530197869636 177.64177613483  0.174373920186796 -177.175995535821 0.496923745027802 80.660269054428  0.658576383017497 -157.824077457274 
                               0.496687312256203 80.5732424655748 0.496923745027794 80.6602690544288 0.711594321481729 162.308164639002 0.000486760441343399 60.6367154389555 
                               0.65862476439667 22.1531118437561 0.658576383017488 -157.824077457276 0.00048676044125781 60.6367154382984 0.363991259502347 -130.802989730258 
9.225                          0.174994477458959 -179.518583184859 0.539235981003861 174.802164361669 0.495425322684945 77.5261194521101 0.658145888761683 19.3034114296034 
                               0.539235981003873 174.802164361668 0.174515404527863 -179.626687511092 0.495662849162749 77.6136011912749 0.658094252390095 -160.673745870685 
                               0.495425322684949 77.5261194521097 0.495662849162743 77.6136011912753 0.713351612082052 158.961455391384 0.000483173809918175 57.1579174504028 
                               0.658145888761693 19.3034114296053 0.658094252390087 -160.673745870687 0.000483173809854293 57.1579174503722 0.365725583086461 -133.48779950304 
9.25                           0.175136861207739 178.033395557622 0.540946822804149 171.969645492506 0.494148702197785 74.4828780989827 0.657663434735796 16.4605765261807 
                               0.540946822804157 171.969645492505 0.174668869548219 177.926460167216 0.49438728921542 74.5708100567408 0.657608583927983 -163.516529392348 
                               0.494148702197788 74.4828780989826 0.494387289215415 74.570810056741  0.715120369782923 155.61649963028  0.000479534789082697 53.692402937128  
                               0.657663434735803 16.4605765261819 0.657608583927977 -163.516529392349 0.000479534789040097 53.6924029373995 0.367463183330967 -136.168802311557 
9.275                          0.175291193263736 175.588839496336 0.542662945753638 169.144036608015 0.492857078483461 71.4434900377396 0.657177382861658 13.6244828972102 
                               0.542662945753643 169.144036608015 0.174834242142473 175.483139236315 0.493096688597206 71.5318671754119 0.657119364559609 -166.352552334366 
                               0.492857078483463 71.4434900377397 0.493096688597203 71.5318671754119 0.716900853351689 152.27343474785  0.000475843771395499 50.2401696013989 
                               0.657177382861661 13.6244828972108 0.657119364559604 -166.352552334367 0.000475843771372416 50.2401696016587 0.369204033827205 -138.846058242732 
9.3                            0.175457369976134 173.147448828252 0.544384544796204 166.32515818462  0.491550111737817 68.407928869016  0.656687713766   10.7950083021974 
                               0.544384544796207 166.32515818462  0.175011404412889 173.04304943708  0.491790703307155 68.496746056138  0.6566265812425  -169.181937030301 
                               0.491550111737816 68.4079288690163 0.491790703307152 68.4967460561378 0.718693271698877 148.932398808876 0.000472101280749358 46.8013401925714 
                               0.656687713766   10.7950083021975 0.656626581242496 -169.181937030302 0.000472101280743048 46.8013401925543 0.370948112198024 -141.519626395202 
9.325                          0.175635245718534 170.708932425724 0.546111787384896 163.51283428172  0.49022749550851 65.3761702174245 0.656194407945432 7.97203256169816 
                               0.546111787384896 163.51283428172  0.175200196271701 170.605899180478 0.490469022778497 65.4654222473343 0.656130220757125 -172.004803769952 
                               0.490227495508508 65.3761702174249 0.490469022778495 65.465422247334  0.720497782906443 145.593530301506 0.0004683081252315 43.3761459261947 
                               0.65619440794543 7.97203256169789 0.656130220757122 -172.004803769952 0.000468308125238607 43.376145925709  0.372695399854813 -144.189564903384 
9.35                           0.175824635406799 168.273008438823 0.547844813656819 160.706892702083 0.488888957390066 62.3481917514575 0.655697445581502 5.15543760431843 
                               0.547844813656817 160.706892702083 0.175400417972501 168.171406147576 0.489131370576236 62.4378733572334 0.655630269528091 -174.821270752479 
                               0.488888957390063 62.3481917514579 0.489131370576235 62.4378733572331 0.722314493593465 142.256967857013 0.000464465508608516 39.9649083278527 
                               0.655697445581498 5.15543760431786 0.655630269528089 -174.821270752478 0.000464465508625428 39.9649083267925 0.374445881777515 -146.855930962525 
9.375                          0.176025316946625 165.839404834717 0.549583736725176 157.907165127261 0.487534259569595 59.3239731707914 0.65519680638265 2.34510749721654 
                               0.549583736725173 157.907165127261 0.175611832572257 165.739297826701 0.48777750494606 59.4140790414722 0.655126713470376 -177.631454056075 
                               0.487534259569591 59.3239731707919 0.487777504946059 59.4140790414718 0.724143458611251 138.922849941356 0.000460575101911368 36.5680203103543 
                               0.655196806382645 2.34510749721575 0.655126713470375 -177.631454056074 0.000460575101934527 36.5680203087001 0.376199546315909 -149.518780854512 
9.4                            0.17623703361314 163.407859877391 0.551328643079489 155.113487229833 0.486163199224161 56.3034961634277 0.654692469450761 -0.459071538196672 
                               0.551328643079486 155.113487229833 0.175834168326432 163.309311991111 0.486407219215521 56.3940209604447 0.654619537858384 179.5645323775   
                               0.486163199224157 56.3034961634282 0.486407219215521 56.3940209604443 0.725984681057938 135.591314521436 0.000456639077906102 33.1859272711703 
                               0.654692469450755 -0.459071538197602 0.654619537858384 179.564532377501 0.000456639077932261 33.1859272689812 0.377956385010468 -152.178169974245 
9.425                          0.176459496365543 160.978122550773 0.553079593085329 152.325698764195 0.48477560877144 53.2867443351261 0.654184413170073 -3.25721112374928 
                               0.553079593085324 152.325698764195 0.176067121020394 160.881197120204 0.485020342049046 53.3776827088788 0.654108727215678 176.766576745171 
                               0.484775608771435 53.2867443351266 0.485020342049047 53.3776827088784 0.727838112600916 132.262498709066 0.000452660112433208 29.8191089445153 
                               0.654184413170068 -3.25721112375027 0.654108727215678 176.766576745172 0.000452660112459618 29.8191089419137 0.379716392431139 -154.834152856351 
9.45                           0.176692386100275 158.549952928054 0.554836621575185 149.543643637559 0.483371355975959 50.2737031136014 0.653672615116307 -6.04942073366261 
                               0.554836621575181 149.543643637559 0.176310356240718 158.454712767112 0.483616737559012 50.3650497201019 0.653594265223313 173.974569373093 
                               0.483371355975955 50.2737031136019 0.483616737559013 50.3650497201014 0.72970365409373 128.936538385677 0.000448641357608139 26.4680626588986 
                               0.653672615116301 -6.04942073366361 0.653594265223313 173.974569373094 0.000448641357632666 26.4680626560511 0.381479566032418 -157.486783202104 
9.475                          0.176935355846519 156.123122489793 0.556599738522433 146.767169962713 0.481950343913883 47.2643596299435 0.653157051983927 -8.83580771392781 
                               0.556599738522429 146.767169962713 0.176563511590318 156.029629875211 0.482196305275772 47.3561091474559 0.653076134644817 171.188402696966 
                               0.481950343913879 47.264359629944  0.482196305275773 47.3561091474555 0.731581156472626 125.613567810869 0.000444586392628953 23.1332885387799 
                               0.653157051983922 -8.83580771392875 0.653076134644818 171.188402696967 0.000444586392650128 23.1332885358753 0.383245906023159 -160.136113906366 
9.5                            0.177188032907965 153.69741439313  0.558368929790638 143.996130094053 0.480512510799907 44.2587025796998 0.652637699529597 -11.6164773105483 
                               0.558368929790635 143.996130094054 0.176826198851413 153.605731045912 0.480758979980131 44.3508497253015 0.652554317265935 168.40797123346  
                               0.480512510799903 44.2587025797003 0.480758979980131 44.3508497253011 0.733470421916504 122.293719217886 0.000440499158380915 19.8152770533182 
                               0.652637699529593 -11.6164773105491 0.652554317265936 168.407971233461 0.000440499158397916 19.8152770505465 0.385015415249603 -162.782197084429 
9.525                          0.17745002095473 151.272623694259 0.560144157950761 141.230380648291 0.479057829680461 41.2567220660227 0.652114532529934 -14.3915327053793 
                               0.560144157950758 141.230380648291 0.177098006100296 151.182810759876 0.479304731402387 41.3492616120113 0.65202879384736 165.633171544052 
                               0.479057829680458 41.2567220660231 0.479304731402387 41.3492616120109 0.735371205252838 118.977122399076 0.000436383882131683 16.5144991635611 
                               0.652114532529931 -14.39153270538  0.652028793847361 165.633171544053 0.000436383882144273 16.5144991610944 0.386788099090159 -165.425084098632 
9.55                           0.177720902069228 148.848557526127 0.561925363159104 138.46978251117  0.477586307998008 38.2584094272345 0.651587524751812 -17.1610750583821 
                               0.561925363159102 138.46978251117  0.177378499777735 148.760675553587 0.477833563792654 38.3513362173059 0.6514995440888  162.863902192444 
                               0.477586307998005 38.2584094272349 0.477833563792655 38.3513362173056 0.737283215591047 115.663904284352 0.000432244998370494 13.231399160879  
                               0.65158752475181 -17.1610750583827 0.651499544088801 162.863902192445 0.000432244998378914 13.2313991588569 0.388563965360559 -168.064825584637 
9.575                          0.17800023874948 146.425035233161 0.563712464089146 135.714200831452 0.476097987031745 35.2637570510964 0.651056648933559 -19.9252035551959 
                               0.563712464089144 135.714200831452 0.177667226718518 146.339144153103 0.476345515367702 35.3570660162205 0.650966546602825 160.100063696681 
                               0.476097987031743 35.2637570510968 0.476345515367703 35.3570660162202 0.739206118163919 112.354188515606 0.000428087071284437 9.96639013392077 
                               0.651056648933558 -19.9252035551964 0.650966546602825 160.100063696681 0.000428087071289282 9.96639013243921 0.39034302422805 -170.701471477276 
9.6                            0.178287575873048 144.001888464692 0.565505358910667 132.963505003353 0.474592941220567 32.2727581779975 0.650521876775504 -22.6840154590135 
                               0.565505358910667 132.963505003353 0.177963716143315 143.91804756663  0.47484065764008 32.3664443519166 0.65042977889704 157.34155847698  
                               0.474592941220566 32.2727581779979 0.47484065764008 32.3664443519164 0.741139536356974 109.0480950199   0.000423914723533623 6.71985185863224 
                               0.650521876775505 -22.6840154590138 0.650429778897041 157.34155847698  0.000423914723535706 6.71985185773875 0.392125288133389 -173.335071035889 
9.625                          0.178582442624354 141.578961228622 0.567303926309869 130.217568638519 0.473071277374565 29.2854066951878 0.64998317893844 -25.4376061658329 
                               0.567303926309871 130.217568638519 0.178267481615591 141.497229137472 0.473319094635743 29.3794652294672 0.649889217363268 154.588290800216 
                               0.473071277374566 29.2854066951881 0.473319094635742 29.3794652294669 0.743083053905123 105.745739584171 0.000419732574953738 3.49213078471237 
                               0.649983178938442 -25.4376061658331 0.649889217363269 154.588290800216 0.000419732574953959 3.49213078440563 0.393910771719437 -175.965672869072 
9.65                           0.17888435438765 139.156109906823 0.569108026544434 127.476269528593 0.471533133781768 26.3016969240861 0.649440525048677 -28.1860692622359 
                               0.569108026544436 127.476269528593 0.17857802296577 139.07654455881  0.471780962006815 26.3961231026452 0.649344837272507 151.840166721908 
                               0.471533133781769 26.3016969240863 0.471780962006814 26.3961231026449 0.74503621723563 102.447233434035 0.00041554519366112 0.283541699258029 
                               0.64944052504868 -28.1860692622359 0.649344837272508 151.840166721908 0.000415545193660359 0.283541699492099 0.395699491765269 -178.593324958777 
9.675                          0.179192814607411 136.733203233643 0.570917502527728 124.739489599306 0.469978679217182 23.3216234025908 0.648893883708493 -30.9294965849222 
                               0.570917502527731 124.739489599305 0.17889482818437 136.655861851708 0.470226426046466 23.4164126556469 0.648796612774567 149.097094026491 
                               0.469978679217184 23.3216234025911 0.470226426046465 23.4164126556467 0.746998537936235 99.1526828191055 0.000411357060848757 -2.90562941108906 
                               0.648893883708497 -30.9294965849221 0.648796612774568 149.09709402649  0.000411357060847778 -2.90562941039692 0.397491467124775 178.781925316281 
9.7                            0.179507316617366 134.310122238903 0.572732180936635 122.007114857004 0.468408111861458 20.3451806641999 0.648343222510858 -33.6679782813127 
                               0.57273218093664 122.007114857004 0.179217375285204 134.235061307693 0.468655682613176 20.4403285815579 0.648244516901372 146.35898216656  
                               0.46840811186146 20.3451806642001 0.468655682613175 20.4403285815576 0.748969495327299 95.8621886071035 0.00040717254942481 -6.07512180248903 
                               0.648343222510863 -33.6679782813125 0.648244516901372 146.35898216656  0.000407172549424202 -6.07512180144821 0.399286718668788 176.160031157959 
9.725                          0.179827345438841 131.886760156702 0.574551873337696 119.279035328417 0.466821658136752 17.3723630156353 0.647788508057463 -36.4016028705984 
                               0.574551873337701 119.279035328417 0.179545134139199 131.814035397238 0.467068955971895 17.4678653592593 0.647688521573033 143.625742201723 
                               0.466821658136754 17.3723630156355 0.467068955971894 17.4678653592591 0.75094853911708 92.5758458888058 0.000402995915631996 -9.22469621363233 
                               0.647788508057468 -36.4016028705982 0.647688521573033 143.625742201723 0.000402995915632141 -9.22469621236726 0.40108526922989 173.540946326802 
9.75                           0.180152379548492 129.463022301379 0.576376377326517 116.555144994432 0.465219571467491 14.403164314535  0.647229705979146 -39.130457304694 
                               0.576376377326522 116.555144994432 0.179877568278802 129.392688645479 0.46546649755975 14.4990170303424 0.647128597605915 140.897286737593 
                               0.465219571467494 14.4031643145352 0.465466497559749 14.4990170303422 0.752935092119581 89.2937435957237 0.000398831301953932 -12.3541313544936 
                               0.647229705979152 -39.1304573046937 0.647128597605915 140.897286737593 0.000398831301954999 -12.3541313531323 0.402887143549094 170.924625120955 
9.775                          0.180481892614997 127.038825911979 0.578205477675627 113.835341718569 0.463602130973857 11.4375777486483 0.646666780957947 -41.8546270286186 
                               0.578205477675633 113.835341718568 0.180214136672354 126.970937476523 0.463848584684068 11.5337769774655 0.646564714721975 138.173529865422 
                               0.46360213097386 11.4375777486485 0.463848584684066 11.5337769774653 0.754928553015012 86.0159641321693 0.000394682749002391 -15.463221028663 
                               0.646666780957953 -41.8546270286183 0.646564714721975 138.173529865421 0.000394682749004353 -15.4632210273266 0.4046923682237  168.311022355901 
9.8                            0.180815355203732 124.614099966621 0.580038947486186 111.119527170794 0.461969640105798 8.47559561783325 0.64609969675009 -44.5741960398944 
                               0.580038947486192 111.119527170794 0.180554295467308 124.548710027712 0.462215519160479 8.57213770545984 0.645996841558805 135.454387102766 
                               0.461969640105802 8.47559561783345 0.462215519160477 8.57213770545958 0.75692829913359 82.7425830231702 0.000390554213705606 -18.5517721876946 
                               0.646099696750096 -44.5741960398941 0.645996841558805 135.454387102765 0.000390554213708278 -18.5517721864885 0.406500971655675 165.700093345039 
9.825                          0.181152236447964 122.188784968192 0.581876549339188 108.407606747259 0.46032242522536 5.51720912001978 0.64552841620931 -47.2892469466156 
                               0.581876549339194 108.407606747259 0.18089749970063 122.125945935307 0.460567625898855 5.61409062634916 0.64542494567985 132.739775335553 
                               0.460322425225364 5.51720912001998 0.460567625898853 5.61409062634891 0.758933689244261 79.4736685794683 0.000386449590981099 -21.6196041184094 
                               0.645528416209316 -47.2892469466153 0.64542494567985 132.739775335553 0.000386449590984182 -21.6196041174167 0.40831298400001 163.091793881103 
9.85                           0.181492005684659 119.762832702889 0.583718036442019 105.699489486485 0.458660834144994 2.56240814216485 0.64495290131002 -49.9998610239038 
                               0.583718036442026 105.699489486485 0.181243204974287 119.702596093077 0.458905251444704 2.65962584931128 0.644848993584403 130.029612761826 
                               0.458660834144998 2.56240814216507 0.458905251444702 2.65962584931103 0.760944066330956 76.2092815806248 0.000382372736157922 -24.6665488629792 
                               0.644952901310026 -49.9998610239036 0.644848993584403 130.029612761825 0.000382372736161056 -24.6665488622569 0.410128437112555 160.486080218444 
9.875                          0.181834134052595 117.336205973162 0.585563153766457 102.99508798248  0.45698523462932 -0.388818942916373 0.644373113169896 -52.7061182685195 
                               0.585563153766464 102.99508798248  0.181590869093311 117.278622385364 0.457228762483482 -0.291268023529049 0.644268950717024 127.323818837398 
                               0.456985234629323 -0.388818942916164 0.45722876248348 -0.291268023529313 0.76295876034005 72.9494749770304 0.000378327485679682 -27.6924528741755 
                               0.644373113169902 -52.7061182685193 0.644268950717024 127.323818837398 0.000378327485682498 -27.6924528737531 0.411947364496919 157.882909056146 
9.9                            0.182178096050153 114.908878306732 0.587411639174417 100.294318295219 0.455296012867603 -3.33648547309117 0.643789012071556 -55.4080974514522 
                               0.587411639174423 100.294318295219 0.181939953663593 114.853997396303 0.455538544315057 -3.23860409472229 0.643684781476138 124.622314223601 
                               0.455296012867606 -3.33648547309094 0.455538544315055 -3.23860409472257 0.764977090883971 69.6942936114068 0.000374317674028339 -30.697179820644 
                               0.643789012071562 -55.4080974514521 0.643684781476137 124.622314223601 0.0003743176740305 -30.6971798205249 0.413769801250073 155.282237522007 
9.925                          0.182523371049885 112.480833643409 0.58926322452798 97.5970998588748 0.453593571923896 -6.28060668621228 0.643200557483058 -58.1058761683687 
                               0.589263224527986 97.5970998588748 0.182289925646304 112.428704096927 0.453834999305257 -6.182397361918  0.643096449221618 121.925020737245 
                               0.4535935719239  -6.28060668621204 0.453834999305255 -6.18239736191829 0.766998369887186 66.443773960166  0.000370347145311349 -33.6806143843114 
                               0.643200557483063 -58.1058761683686 0.643096449221617 121.925020737245 0.00037034714531259 -33.6806143844756 0.415595784006381 152.684023157347 
9.95                           0.182869444766782 110.05206600156  0.591117636780443 94.903355388145  0.451878330171455 -9.22119990170197 0.642607708077041 -60.7995308878366 
                               0.591117636780449 94.9033553881449 0.182640258865623 110.002735511995 0.452118545321103 -9.12266490060689 0.642503916281244 119.231861302877 
                               0.451878330171458 -9.22119990170172 0.452118545321102 -9.12266490060719 0.76902190416216 63.1979438947918 0.000366419758502408 -36.6426668372186 
                               0.642607708077046 -60.7995308878366 0.642503916281244 119.231861302877 0.00036641975850256 -36.6426668376274 0.417425350879821 150.088223902653 
9.975                          0.183215810677021 107.622579126129 0.59297459904537 92.2130107829876 0.450150719717641 -12.1582846940683 0.642010421748389 -63.4891369972918 
                               0.592974599045375 92.2130107829876 0.182990435466382 107.576094368476 0.450389614155963 -12.0594260388295 0.64190714395598 116.542759907363 
                               0.450150719717643 -12.1582846940681 0.450389614155961 -12.0594260388298 0.771046997904335 59.9568224632014 0.000362539385873208 -39.5832781497303 
                               0.642010421748393 -63.489136997292 0.641907143955979 116.542759907364 0.000362539385872209 -39.5832781503315 0.419258541404218 147.494798084038 
10                             0.183561971384005 105.192386120215 0.594833831640823 89.5259950320332 0.448411184825106 -15.0918830581305 0.641408655630336 -66.174768846754 
                               0.594833831640828 89.5259950320332 0.183339947318172 105.148792727698 0.448648649950377 -14.9927025236259 0.641306092524059 113.857641556802 
                               0.448411184825107 -15.0918830581303 0.448648649950375 -14.9927025236262 0.773072955096658 56.7204196908551 0.000358709904661183 -42.5024253660736 
                               0.641408655630339 -66.1747688467542 0.641306092524058 113.857641556802 0.00035870990465908 -42.5024253668075 0.421095396471377 144.903704400506 
10.025                         0.183907439928479 102.761509062307 0.596695053106199 86.8422401149131 0.446660180334572 -18.0220195658505 0.640802366109031 -68.8564997903344 
                               0.596695053106202 86.8422401149132 0.183688297362543 102.720851603251 0.446896107613919 -17.9225186791212 0.640700721243958 111.176432235708 
                               0.446660180334574 -18.0220195658502 0.446896107613917 -17.9225186791215 0.775099081815621 53.4887364011937 0.000354935182455716 -45.4001269850493 
                               0.640802366109033 -68.8564997903347 0.640700721243957 111.176432235708 0.000354935182452658 -45.400126985854 0.422935958267042 142.314901911999 
10.05                          0.184251741039725 100.329978611316 0.598557981189284 84.1616809037142 0.444898170094034 -20.9487215147806 0.64019150883659 -71.5344022256098 
                               0.598557981189287 84.1616809037143 0.184035000900066 100.292300566819 0.445132451252904 -20.8489015562566 0.640090988356332 108.499058868407 
                               0.444898170094035 -20.9487215147804 0.445132451252902 -20.8489015562569 0.777124688432325 50.2617640548165 0.000351219057132245 -48.276448100983 
                               0.640191508836591 -71.53440222561  0.640090988356331 108.499058868408 0.000351219057128462 -48.2764481017993 0.424780270204637 139.728350028223 
10.075                         0.184594412324992 97.8978336016226 0.6004223338014  81.4842550637354 0.443125625398678 -23.8720190682511 0.639576038742727 -74.2085476309715 
                               0.600422333801403 81.4842550637355 0.184379586814256 97.8631773441489 0.443358152608277 -23.7718810742861 0.639476851085067 105.825449282522 
                               0.443125625398678 -23.8720190682509 0.443358152608275 -23.7718810742863 0.779149091703513 47.0394846066416 0.00034756531240946 -51.1315050893089 
                               0.639576038742728 -74.2085476309717 0.639476851085066 105.825449282523 0.000347565312405248 -51.131505090085 0.426628376856806 137.144008498211 
10.1                           0.184935005394661 95.4651206304152 0.602287829938688 78.8099029537033 0.441343023445307 -26.7919453875167 0.6389559100451  -76.879006601081 
                               0.602287829938689 78.8099029537034 0.184721598729669 95.4335274034543 0.441573689507465 -26.6914901542585 0.638858265637633 103.15553217442  
                               0.441343023445307 -26.7919453875165 0.441573689507463 -26.6914901542587 0.781171616748968 43.8218703801483 0.000343977650248141 -53.965469658989 
                               0.6389559100451  -76.8790066010813 0.638858265637631 103.15553217442  0.000343977650243829 -53.9654696596829 0.428480323884787 134.561837400637 
10.125                         0.18527308692099 93.031893639601  0.604154190567838 76.1385675255739 0.439550845804488 -29.7085367561791 0.638331076258527 -79.5458488805894 
                               0.604154190567839 76.138567525574  0.185060596101866 93.0034035385301 0.439779544333454 -29.607764844802 0.638235187204928 100.489237076458 
                               0.439550845804488 -29.7085367561789 0.439779544333453 -29.6077648448023 0.783191598913068 40.6088839576578 0.000340459661357336 -56.7785721366646 
                               0.638331076258526 -79.5458488805897 0.638235187204927 100.489237076459 0.000340459661353264 -56.7785721372462 0.430336157965687 131.981797134829 
10.15                          0.18560823962873 90.5982134946104 0.606021139474771 73.4701942240305 0.437749576913104 -32.6218326972904 0.637701490203265 -82.2091433962977 
                               0.606021139474772 73.4701942240306 0.185396155237409 90.5728654489186 0.437976202513794 -32.5207444406141 0.637607569960874 97.8264943258601 
                               0.437749576913103 -32.6218326972902 0.437976202513793 -32.5207444406143 0.785208385509637 37.4004780854852 0.000337014795037079 -59.5711038916629 
                               0.637701490203264 -82.209143396298 0.637607569960872 97.8264943258603 0.000337014795033571 -59.5711038921147 0.432195926717737 129.403848412486 
10.175                         0.185940063216416 88.1641475623994 0.607888404074987 70.8047308857653 0.435939702589454 -35.5318760836168 0.63706710401259 -84.8689582879528 
                               0.607888404074988 70.8047308857654 0.185727870242555 88.1419793194291 0.436164151031693 -35.4304715941379 0.636975367061996 95.1672350350048 
                               0.435939702589453 -35.5318760836167 0.436164151031692 -35.430471594138 0.78722133745046 34.196595592686  0.000333646329482651 -62.3434188538481 
                               0.637067104012588 -84.868958287953 0.636975367061995 95.1672350350049 0.000333646329479995 -62.3434188541648 0.43405967862365 126.827952250072 
10.2                           0.186268175207678 85.7297692909341 0.609755716184525 68.1421276386167 0.434121708572498 -38.4387132416171 0.636427869139885 -87.5253609378875 
                               0.609755716184526 68.1421276386167 0.186055353899904 85.7108174013018 0.434343876960839 -38.3369924209812 0.636338530647291 92.5113910629373 
                               0.434121708572496 -38.438713241617 0.434343876960838 -38.3369924209813 0.789229830759052 30.9971693220178 0.000330357343521681 -65.0959341155239 
                               0.636427869139882 -87.5253609378876 0.636338530647289 92.5113910629374 0.00033035734352011 -65.0959341157112 0.43592746295218 124.254069961864 
10.225                         0.186592211732519 83.2951577923984 0.611622812750689 65.4823368006194 0.432296079086315 -41.3423940497494 0.63578373636553 -90.1784179997238 
                               0.611622812750689 65.4823368006193 0.18637823847286 83.2794575972581 0.43251586602506 -41.240356599691 0.635697011838636 89.8588949878661 
                               0.432296079086314 -41.3423940497493 0.432515866025058 -41.240356599691 0.79123325797234 27.8021220716573 0.000327150690570134 -67.8291296425195 
                               0.635783736365527 -90.1784179997238 0.635697011838634 89.8588949878661 0.000327150690569812 -67.8291296425921 0.437799329678008 121.682163153655 
10.25                          0.186911828239144 80.8603974322967 0.613489436541884 62.8253127790092 0.430463295430367 -44.2429720317755 0.635134655803833 -92.8281954263688 
                               0.613489436541883 62.8253127790091 0.186696176438434 80.8479830526093 0.43068060118341 -44.1406174665573 0.635050760742076 87.2096800804185 
                               0.430463295430366 -44.2429720317755 0.430680601183409 -44.1406174665573 0.79323102943389 24.6113665461366 0.000324028975393427 -70.5435471472143 
                               0.635134655803831 -92.8281954263687 0.635050760742074 87.2096800804183 0.000324028975394444 -70.5435471471936 0.439675329400096 119.112193717072 
10.275                         0.187226700137567 78.425577426539  0.615355336796138 60.1710119692142 0.428623834595628 -47.1405044457769 0.634480576910303 -95.4747584975346 
                               0.615355336796138 60.1710119692139 0.187008841149567 78.4164817545063 0.42883856124083 -47.0378321061602 0.634399726450256 84.5636802774177 
                               0.428623834595626 -47.1405044457769 0.428838561240829 -47.0378321061602 0.79522257448324 21.4248053149071 0.000320994534058931 -73.239788197149 
                               0.634480576910301 -95.4747584975344 0.634399726450254 84.5636802774174 0.000320994534061297 -73.2397881970604 0.441555513258596 116.544123824519 
10.3                           0.187536523376894 75.9907914484832 0.617220269828064 57.5193926538541 0.426778167906225 -50.0350523696325 0.633821448489527 -98.11817184702  
                               0.617220269828063 57.5193926538538 0.187315927428842 75.985046141301  0.426990219484012 -49.932061438417 0.633743857046324 81.92083015594   
                               0.426778167906223 -50.0350523696325 0.426990219484011 -49.9320614384169 0.797207342546603 18.242330776891  0.000318049417277641 -75.9185116470966 
                               0.633821448489525 -98.1181718470197 0.633743857046323 81.9208301559396 0.000318049417281288 -75.9185116469667 0.443439932850454 113.977915924717 
10.325                         0.187841014958836 73.5561372477795 0.619083999594199 54.870414901761  0.42492675968579 -52.9266807837398 0.633157218703956 -100.75849948999 
                               0.619083999594198 54.8704149017607 0.187617152096155 73.5537727238549 0.425136042341734 -52.82337030291  0.633083099609607 79.281064907412  
                               0.424926759685788 -52.9266807837398 0.425136042341732 -52.8233703029098 0.799184804134936 15.0638251293479 0.0003151953771644 -78.5804304904613 
                               0.633157218703954 -100.758499489989 0.633083099609605 79.2810649074116 0.000315195377169189 -78.5804304903155 0.445328640143777 111.413532738836 
10.35                          0.188139913390663 71.1217162827126 0.620946298216896 52.2240404670285 0.423070065947314 -55.8154586517769 0.632487835083867 -103.395804850483 
                               0.620946298216895 52.2240404670281 0.187912254433528 71.1227617204779 0.42327648806848 -55.7118275413008 0.632417400223337 76.64432031151   
                               0.423070065947312 -55.815458651777 0.423276488068478 -55.7118275413007 0.801154451755825 11.8891603393625 0.000312433857303251 -81.2263082283461 
                               0.632487835083866 -103.395804850482 0.632417400223336 76.6443203115095 0.000312433857308981 -81.2263082282058 0.447221687391057 108.850937257213 
10.375                         0.188432979081419 68.6876333675625 0.622806946467045 49.5802326880899 0.42120853310496 -58.7014590003209 0.63181324453879 -106.030150789384 
                               0.622806946467045 49.5802326880895 0.188200996590947 68.6921167070051 0.421412005449827 -58.5975060786501 0.631746703984747 74.010532709627  
                               0.421208533104959 -58.701459000321 0.421412005449824 -58.59750607865  0.803115800746134 8.71819811624756 0.000309765985890058 -83.8569548524506 
                               0.631813244538789 -106.030150789383 0.631746703984746 74.0105327096264 0.000309765985896477 -83.8569548523318 0.449119127041281 106.290092736649 
10.4                           0.188719994685812 66.2539963363211 0.624665734206151 46.9389563868263 0.419342596705937 -61.584758998138 0.631133393370665 -108.66159963307 
                               0.624665734206151 46.9389563868258 0.188483163937652 66.2619442833299 0.419543032527748 -61.480483004462 0.631070955017788 71.3796389776818 
                               0.419342596705935 -61.5847589981382 0.419543032527746 -61.4804830044618 0.805068390032595 5.55078988316014 0.000307192571639193 -86.4732225320672 
                               0.631133393370664 -108.66159963307 0.631070955017787 71.3796389776812 0.000307192571646011 -86.4732225319787 0.451021011650962 103.730962698272 
10.425                         0.189000765400742 63.8209157238956 0.62652246078839 44.3001777676975 0.41747268018026 -64.4654400359597 0.630448227288993 -111.290213202958 
                               0.62652246078839 44.300177767697  0.188758565363898 63.8323537575048 0.417669995343685 -64.3608396542755 0.630390096488753 68.7515764980524 
                               0.417472680180258 -64.4654400359599 0.417669995343683 -64.3608396542753 0.807011782827735 2.38677674624016 0.000304714102083509 -89.0760010867679 
                               0.630448227288993 -111.290213202958 0.630390096488752 68.7515764980518 0.000304714102090411 -89.0760010867105 0.452927393794064 101.173510925986 
10.45                          0.189275119219891 61.3885044657139 0.628376935423477 41.6638643168938 0.41559919360599 -67.3435878075487 0.629757691428236 -113.916052846137 
                               0.628376935423477 41.6638643168933 0.189027033538669 61.4034568483009 0.415793306696993 -67.2386616926129 0.629704070625051 66.1262831304286 
                               0.415599193605989 -67.3435878075489 0.41579330669699 -67.2386616926127 0.808945567268599 -0.774010540397691 0.000302330743864784 -91.6662133158056 
                               0.629757691428237 -113.916052846136 0.629704070625051 66.126283130428  0.000302330743871448 -91.6662133157715 0.454838325970771 98.6177014654847 
10.475                         0.18954290715224 58.9568776164134 0.630228977501286 39.0299847015019 0.413722532487296 -70.2192923928415 0.629061730367696 -116.539179467286 
                               0.630228977501286 39.0299847015015 0.189288425129266 58.975367406885  0.41391336491615 -70.1140391980768 0.629012818737376 63.5036971813895 
                               0.413722532487294 -70.2192923928417 0.413913364916148 -70.1140391980766 0.810869357005631 -3.931751615455  0.000300042344602058 -94.2448102435602 
                               0.629061730367697 -116.539179467285 0.629012818737375 63.5036971813889 0.000300042344608163 -94.2448102435333 0.456753860515   96.0634986238506 
10.5                           0.18980400341069 56.5261520880651 0.632078416879298 36.398508668684  0.411843076542539 -73.0926483439273 0.628360288154102 -119.159653562043 
                               0.632078416879297 36.3985086686836 0.189542620989028 56.5482011580338 0.412030552639962 -72.9870667513667 0.628316281245472 60.883757372531  
                               0.411843076542538 -73.0926483439274 0.412030552639959 -72.9870667513666 0.812782791748981 -7.08663655861629 0.000297848435934291 -96.8127663282224 
                               0.628360288154103 -119.159653562042 0.628316281245472 60.8837573725305 0.000297848435939535 -96.8127663281786 0.458674049500511 93.5108669697406 
10.525                         0.190058305577266 54.0964464081313 0.633925094134103 33.7694069448681 0.409961188499457 -75.9637547745942 0.627653308327112 -121.777535251982 
                               0.633925094134102 33.7694069448678 0.189789526319722 54.1220754610604 0.410145235605818 -75.8578435269515 0.627614397707722 58.2664028069801 
                               0.409961188499456 -75.9637547745943 0.410145235605815 -75.8578435269514 0.814685537779167 -10.2388659476346 0.000295748237358078 -99.3710746688665 
                               0.627653308327114 -121.777535251982 0.627614397707722 58.2664028069798 0.000295748237362185 -99.3710746687751 0.460598944645434 90.9597713341701 
10.55                          0.190305734751537 51.6678804971151 0.63576886077826 31.1426511349559 0.408077212894386 -78.8327154541352 0.626940733947921 -124.39288432133 
                               0.635768860778259 31.1426511349558 0.190029070815305 51.6971090903759 0.408257761442018 -78.7264733890999 0.626907106854712 55.6515729341579 
                               0.408077212894384 -78.8327154541352 0.408257761442015 -78.7264733890998 0.816577288428679 -13.388650925817 0.000293740660517241 -101.920742234555 
                               0.626940733947922 -124.39288432133 0.626907106854712 55.6515729341578 0.000293740660519975 -101.920742234379 0.462528597214935 88.4101768119102 
10.575                         0.190546235688964 49.240575465606  0.637609579443933 28.5182136215532 0.40619147487246 -81.6996389060626 0.626222507631143 -127.005760255543 
                               0.637609579443932 28.5182136215533 0.190261208793855 49.2734220353623 0.406368458461077 -81.5930649929272 0.62619434662695 53.0392075126644 
                               0.406191474872459 -81.6996389060626 0.406368458461074 -81.5930649929272 0.818457764540644 -16.5362132813236 0.000291824313646112 -104.462785128456 
                               0.626222507631145 -127.005760255543 0.62619434662695 53.0392075126645 0.00029182431364728 -104.462785128157 0.464463057921756 85.8620487635155 
10.6                           0.190779776935941 46.8146534301843 0.639447124034813 25.8960674642395 0.40430427898567 -84.5646385123293 0.625498571580133 -129.61622228184 
                               0.639447124034811 25.8960674642397 0.190485919324469 46.8511353189861 0.404477634450921 -84.4577318910668 0.625476054216878 50.4292465711892 
                               0.404304278985668 -84.5646385123292 0.404477634450919 -84.4577318910669 0.820326714910055 -19.6817855396135 0.000289997505919468 -106.998223890393 
                               0.625498571580136 -129.616222281841 0.625476054216879 50.4292465711895 0.000289997505918929 -106.998223889927 0.466402376824222 83.3153528180026 
10.625                         0.191006350968136 44.390237347402  0.641281379847895 23.2761862988962 0.402415907985698 -87.4278326236002 0.624768867625885 -132.224329411756 
                               0.641281379847892 23.2761862988967 0.190703206355843 44.4303708343403 0.402585575460913 -87.3205926465192 0.624752166115289 47.8216303673671 
                               0.402415907985697 -87.4278326236   0.402585575460911 -87.3205926465194 0.82218391671246 -22.8256110702872 0.000288258251517424 -109.528078832873 
                               0.624768867625887 -132.224329411757 0.624752166115291 47.8216303673677 0.000288258251515094 -109.528078832199 0.468346603221333 80.7700548762054 
10.65                          0.191225974338628 41.9674508648269 0.643112243666755 20.6585442371219 0.400526621608505 -90.2893446760579 0.624033337269618 -134.830140485775 
                               0.643112243666751 20.6585442371227 0.190913098853027 42.0112511980704 0.400692544579667 -90.1817709521738 0.624022618162257 45.2162993445262 
                               0.400526621608503 -90.2893446760576 0.400692544579666 -90.1817709521741 0.824029175924194 -25.9679442094768 0.00028660427327132 -112.053365398693 
                               0.624033337269621 -134.830140485776 0.624022618162259 45.2162993445273 0.00028660427326717 -112.05336539777 0.47029578554442 78.2261211148325 
10.675                         0.191438687842027 39.5464181879136 0.644939623828007 18.0431157657709 0.398636655347732 -93.1493033151554 0.62329192172917 -137.433714220057 
                               0.644939623828001 18.0431157657721 0.191115650948642 39.5938996194194 0.398798780701739 -93.0413957574295 0.623287345602651 42.6131940862973 
                               0.39863665534773 -93.1493033151551 0.398798780701737 -93.0413957574299 0.825862327737455 -29.1090503988344 0.000285033005815512 -114.575089522542 
                               0.623291921729172 -137.433714220058 0.623287345602653 42.6131940862987 0.000285033005809569 -114.575089521335 0.472249971244828 75.6835179912621 
10.7                           0.19164455670045 37.1272639612545 0.646763440262662 15.4298756466583 0.396746219214103 -96.0078425266646 0.622544561989277 -140.035109255262 
                               0.646763440262655 15.4298756466598 0.191310942114438 37.1784397834152 0.396904497280361 -95.8996014022719 0.622546283146311 40.0122552690806 
                               0.396746219214101 -96.0078425266641 0.39690449728036 -95.8996014022724 0.827683236972554 -32.2492063420542 0.000283541598229152 -117.094242974879 
                               0.622544561989279 -140.035109255264 0.622546283146313 40.0122552690824 0.000283541598221498 -117.094242973358 0.474209206677014 73.1422122491053 
10.725                         0.191843670776789 34.710113162569  0.648583624514137 12.8187988164885 0.394855496478192 -98.8651017752844 0.621791198855816 -142.634384207446 
                               0.648583624514128 12.8187988164903 0.191499077358694 34.764995746539  0.395009881063596 -98.7565277590863 0.621799365032912 37.4134236123926 
                               0.39485549647819 -98.8651017752837 0.395009881063595 -98.756527759087 0.829491798488711 -35.3887001797416 0.000282126916210742 -119.611798663538 
                               0.621791198855818 -142.634384207448 0.621799365032914 37.4134236123949 0.000282126916201512 -119.611798661682 0.476173536976363 70.6021709245806 
10.75                          0.192036144820243 32.2950910076138 0.650400119734655 10.2098602870683 0.392964642394093 -101.721226151   0.621031773014067 -145.231597720968 
                               0.650400119734644 10.2098602870705 0.191680187454425 32.3536918430287 0.393115090811419 -101.612320382409 0.621046525101555 34.8166398271398 
                               0.392964642394091 -101.721226150999 0.393115090811419 -101.61232038241 0.83128793759366 -38.5278316833132 0.000280785543886037 -122.128705867216 
                               0.621031773014069 -145.231597720971 0.621046525101558 34.8166398271426 0.000280785543875409 -122.128705865011 0.478143005930988 68.0633613537388 
10.775                         0.192222118748518 29.8823228640387 0.652212880661792 7.60303504588236 0.391073782901773 -104.576366523285 0.620266225091043 -147.826808523332 
                               0.652212880661779 7.60303504588492 0.191854429202868 29.9446525998288 0.391220255991521 -104.467130666725 0.620287696865092 32.221844561897  
                               0.39107378290177 -104.576366523284 0.391220255991521 -104.467130666726 0.833071610451195 -41.6669124684631 0.000279513785406379 -124.64588537505 
                               0.620266225091044 -147.826808523335 0.620287696865094 32.2218445619003 0.000279513785394571 -124.645885372495 0.48011765584669 65.5257511805875 
10.8                           0.192401757970522 27.4719341720741 0.65402187357689 4.99829795711351 0.389183013306168 -107.430679703169 0.619494495721916 -150.420075481855 
                               0.654021873576875 4.99829795711647 0.192021985736064 27.5380026580557 0.389325475451837 -107.321116012343 0.619522813589181 29.6289783472909 
                               0.389183013306165 -107.430679703168 0.389325475451838 -107.321116012344 0.834842804484558 -44.8062662285834 0.000278307666549307 -127.164224508072 
                               0.619494495721917 -150.420075481859 0.619522813589184 29.6289783472947 0.000278307666536568 -127.164224505176 0.48209752740421 62.9893083661632 
10.825                         0.192575253752749 25.064050369826  0.655827076247051 2.39562366320673 0.387292396931351 -110.284328613067 0.61871652562058 -153.011457662023 
                               0.655827076247035 2.39562366321005 0.192183066861755 25.1338666987425 0.387430816068146 -110.174439999267 0.618751808376069 27.037981538622  
                               0.387292396931347 -110.284328613066 0.387430816068148 -110.174439999268 0.836601538772237 -47.9462289883565 0.000277162936585926 -129.684572001287 
                               0.618716525620579 -153.011457662028 0.618751808376072 27.0379815386262 0.000277162936572531 -129.684571998074 0.484082659507824 60.4540011986044 
10.85                          0.192742823631864 22.6587968208595 0.657628477852355 -0.205013512915301 0.385401963748473 -113.137482464191 0.61793225565434 -155.601014387378 
                               0.657628477852337 -0.205013512911644 0.192337909453156 22.7323693705419 0.385536311365382 -113.027272568893 0.617974614253067 24.4487942568815 
                               0.385401963748468 -113.13748246419 0.385536311365384 -113.027272568894 0.838347864431415 -51.087149377557 0.000276075070729272 -132.207732729643 
                               0.61793225565434 -155.601014387382 0.61797461425307 24.4487942568862 0.000276075070715508 -132.207732726148 0.486073089124289 57.919798304285  
10.875                         0.192904711875356 20.2562987416876 0.659426078899913 -2.80363966486603 0.383511708976538 -115.990316941256 0.617141626922769 -158.18880530073 
                               0.659426078899894 -2.80363966486205 0.19248677788545 20.3336352169985 0.383641960111693 -115.879790213261 0.617191164265684 21.8613563283499 
                               0.383511708976533 -115.990316941254 0.383641960111695 -115.879790213262 0.840081864982784 -54.22938892491  0.000275039273524068 -134.734462267105 
                               0.617141626922767 -158.188805300735 0.617191164265687 21.861356328355  0.000275039273510228 -134.734462263374 0.488068851111077 55.3866686600647 
10.9                           0.19306118999141 17.8566811267415 0.661219891126301 -5.4002813989038 0.381621591655507 -118.843014394057 0.616344580840705 -160.774890426498 
                               0.661219891126281 -5.40028139889957 0.192629964520234 17.9377886009727 0.381747724884706 -118.732176171455 0.616401391575402 19.2756072229913 
                               0.381621591655502 -118.843014394056 0.381747724884709 -118.732176171456 0.841803656688942 -57.3733223716358 0.000274050483579594 -137.265461275549 
                               0.616344580840703 -160.774890426503 0.616401391575404 19.2756072229966 0.000274050483565966 -137.265461271644 0.490069978032784 52.8545816067248 
10.925                         0.193212557288508 15.4600686683769 0.663009937389828 -7.99496592899371 0.379731533191671 -121.695764035419 0.61554105922543 -163.359330233918 
                               0.663009937389807 -7.99496592898928 0.192767790238425 15.5449536237802 0.37985353060989 -121.584620632664 0.615605229562022 16.6914859918825 
                               0.379731533191666 -121.695764035418 0.379853530609894 -121.584620632665 0.84351338885693 -60.5193380040879 0.00027310338008247 -139.80136972919 
                               0.615541059225427 -163.359330233924 0.615605229562025 16.6914859918882 0.000273103380069329 -139.801369725181 0.492076499964557 50.3235068636535 
10.95                          0.193359141484583 13.0665856694834 0.664796251554026 -10.5877211706636 0.37784141587578 -124.548762144853 0.614731004387991 -165.94218570085 
                               0.664796251554003 -10.587721170659 0.192900605021544 13.1552540366249 0.377959263071448 -124.437320945266 0.614802611930572 14.1089312039482 
                               0.377841415875774 -124.548762144851 0.377959263071452 -124.437320945268 0.845211244093755 -63.6678380046379 0.000272192391553228 -142.342760990671 
                               0.614731004387988 -165.942185700856 0.614802611930574 14.1089312039539 0.000272192391540824 -142.342760986639 0.494088444281314 47.7934145448524 
10.975                         0.193501299364968 10.6763559462922 0.666578878363641 -13.178575833487 0.375951081374953 -127.402212277171 0.613914359228708 -168.523518377892 
                               0.666578878363618 -13.1785758334824 0.193028788580648 10.7688131419413 0.376064767396698 -127.290481831192 0.613993472822692 11.5278808822906 
                               0.375951081374947 -127.402212277169 0.376064767396702 -127.290481831194 0.8468974385019  -66.8192388196923 0.000271311707327439 -144.890135766831 
                               0.613914359228705 -168.523518377897 0.613993472822694 11.5278808822964 0.000271311707315992 -144.890135762864 0.496105835431526 45.2642751763383 
11                             0.193639417487767 8.28950271903144 0.668357873314312 -15.7675595120111 0.374060329200045 -130.256325475151 0.613091067336855 -171.10339045247 
                               0.668357873314289 -15.7675595120066 0.193152751031663 8.38575368231879 0.374169846515572 -130.144315604675 0.613177746932512 8.94827244043905 
                               0.374060329200039 -130.256325475149 0.374169846515576 -130.144315604677 0.848572221799894 -69.9739715434261 0.000270455292246548 -147.443915985226 
                               0.613091067336851 -171.103390452476 0.613177746932514 8.94827244044468 0.00027045529223624 -147.443915981418 0.498128694694255 42.7360597150163 
11.025                         0.193773912934798 5.90614848815627 0.670133302516985 -18.3547027749357 0.372168915150819 -133.111320485212 0.612261073094531 -173.681864812569 
                               0.670133302516963 -18.3547027749314 0.193272933615349 6.00619771476007 0.372274259597492 -132.999042394378 0.612355369626934 6.37004261886016 
                               0.372168915150814 -133.11132048521 0.372274259597496 -132.99904239438 0.850235877350983 -73.1324823154976 0.000269616905032748 -150.004438646647 
                               0.612261073094526 -173.681864812574 0.612355369626936 6.37004261886555 0.000269616905023714 -150.004438643097 0.50015703991814 40.2087395691032 
11.05                          0.193905234105781 3.52641489397348 0.671905242558038 -20.9400372523396 0.370276549742061 -135.967423974925 0.611424321784752 -176.259005109713 
                               0.671905242558017 -20.9400372523356 0.193389809459726 3.63026646812906 0.370377720468688 -135.854890367724 0.611526277070337 3.7931274221     
                               0.370276549742056 -135.967423974924 0.370377720468692 -135.854890367725 0.85188872208073 -76.2952327306518 0.000268790120793552 -152.571949723783 
                               0.611424321784748 -176.259005109718 0.611526277070338 3.79312742210495 0.000268790120785877 -152.571949720589 0.502190885240995 37.6822866201848 
11.075                         0.194033861553076 1.15042255759809 0.673673780355901 -23.5235957207341 0.368382896614591 -138.82487075103 0.610580759703801 -178.834875820823 
                               0.673673780355882 -23.5235957207306 0.193503884382422 1.25808018175684 0.368479896013833 -138.712095956125 0.610690406353658 1.21746205694996 
                               0.368382896614586 -138.824870751029 0.368479896013837 -138.712095956126 0.853531106262072 -79.462700257729 0.000267968358052545 -155.146598191452 
                               0.610580759703797 -178.834875820827 0.610690406353658 1.2174620569544  0.000267968358046259 -155.146598188709 0.504230240788646 35.1566732469894 
11.1                           0.194160308854011 -1.22170909869496 0.675439013014887 -26.1054121857184 0.366487570936085 -141.683903976478 0.60973033427786 178.590457691486 
                               0.675439013014872 -26.1054121857154 0.193615697730182 -1.11024207669117 0.366580404566815 -141.570904079642 0.609847695627873 -1.35701912794889 
                               0.366487570936081 -141.683903976477 0.366580404566819 -141.570904079643 0.855163413143939 -82.6353786651716 0.00026714491063075 -157.728430288999 
                               0.609730334277856 178.590457691482 0.609847695627873 -1.35701912794518 0.000267144910625831 -157.728430286796 0.506275112351673 32.6318723509657 
11.125                         0.194285123517622 -3.58986205351399 0.67720104767676 -28.685521961993 0.364590137797634 -144.544775384858 0.608872994184011 176.016929120587 
                               0.677201047676748 -28.6855219619907 0.193725823252596 -3.47458261583756 0.364678814296467 -144.43156836945 0.608998084241858 -3.9303827006261 
                               0.364590137797631 -144.544775384857 0.36467881429647 -144.43156836945 0.856786058396857 -85.8137784496483 0.000266312984606403 -160.317384129918 
                               0.608872994184007 176.016929120584 0.608998084241858 -3.93038270062332 0.00026631298460277 -160.317384128333 0.508325501038669 30.1078573837519 
11.15                          0.194408887922557 -5.95391991242711 0.678960001370442 -31.2639617504823 0.362690110613099 -147.407745490406 0.608008689475656 173.444471159974 
                               0.678960001370434 -31.2639617504809 0.193834870007056 -5.83482534930162 0.362774641594244 -147.29435138631 0.608141512884686 -6.50269620196998 
                               0.362690110613097 -147.407745490406 0.362774641594246 -147.294351386311 0.858399489346237 -88.9984272639017 0.000265465740458681 -162.913284786772 
                               0.608008689475654 173.444471159972 0.608141512884685 -6.50269620196817 0.000265465740456204 -162.913284785871 0.510381402904686 27.5846023766281 
11.175                         0.194532220282919 -8.31376815954745 0.680716000860127 -33.8407697123021 0.360786949529609 -150.273083791619 0.607137371712466 170.873015450319 
                               0.680716000860125 -33.8407697123015 0.193943483292029 -8.19085604992768 0.36086734947205 -150.159524833108 0.607277923732373 -9.07402819910733 
                               0.360786949529608 -150.273083791619 0.360867349472052 -150.159524833108 0.860004183961062 -92.1898703393566 0.000264596340353424 -165.515839990341 
                               0.607137371712465 170.873015450318 0.607277923732373 -9.07402819910672 0.000264596340351925 -165.515839990171 0.512442808553527 25.0620819720415 
11.2                           0.194655775638918 -10.6692944359379 0.682469182491885 -36.4159855393009 0.358880059858877 -153.141068966333 0.606258994094948 168.302492529943 
                               0.682469182491888 -36.4159855393015 0.194052345605865 -10.5425626308024 0.358956345979823 -153.027369759296 0.606407260599164 -11.6444483354822 
                               0.358880059858878 -153.141068966333 0.358956345979824 -153.027369759296 0.861600649562558 -95.3886708984045 0.000263698000357706 -168.124636589664 
                               0.606258994094947 168.302492529943 0.606407260599164 -11.6444483354828 0.000263698000356969 -168.124636590252 0.51450970271261 22.5402714572972 
11.225                         0.194780246869497 -13.020388845977 0.684219692038712 -38.9896505208931 0.356968790540597 -156.011989055933 0.605373511603772 165.73283178921  
                               0.684219692038721 -38.9896505208947 0.194162177628678 -12.8898354541615 0.357040982653997 -155.898176754942 0.605529469093414 -14.2140273771214 
                               0.356968790540599 -156.011989055934 0.357040982653996 -155.898176754942 0.863189421214111 -98.5954105505933 0.000262764047178815 -170.739137923539 
                               0.605373511603772 165.732831789212 0.605529469093414 -14.2140273771235 0.000262764047178596 -170.739137924886 0.516582063779121 20.0191468005082 
11.25                          0.194906365724399 -15.3669442926632 0.685967684543827 -41.5618076068888 0.35505243265079 -158.886141636201 0.604480881143992 163.163961429381 
                               0.685967684543842 -41.5618076068916 0.194273739225213 -15.2325676691258 0.355120553009638 -158.772246131881 0.604644496778181 -16.7828372545622 
                               0.355052432650794 -158.886141636202 0.355120553009637 -158.77224613188 0.864771059750177 -101.810689666201 0.000261787978817155 -173.358682253083 
                               0.604480881143995 163.163961429385 0.60464449677818 -16.7828372545657 0.000261787978817192 -173.358682255164 0.518659863336294 17.4986846888978 
11.275                         0.195034903873643 -17.7088568426765 0.687713324161826 -44.1325014660249 0.353130217969864 -161.763833972102 0.603581061694337 160.595808426451 
                               0.687713324161848 -44.1325014660289 0.194387830467117 -17.5706555790493 0.353194291090885 -161.649888089282 0.603752293336645 -19.3509510999028 
                               0.35313021796987 -161.763833972104 0.353194291090883 -161.64988808928 0.866346149398235 -105.03512771985 0.000260763528309119 -175.98248239854 
                               0.603581061694341 160.595808426456 0.603752293336644 -19.3509510999076 0.00026076352830915 -175.982482401295 0.520743065638672 14.9788625695463 
11.3                           0.195166673972937 -20.046026121864 0.689456783997194 -46.7017785398823 0.35120131762711 -164.645383153654 0.602674014461736 158.028298500528 
                               0.689456783997223 -46.7017785398873 0.194505292673665 -19.9039990391156 0.35126137009634 -164.531422860768 0.602852810742504 -21.9184432784222 
                               0.351201317627117 -164.645383153656 0.351261370096336 -164.531422860765 0.867915294943985 -108.269363595912 0.000259684729524535 -178.609626710965 
                               0.602674014461741 158.028298500534 0.602852810742503 -21.9184432784283 0.000259684729524313 -178.609626714302 0.522831627065311 12.4596586926759 
11.325                         0.195302530744247 -22.3783557416814 0.691198245939484 -49.2696870918763 0.349264840840569 -167.531116209817 0.601759703041298 155.461356091309 
                               0.691198245939518 -49.2696870918823 0.19462700947071 -22.2325018846892 0.349320901098239 -167.417180840026 0.601946003435498 -24.48538941421  
                               0.349264840840578 -167.53111620982 0.349320901098235 -167.417180840024 0.869479118385968 -111.514055846472 0.000258545983784616 178.760918509581 
                               0.601759703041305 155.461356091317 0.601946003435498 -24.4853894142173 0.000258545983783928 178.76091850579  0.524925495539984 9.94105215756488 
11.35                          0.195443372071518 -24.7057537570001 0.692937900494318 -51.8362772509936 0.347319833773572 -170.421370197183 0.600838093581961 152.894904340235 
                               0.692937900494357 -51.8362772510004 0.194753907868441 -24.5560723908115 0.347371931876641 -170.307502681677 0.601031828502257 -27.0518664092309 
                               0.347319833773582 -170.421370197186 0.347371931876636 -170.307502681674 0.871038255021639 -114.769882891556 0.000257342125892684 176.130305063252 
                               0.600838093581968 152.894904340243 0.601031828502257 -27.0518664092391 0.00025734212589137 176.130305059173 0.527024609917545 7.42302296118108 
11.375                         0.195590140112422 -27.0281331555919 0.694675946609231 -54.401601049946 0.345365278531803 -173.316492260062 0.599909154958034 150.328865079874 
                               0.694675946609272 -54.4016010499532 0.19488695935946 -26.8746237631408 0.345413445892427 -173.202739373984 0.600110245862669 -29.6179524552482 
                               0.345365278531814 -173.316492260065 0.345413445892422 -173.202739373981 0.872593348902768 -118.03754315013 0.000256068488033525 173.499797312697 
                               0.599909154958042 150.328865079883 0.60011024586267 -29.6179524552568 0.000256068488031502 173.499797308536 0.529128899335748 4.90555204962099 
11.4                           0.195743822427956 -29.3454123795212 0.696412591493203 -56.9657124574016 0.343400092327532 -176.216839658405 0.598972858946902 147.763158831149 
                               0.696412591493245 -56.9657124574089 0.195027181039678 -29.1880746605642 0.343444361425705 -176.103252279819 0.599181218461988 -32.1837270380186 
                               0.343400092327543 -176.216839658409 0.3434443614257  -176.103252279816 0.874145047593784 -121.317755089159 0.000254720959910253 170.870765041339 
                               0.59897285894691 147.763158831158 0.599181218461989 -32.1837270380273 0.000254720959907529 170.870765037339 0.531238282531952 2.38862137244271 
11.425                         0.195905453132773 -31.6575158786316 0.698148050428591 -59.5286674039535 0.341423126840571 -179.122779759855 0.598029180413143 145.197704808962 
                               0.698148050428629 -59.5286674039601 0.195175636755606 -31.496349749672 0.341463530909187 -179.009413142156 0.598244712468918 -34.749270933173 
                               0.341423126840582 -179.122779759858 0.341463530909183 -179.009413142153 0.875693996162568 -124.611257176599 0.000253296043460248 168.244674732185 
                               0.598029180413152 145.197704808971 0.598244712468919 -34.749270933181 0.000253296043456949 168.244674728631 0.533352667124311 -0.127786060028299 
11.45                          0.196076114070196 -33.9643746962888 0.699882546574   -62.0905238014764 0.339433167808673 177.96531000793  0.597078097499337 142.632420936822 
                               0.699882546574032 -62.0905238014818 0.195333438282772 -33.7993802912707 0.339469740489291 178.078395949806 0.597300697479926 -37.3146661931894 
                               0.339433167808682 177.965310007927 0.339469740489288 178.078395949809 0.87724083032929 -127.91880772279 0.000251790900532218 165.62307933631  
                               0.597078097499344 142.632420936828 0.597300697479928 -37.3146661931959 0.000251790900528601 165.623079333521 0.535471948857205 -2.64368611634118 
11.475                         0.196256936017048 -36.2659270875532 0.701616310756538 -64.6513415555216 0.337428934883397 175.047042248607 0.596119591823842 140.06722387105  
                               0.701616310756558 -64.6513415555249 0.195501746541152 -36.0971047591389 0.337461709851046 175.159782637867 0.59634914673004 -39.8799961248702 
                               0.337428934883402 175.047042248605 0.337461709851046 175.159782637869 0.878786168695224 -131.241184593077 0.000250203392018922 163.007606645677 
                               0.596119591823846 140.067223871054 0.596349146730042 -39.8799961248742 0.000250203392015396 163.007606644008 0.537596010810898 -5.15909348043572 
11.5                           0.196449099924606 -38.5621191700108 0.7033495812517  -67.2111825703954 0.335409081790903 172.122019736193 0.595153648685827 137.502029035161 
                               0.7033495812517  -67.2111825703954 0.195681772854771 -38.3894694912868 0.335438092346424 172.234344419495 0.595390037310385 -42.4453452567338 
                               0.335409081790904 172.122019736193 0.335438092346428 172.234344419495 0.880330603970443 -134.579184772906 0.000248532107124862 160.399946429549 
                               0.595153648685827 137.502029035162 0.595390037310386 -42.445345256734 0.000248532107122002 160.399946429389 0.53972472257557 -7.67402158496555 
