! Generated from PyAEDT SolutionData; AEDT ExportNetworkData workaround
# GHz S MA R 50
9 0.609941441005 28.4370922223 0.28823390806 -68.3113422951 0.541190641885 -4.15859328111 0.502001336577 42.0348914546 0.28823390806 -68.3113422951 0.611514562616 28.4231872329 0.54071413227 -4.12565288858 0.500599022289 -137.822942467 0.541190641885 -4.15859328111 0.54071413227 -4.12565288858 0.644002884431 169.675356772 0.00109596755456 51.3652338297 0.502001336577 42.0348914546 0.500599022289 -137.822942467 0.00109596755456 51.3652338297 0.705261707321 -148.163593395
9.025 0.608552586076 25.3676762611 0.287697388487 -71.847165446 0.543341092345 -8.69702262324 0.501670705995 39.2813858497 0.287697388486 -71.847165446 0.610137395797 25.3541011097 0.542862026648 -8.66431529966 0.500262461765 -140.575702779 0.543341092345 -8.69702262323 0.542862026648 -8.66431529965 0.640376365386 163.74882686 0.00110011686611 46.7648548081 0.501670705995 39.2813858497 0.500262461765 -140.575702779 0.00110011686603 46.7648548062 0.705735636102 -150.510770826
9.05 0.607193023684 22.3076324558 0.287179642045 -75.3680683685 0.545434852408 -13.2215828852 0.50134207783 36.5356372461 0.287179642045 -75.3680683685 0.608789469329 22.2943775477 0.544953425994 -13.189105495 0.499927663568 -143.320727885 0.545434852408 -13.2215828852 0.544953425994 -13.189105495 0.636810737155 157.838490112 0.00110424099342 42.1778326648 0.50134207783 36.5356372461 0.499927663568 -143.320727885 0.00110424099329 42.1778326617 0.706206255518 -152.852591032
9.075 0.605860964765 19.2566434583 0.286681891848 -78.8743479602 0.547473989415 -17.7322990443 0.501015555661 33.7975063817 0.286681891848 -78.8743479602 0.607468999722 19.2436992274 0.546990396046 -17.7000487513 0.499594735317 -146.058154291 0.547473989415 -17.7322990443 0.546990396046 -17.7000487513 0.633304910953 151.945046056 0.0011083449512 37.6041168665 0.501015555661 33.7975063818 0.499594735318 -146.058154291 0.00110834495104 37.6041168629 0.706673429426 -155.189169927
9.1 0.604554514618 16.2144104846 0.286205237485 -82.3663306263 0.549460705176 -22.2292228731 0.500691239307 31.066856798 0.286205237485 -82.3663306264 0.606174097741 16.2017673568 0.54897513705 -22.197197128 0.499263780517 -148.788116019 0.549460705176 -22.2292228731 0.54897513705 -22.197197128 0.629857345777 146.069084783 0.00111243407556 33.0436327008 0.500691239306 31.0668567981 0.499263780517 -148.788116019 0.0011124340754 33.0436326972 0.707137027762 -157.520621075
9.125 0.603271691591 13.180653465 0.285750655624 -85.8443684015 0.551397312791 -26.7124308208 0.500369224889 28.3435547931 0.285750655624 -85.8443684015 0.604902787093 13.168301819 0.550909960581 -26.6806273495 0.498934898724 -151.510744619 0.551397312791 -26.7124308207 0.550909960581 -26.6806273495 0.626466096554 140.211094578 0.00111651397562 28.4962829749 0.500369224889 28.3435547931 0.498934898724 -151.510744619 0.00111651397547 28.4962829715 0.707596926326 -159.847055768
9.15 0.602010444488 10.1551110997 0.285319001263 -89.3088352952 0.553286214844 -31.1820220286 0.500049604905 25.6274693711 0.285319001263 -89.3088352952 0.603653021806 10.1430412268 0.552797267748 -31.1504388217 0.498608185716 -154.226169188 0.553286214844 -31.1820220286 0.552797267748 -31.1504388217 0.623128860523 134.371469246 0.00112059048809 23.9619496106 0.500049604904 25.6274693711 0.498608185716 -154.226169188 0.00112059048795 23.9619496077 0.708053006556 -162.168583099
9.175 0.600768668739 7.13754083015 0.284911009546 -92.7601238679 0.555129883031 -35.6381164794 0.499732468305 22.9184721882 0.284911009546 -92.7601238679 0.602422702398 7.12574289084 0.55463952883 -35.6067517811 0.498283733649 -156.934516389 0.555129883031 -35.6381164794 0.55463952883 -35.6067517811 0.619843021392 128.550515056 0.00112466963516 19.4404951407 0.499732468305 22.9184721882 0.498283733649 -156.934516389 0.00112466963505 19.4404951382 0.70850515532 -164.485310037
9.2 0.599544221426 4.12771873369 0.28452729802 -96.1986420376 0.556930839246 -40.0808532767 0.499417900586 20.2164374969 0.28452729802 -96.1986420376 0.601209690889 4.1161827143 0.556439264362 -40.0497055761 0.497961631213 -159.635910487 0.556930839246 -40.0808532767 0.556439264362 -40.0497055761 0.61660569097 122.748457249 0.00112875758572 14.9317641084 0.499417900586 20.2164374969 0.497961631213 -159.635910487 0.00112875758563 14.9317641065 0.708953264708 -166.797341498
9.225 0.598334935216 1.12543935229 0.284168369269 -99.624810116 0.558691638111 -44.5103890527 0.499105983876 17.521242087 0.284168369269 -99.6248101161 0.600011824717 1.11415501907 0.55819902768 -44.4794570745 0.497641963777 -162.33047338 0.558691638111 -44.5103890527 0.55819902768 -44.4794570745 0.613413748067 116.965446077 0.00113286061981 10.4355843775 0.499105983876 17.5212420871 0.497641963777 -162.33047338 0.00113286061975 10.4355843762 0.70939723183 -169.10478041
9.25 0.597138631258 -1.86948453866 0.283834613829 -103.03905807 0.560414850949 -48.926896498 0.49879679704 14.8327652269 0.283834613828 -103.03905807 0.59882692964 -1.88052768626 0.559921388896 -48.8961791946 0.497324813527 -165.018324646 0.560414850949 -48.926896498 0.559921388896 -48.8961791946 0.610263874597 111.201562347 0.00113698509653 5.9517683569 0.49879679704 14.8327652269 0.497324813527 -165.018324646 0.00113698509649 5.95176835604 0.709836958622 -171.407727786
9.275 0.595953131121 -4.85722221334 0.283526313317 -106.441823004 0.562103051144 -53.330563008 0.49849041578 12.1508886018 0.283526313317 -106.441823004 0.597652831649 -4.8680349906 0.561608920264 -53.300059552 0.497010259604 -167.699581581 0.562103051144 -53.330563008 0.561608920264 -53.300059552 0.607152588849 105.456822477 0.00114113742514 1.4801141442 0.49849041578 12.1508886018 0.497010259604 -167.699581581 0.00114113742511 1.48011414375 0.710272351655 -173.706282785
9.3 0.594776267819 -7.83792532357 0.28324364373 -109.833546851 0.563758800852 -57.7215894396 0.498186912737 9.47549625294 0.28324364373 -109.833546851 0.596487367994 -7.84851890946 0.563264182903 -57.6912992177 0.496698378224 -170.374359254 0.563758800852 -57.7215894396 0.563264182903 -57.6912992177 0.604076275991 99.7311830669 0.00114532403936 -2.97959340454 0.498186912737 9.47549625294 0.496698378224 -170.374359254 0.00114532403935 -2.97959340464 0.71070332195 -176.00054278
9.325 0.593605895969 -10.8117282658 0.282986678826 -113.214674268 0.56538463899 -62.1001889716 0.497886357601 6.8064745157 0.282986678826 -113.214674268 0.595328397328 -10.8221142527 0.564889714788 -62.0701115779 0.496389242797 -173.042770551 0.56538463899 -62.1001889716 0.564889714788 -62.0701115779 0.601031215916 94.024544991 0.00114955137472 -7.42758167495 0.497886357601 6.8064745157 0.496389242797 -173.042770551 0.00114955137473 -7.42758167479 0.711129784797 -178.290603416
9.35 0.592439901157 -13.7787485809 0.282755393587 -116.585650725 0.566983070439 -66.4665860595 0.49758881722 4.14371195768 0.282755393587 -116.585650725 0.594173809067 -13.7889390253 0.566488019969 -66.4367212908 0.496082924039 -175.704926232 0.566983070439 -66.4665860595 0.566488019969 -66.4367212908 0.59801360855 88.3367570601 0.00115382584885 -11.8640893583 0.49758881722 4.14371195768 0.496082924039 -175.704926232 0.00115382584887 -11.864089358 0.711551659584 179.423441326
9.375 0.591276208537 -16.7390873815 0.282549667685 -119.946920779 0.568556556396 -70.82101548 0.497294355706 1.48709931731 0.282549667685 -119.946920779 0.593021531983 -16.7490948552 0.568061558922 -70.7913633307 0.495779490074 -178.360934984 0.568556556396 -70.82101548 0.568061558922 -70.7913633307 0.595019596796 82.6676192639 0.00115815384442 -16.2893655745 0.497294355706 1.4870993173 0.495779490074 -178.360934984 0.00115815384445 -16.289365574 0.711968869626 177.141499073
9.4 0.590112790728 -19.6928298016 0.282369288948 -123.298926509 0.570107505772 -75.1637214544 0.497003034546 -1.16347055728 0.282369288948 -123.298926509 0.591869542087 -19.7026674432 0.569612739965 -75.1342821124 0.49547900653 178.989096525 0.570107505772 -75.1637214544 0.569612739965 -75.1342821124 0.592045287289 77.0168856378 0.00116254169477 -20.7036690483 0.497003034546 -1.16347055728 0.49547900653 178.989096525 0.0011625416948 -20.7036690478 0.712381342005 174.863479002
9.425 0.588947675043 -22.6400454635 0.282213956787 -126.642106124 0.571638267594 -79.4949568461 0.496714912709 -3.80810276852 0.282213956787 -126.642106124 0.590715869859 -22.6497270308 0.571143911661 -79.4657306893 0.495181536631 176.34506359 0.571638267594 -79.4949568461 0.571143911661 -79.4657306893 0.589086769135 71.384266788 0.00116699567188 -25.1072673351 0.496714912709 -3.80810276852 0.495181536631 176.34506359 0.00116699567191 -25.1072673345 0.712789007407 172.589291785
9.45 0.587778950103 -25.5807889582 0.282083285573 -129.976892712 0.573151124292 -83.8149824228 0.496430046759 -6.44690042899 0.282083285573 -129.976892712 0.589558606846 -25.5903288808 0.572657356122 -83.785970016 0.494887141279 173.706863412 0.573151124292 -83.8149824228 0.572657356122 -83.785970016 0.58614013082 65.7694321139 0.00117152197649 -29.5004360904 0.49643004676 -6.44690042899 0.494887141279 173.706863412 0.00117152197652 -29.50043609 0.713191799972 170.318849532
9.475 0.586604771874 -28.5151003344 0.281976807931 -133.303713127 0.574648285828 -88.1240661782 0.496148490956 -9.07996471988 0.281976807931 -133.303713127 0.588395911701 -28.5245137663 0.574155283143 -88.0952682702 0.494595879131 171.074395042 0.574648285828 -88.1240661782 0.574155283143 -88.0952682702 0.583201475469 60.172011762 0.00117612673039 -33.8834583803 0.496148490957 -9.07996471988 0.494595879131 171.074395042 0.00117612673042 -33.8834583798 0.713589657146 168.052065746
9.5 0.585423369164 -31.443005593 0.281893977965 -136.622987008 0.57613188457 -92.4224827041 0.495870297365 -11.7073949484 0.281893977965 -136.622987008 0.587226015669 -31.4523084659 0.575639825085 -92.3939002257 0.494307806674 168.447559327 0.57613188457 -92.4224827041 0.575639825085 -92.3939002257 0.580266934623 54.5915983481 0.00118081597042 -38.2566240266 0.495870297365 -11.7073949484 0.494307806674 168.447559327 0.00118081597044 -38.2566240263 0.713982519535 165.788855263
9.525 0.584233048637 -34.3645171835 0.281834174382 -139.93512591 0.577603970847 -96.7105126096 0.495595515959 -14.3292886039 0.281834174382 -139.93512591 0.586047227598 -34.3737262599 0.577113032445 -96.6821466718 0.494022978287 165.826258856 0.577603970847 -96.7105126096 0.577113032445 -96.6821466718 0.577332680691 49.0277484813 0.00118559564419 -42.6202289869 0.495595515959 -14.3292886039 0.494022978287 165.826258856 0.00118559564421 -42.6202289866 0.714370330767 163.529134211
9.55 0.583032199363 -37.2796344996 0.281796703521 -143.24053254 0.579066509116 -100.98844198 0.495324194721 -16.945741413 0.281796703521 -143.24053254 0.584857938485 -37.2887674258 0.578576870025 -100.960293872 0.493741446308 163.210397901 0.579066509116 -100.98844198 0.578576870025 -100.960293872 0.574394938239 43.4799841169 0.00119047160733 -46.9745747616 0.495324194721 -16.945741413 0.493741446308 163.210397901 0.00119047160735 -46.9745747614 0.714753037359 161.272819959
9.575 0.581819296964 -40.1883443698 0.28178080228 -146.539600097 0.580521374669 -105.256561867 0.495056379746 -19.5568473928 0.28178080228 -146.539600097 0.583656625613 -40.1974197298 0.580033213659 -105.228633058 0.49346326109 160.59988237 0.580521374669 -105.256561867 0.580033213659 -105.228633058 0.571449994238 37.9477937692 0.00119544962206 -51.3199678296 0.495056379746 -19.5568473928 0.49346326109 160.59988237 0.00119544962207 -51.3199678295 0.715130588585 159.019831068
9.6 0.58059290738 -43.0906215435 0.281785640942 -149.832711688 0.581970350836 -109.515167818 0.494792115338 -22.1626989034 0.281785640942 -149.832711688 0.58244185632 -43.0996589121 0.581483847413 -109.487459952 0.493188471052 157.99461975 0.581970350836 -109.515167818 0.581483847413 -109.487459952 0.568494207419 32.4306336028 0.00120053535692 -55.6567191071 0.494792115338 -22.1626989034 0.493188471052 157.99461975 0.00120053535693 -55.6567191071 0.715502936351 156.77008725
9.625 0.579351690303 -45.9864291682 0.281810325895 -153.120239836 0.583415126606 -113.764559418 0.494531444106 -24.7633866985 0.281810325895 -153.120239836 0.581212291429 -45.9954491644 0.582930461229 -113.737074317 0.492917122733 155.394519062 0.583415126606 -113.764559418 0.582930461229 -113.737074317 0.56552401684 26.9279284262 0.00120573438766 -59.9851434285 0.494531444106 -24.7633866985 0.492917122733 155.394519062 0.00120573438766 -59.9851434285 0.71587003507 154.523509323
9.65 0.578094402312 -48.875719257 0.281853902249 -156.402546048 0.584857294632 -118.005039865 0.494274407061 -27.3589999749 0.281853902249 -156.402546048 0.579966688377 -48.8847435975 0.584374648926 -117.977779528 0.492649260838 152.799490805 0.584857294632 -118.005039865 0.584374648926 -117.977779528 0.562535949775 21.439072601 0.00121105219897 -64.305559048 0.494274407061 -27.3589999749 0.492649260838 152.799490805 0.00121105219897 -64.3055590481 0.716231841549 152.280019168
9.675 0.576819899752 -51.7584331463 0.281915356357 -159.679980447 0.586298349566 -122.23691556 0.494021043705 -29.9496264207 0.281915356357 -159.679980447 0.578703904101 -51.7674846987 0.585817906553 -122.209882165 0.492384928282 150.209446913 0.586298349566 -122.23691556 0.585817906553 -122.209882165 0.559526629029 15.9634308797 0.00121649418708 -68.6182871595 0.494021043705 -29.9496264207 0.492384928282 150.209446913 0.00121649418707 -68.6182871596 0.716588314867 150.039539688
9.7 0.575527141393 -54.6345019417 0.281993618231 -162.952881471 0.587739686675 -126.460495711 0.493771392123 -32.5353522617 0.281993618231 -162.952881471 0.577422897685 -54.643604778 0.587261631012 -126.433691614 0.49212416623 147.624300707 0.587739686675 -126.460495711 0.587261631012 -126.433691614 0.556492779764 10.500339183 0.00122206566308 -72.9236514343 0.493771392123 -32.5353522617 0.49212416623 147.624300707 0.00122206566307 -72.9236514344 0.716939416272 147.801994767
9.725 0.574215190892 -57.5038469526 0.282087563869 -166.221575605 0.589182600722 -130.676091958 0.493525489073 -35.1162623066 0.282087563869 -166.221575605 0.576122732836 -57.513026402 0.588707118941 -130.649519695 0.49186701414 145.043966848 0.589182600722 -130.676091958 0.588707118941 -130.649519695 0.553431235929 5.04910532094 0.00122777185688 -77.2219775756 0.493525489073 -35.1162623066 0.49186701414 145.043966848 0.00122777185687 -77.2219775757 0.717285109066 145.567309235
9.75 0.572883219121 -60.3663801158 0.282196017481 -169.486377167 0.590628285041 -134.884018003 0.493283370068 -37.6924399917 0.282196017481 -169.486377167 0.574802580204 -60.3756628183 0.590155565803 -134.857680293 0.491613509798 142.468361298 0.590628285041 -134.884018003 0.590155565803 -134.857680293 0.550338946365 -0.390990338118 0.00123361792172 -81.5135928884 0.493283370068 -37.6924399917 0.491613509798 142.468361298 0.00123361792171 -81.5135928885 0.717625358503 143.335408824
9.775 0.571530506367 -63.2220044085 0.282317753637 -172.747588129 0.592077830815 -139.08458926 0.493045069469 -40.2639674229 0.282317753637 -172.747588129 0.573461719587 -63.2314183673 0.591608065169 -139.058489004 0.491363689357 139.897401272 0.592077830815 -139.08458926 0.591608065169 -139.058489004 0.547212980658 -5.82069424833 0.00123960893921 -85.7988258656 0.493045069469 -40.2639674229 0.491363689357 139.897401272 0.0012396089392 -85.7988258656 0.717960131689 141.106220136
9.8 0.570156444449 -66.0706142517 0.282451499321 -176.00549797 0.593532226501 -143.278122502 0.49281062056 -42.8309254175 0.282451499321 -176.00549797 0.572099542051 -66.0801888865 0.59306560815 -143.25226279 0.49111758737 137.331005202 0.593532226501 -143.278122502 0.59306560815 -143.25226279 0.544050534816 -11.2407791195 0.00124574992475 -90.0780057884 0.49281062056 -42.8309254175 0.49111758737 137.331005202 0.00124574992474 -90.0780057884 0.718289397477 138.879670607
9.825 0.568760538781 -68.9120959069 0.282595935905 -179.260383552 0.594992357397 -147.464935536 0.492580055636 -45.3933935447 0.282595935905 -179.260383552 0.570715551998 -68.9218621059 0.594529082965 -147.439319644 0.490875236824 134.769092695 0.594992357397 -147.464935536 0.594529082965 -147.439319644 0.540848936834 -16.6520434039 0.00125204583346 -94.3514623426 0.492580055636 -45.3933935447 0.490875236824 134.769092695 0.00125204583345 -94.3514623426 0.718613126378 136.655688467
9.85 0.567342410412 -71.7463278658 0.282749701046 177.487490972 0.596459005316 -151.645346871 0.492353406081 -47.9514501651 0.282749701046 177.487490972 0.569309369208 -71.7563180384 0.595999274631 -151.619978269 0.490636669175 132.211584495 0.596459005316 -151.645346871 0.595999274631 -151.619978269 0.537605652208 -22.0553108416 0.0012585015664 -98.619525249 0.492353406081 -47.9514501651 0.490636669175 132.211584495 0.00125850156639 -98.619525249 0.718931290462 134.434202715
9.875 0.565901798053 -74.5731812385 0.282911390506 174.237874244 0.597932848367 -155.819675401 0.492130702449 -50.5051724682 0.282911390506 174.237874244 0.567880730874 -74.5834293667 0.597476864739 -155.794557757 0.490401914378 129.658402448 0.597932848367 -155.819675401 0.597476864739 -155.794557757 0.534318289465 -27.4514300676 0.00126512197718 -102.882523909 0.492130702449 -50.5051724682 0.490401914378 129.658402448 0.00126512197718 -102.882523909 0.719243863267 132.215143077
9.9 0.564438560138 -77.3925201405 0.283079559903 170.990527761 0.599414460813 -159.988240105 0.491911974544 -53.0546365106 0.283079559903 170.990527761 0.566429493668 -77.4030618305 0.598962431322 -159.963377286 0.49017100092 127.109469465 0.599414460813 -159.988240105 0.598962431322 -159.963377286 0.530984605763 -32.8412742883 0.00127191187896 -107.140787067 0.491911974544 -53.0546365106 0.49017100092 127.109469465 0.00127191187896 -107.140787067 0.719550819711 129.998439981
9.925 0.562952676916 -80.2042020842 0.283252726392 167.745225933 0.600904313006 -164.151359741 0.491697251495 -55.5999172517 0.283252726392 167.745225933 0.564955635838 -80.2150746167 0.600456448791 -164.126755819 0.48994395585 124.564709485 0.600904313006 -164.151359741 0.600456448791 -164.126755819 0.527602512631 -38.225741031 0.00127887605173 -111.394642481 0.491697251495 -55.5999172517 0.48994395585 124.564709485 0.00127887605173 -111.394642481 0.719852136004 127.784024519
9.95 0.561444252598 -83.0080783771 0.283429370281 164.501756129 0.602402771378 -168.309352565 0.491486561837 -58.1410885897 0.283429370281 164.501756129 0.563459259367 -83.0193207572 0.601959287935 -168.285011821 0.48972080481 122.024047446 0.602402771378 -168.309352565 0.601959287935 -168.285011821 0.524170081902 -43.6057519735 0.00128601924998 -115.644416624 0.491486561837 -58.1410885897 0.48972080481 122.024047446 0.00128601924998 -115.644416624 0.72014778956 125.571828423
9.975 0.559913517576 -85.803994532 0.28360793659 161.259918724 0.603910098496 -172.46253605 0.491279933584 -60.6782233962 0.28360793659 161.259918724 0.561940592198 -85.8156475376 0.603471215973 -172.438462982 0.489501572066 119.48740925 0.603910098496 -172.46253605 0.603471215973 -172.438462982 0.520685551902 -48.9822528584 0.00129334621078 -119.890434378 0.491279933584 -60.6782233962 0.489501572066 119.48740925 0.00129334621079 -119.890434378 0.720437758919 123.361784032
10 0.558360830713 -88.5917906937 0.283786836551 158.019527143 0.605426453158 -176.611226621 0.491077394311 -63.2113935501 0.283786836551 158.019527143 0.560399990535 -88.603896923 0.60499239666 -176.587425947 0.489286280532 116.954721731 0.605426453158 -176.611226621 0.60499239666 -176.587425947 0.51714733395 -54.3562134972 0.00130086166222 -124.133018768 0.491077394311 -63.2113935501 0.489286280532 116.954721731 0.00130086166222 -124.133018768 0.720722023659 121.153824261
10.025 0.55678668171 -91.371302087 0.28396444906 154.78040791 0.606951890544 179.244260601 0.490878971228 -65.7406699714 0.28396444906 154.78040791 0.558837941221 -91.3839060038 0.606522890432 179.267783935 0.489074951804 114.425912626 0.606951890544 179.244260601 0.606522890432 179.267783935 0.513554019243 -59.7286278682 0.00130857033224 -128.372490694 0.490878971228 -65.7406699714 0.489074951804 114.425912626 0.00130857033225 -128.372490694 0.721000564318 118.947882576
10.05 0.555191693556 -94.1423594913 0.284139122079 151.542400703 0.608486362399 175.103612042 0.490684691256 -68.2661226539 0.284139122079 151.542400703 0.5572550642 -94.1555074687 0.608062654605 175.126852856 0.488867606186 111.900910542 0.608486362399 175.103612042 0.608062654605 175.126852856 0.50990438617 -65.1005143106 0.00131647695804 -132.609168686 0.490684691256 -68.2661226539 0.488867606186 111.900910542 0.00131647695805 -132.609168686 0.721273362315 116.743892966
10.075 0.553576625043 -96.9047897483 0.284309173999 148.305358419 0.610029717272 170.966515903 0.490494581107 -70.7878206974 0.284309173999 148.305358419 0.555652115049 -96.91853011 0.6096115436 170.989468776 0.488664262713 109.379644928 0.610029717272 170.966515903 0.6096115436 170.989468776 0.506197408132 -70.4729158172 0.00132458629588 -136.843368678 0.490494581107 -70.7878206974 0.488664262713 109.379644928 0.00132458629588 -136.843368678 0.72154039987 114.541789913
10.1 0.551942373348 -99.658416308 0.284472894974 145.069147255 0.611581700785 166.832662385 0.49030866736 -73.3058323401 0.284472894974 145.069147255 0.554029987572 -99.6727993659 0.611169309229 166.855321647 0.488464939183 106.862046047 0.611581700785 166.832662385 0.611169309229 166.855321647 0.502432261918 -75.8469004243 0.00133290313152 -141.075403787 0.49030866736 -73.3058323401 0.488464939183 106.862046047 0.00133290313152 -141.075403787 0.721801659932 112.341508367
10.125 0.55028997666 -102.403059819 0.284628548217 141.833646801 0.613141955955 162.701743888 0.490126976539 -75.8202249897 0.284628548217 141.833646801 0.552389716447 -102.418137908 0.612735601011 162.724103612 0.488269652174 104.348044948 0.613141955954 162.701743888 0.612735601011 162.724103612 0.498608336711 -81.2235616982 0.00134143229125 -145.305584123 0.490126976539 -75.8202249897 0.488269652174 104.348044948 0.00134143229126 -145.305584124 0.722057126096 110.142983722
10.15 0.548620616836 -105.13853877 0.284774371291 138.598750156 0.614710023553 158.573455204 0.489949535194 -78.3310652547 0.284774371291 138.598750156 0.550732479902 -105.15436628 0.614309966542 158.595509199 0.488078417072 101.837573436 0.614710023553 158.573455204 0.614309966542 158.595509199 0.494725243783 -86.6040193131 0.00135017865363 -149.534216604 0.489949535194 -78.3310652547 0.488078417072 101.837573436 0.00135017865364 -149.534216604 0.722306782536 107.946151787
10.175 0.546935622056 -107.864670189 0.284908577379 135.36436407 0.616285342526 154.447493698 0.489776369979 -80.8384189755 0.284908577379 135.36436407 0.549059602391 -107.881303589 0.615891851907 154.469235497 0.487891248091 99.3305640448 0.616285342526 154.447493698 0.615891851907 154.469235497 0.490782826934 -91.9894197152 0.0013591471619 -153.761604786 0.489776369979 -80.8384189755 0.487891248091 99.3305640448 0.00135914716191 -153.761604786 0.722550613924 105.750948764
10.2 0.545236469454 -110.581270407 0.285029356563 132.130409109 0.617867250454 150.323559464 0.489607507736 -83.3423512552 0.285029356563 132.130409109 0.547372557259 -110.598768267 0.617480602151 150.344982321 0.487708158293 96.8269500126 0.617867250454 150.323559464 0.617480602151 150.344982321 0.486781173755 -97.3809368625 0.00136834283732 -157.988048719 0.489607507736 -83.3423512552 0.487708158293 96.8269500126 0.00136834283732 -157.988048719 0.722788605364 103.557311222
10.225 0.543524787694 -113.288155892 0.285134877112 128.896819855 0.619454984076 146.201355485 0.489442975571 -85.84292649 0.285134877112 128.896819855 0.545672969334 -113.306578896 0.619075461806 146.222452357 0.487529159605 94.3266652533 0.619454984076 146.201355485 0.619075461806 146.222452357 0.482720627758 -102.77977303 0.00137777079335 -162.213844806 0.489442975571 -85.84292649 0.487529159605 94.3266652533 0.00137777079335 -162.213844806 0.723020742313 101.365176072
10.25 0.541802359431 -115.985144158 0.2852232868 125.663545134 0.621047679877 142.080587759 0.489282800946 -88.3402083998 0.2852232868 125.663545134 0.543962617434 -116.004555114 0.620675575479 142.101351303 0.487354262837 91.8296443307 0.621047679877 142.080587759 0.620675575479 142.101351303 0.478601801444 -108.187159661 0.00138743625085 -166.439285686 0.489282800946 -88.3402083998 0.487354262837 91.8296443307 0.00138743625085 -166.439285686 0.723247010512 99.1744805475
10.275 0.540071123651 -118.672054764 0.285292714258 122.430548296 0.622644374739 137.960965422 0.489127011758 -90.8342600585 0.285292714258 122.430548296 0.542243436739 -118.692518602 0.622279988506 137.981387983 0.487183477692 89.3358224327 0.622644374739 137.960965422 0.622279988506 137.981387983 0.474425590359 -113.604358255 0.00139734455436 -170.664660126 0.489127011758 -90.8342600585 0.487183477692 89.3358224327 0.00139734455436 -170.664660126 0.723467395916 96.9851621755
10.3 0.538333177801 -121.348710396 0.285341270387 119.197807528 0.624244006671 133.842200857 0.488975636431 -93.3251439246 0.285341270387 119.197807528 0.540517520962 -121.37029416 0.623887647694 133.862274457 0.487016812782 86.8451353456 0.624244006671 133.842200857 0.623887647694 133.862274457 0.470193188204 -119.032661248 0.00140750118961 -174.890252934 0.488975636431 -93.3251439246 0.487016812782 86.8451353456 0.00140750118961 -174.890252934 0.72368188462 94.7971587585
10.325 0.536590779684 -124.01493805 0.285367049848 115.965316217 0.625845415619 129.724009784 0.488828703997 -95.8129218715 0.285367049848 115.965316217 0.538787124302 -124.03771088 0.625497402128 129.743726107 0.486854275637 84.3575194288 0.625845415619 129.724009784 0.625497402128 129.743726107 0.465906103019 -124.473392887 0.00141791180231 -179.11634488 0.488828703997 -95.8129218715 0.486854275637 84.3575194288 0.00141791180231 -179.11634488 0.72389046279 92.61040835
10.35 0.534846349058 -126.670570316 0.285368132635 112.73308337 0.627447344364 125.606111332 0.488686244197 -98.297655218 0.285368132635 112.73308337 0.537054663087 -126.694603416 0.627108004079 125.625461722 0.486695872711 81.8729115893 0.627447344364 125.606111332 0.627108004079 125.625461722 0.461566174513 -129.927910029 0.00142858221841 176.656787367 0.488686244197 -98.297655218 0.486695872711 81.8729115893 0.00142858221841 176.656787367 0.724093116594 90.4248492328
10.375 0.533102468868 -129.315446767 0.285342585773 109.501134089 0.629048439524 121.488228109 0.488548287564 -100.779404759 0.285342585773 109.501134089 0.53532271707 -129.340813369 0.628718110014 121.50720355 0.486541609384 79.3912492574 0.629048439524 121.488228109 0.628718110014 121.50720355 0.457175592548 -135.397602858 0.00143951846595 172.428871283 0.488548287564 -100.779404759 0.486541609384 79.3912492574 0.00143951846595 172.428871283 0.724289832125 88.2404198971
10.4 0.531361886046 -131.949415464 0.285288465141 106.26951011 0.630647252657 117.370086244 0.488414865525 -103.258230797 0.285288465141 106.26951011 0.533594030309 -131.976190773 0.630326281705 117.388677351 0.486391489973 76.9124703621 0.630647252657 117.370086244 0.630326281705 117.388677351 0.452736916805 -140.883895442 0.00145072679859 168.199638523 0.488414865525 -103.258230797 0.486391489973 76.9124703621 0.00145072679859 168.199638523 0.724480595339 86.0570590193
10.425 0.529627511826 -134.572334577 0.285203817461 103.03827041 0.632242241491 113.251415419 0.488286010498 -105.734193172 0.285203817461 103.03827041 0.531871511542 -134.600595704 0.631930987466 113.269612428 0.486245517723 74.4365133063 0.632242241491 113.251415419 0.631930987466 113.269612428 0.44825309764 -146.388246095 0.00146221372118 163.968824941 0.488286010498 -105.734193172 0.486245517723 74.4365133063 0.00146221372118 163.968824941 0.724665391979 83.8747054408
10.45 0.527902421478 -137.184074123 0.285086682466 99.8074918937 0.633831771271 109.131948885 0.488161755989 -108.207351292 0.285086682466 99.8074918937 0.530158234022 -137.213900003 0.633530603515 109.149741636 0.486103694811 71.9633169431 0.633831771271 109.131948885 0.633530603515 109.149741636 0.443727498105 -151.912147466 0.00147398601729 159.736170594 0.488161755989 -108.207351292 0.486103694811 71.9633169431 0.00147398601728 159.736170594 0.724844207504 81.693298147
10.475 0.526189853388 -139.784517826 0.284935095282 96.5772701539 0.635414116261 105.011423461 0.488042136701 -110.677764168 0.284935095282 96.5772701539 0.528457434686 -139.815989127 0.635123415483 105.028801391 0.485966022339 69.4928205522 0.635414116261 105.011423461 0.635123415483 105.028801391 0.439163917111 -157.457126286 0.00148605077912 155.501419728 0.488042136701 -110.677764168 0.485966022339 69.4928205522 0.00148605077912 155.501419728 0.725017027021 79.5127762466
10.5 0.524493207414 -142.373565108 0.284747089041 93.3477203278 0.636987461386 100.889579514 0.487927188634 -113.145490443 0.284747089041 93.3477203278 0.526772512621 -142.406764113 0.636707620072 100.906531639 0.48583250033 67.024963816 0.636987461386 100.889579514 0.636707620072 100.906531639 0.43456661366 -163.024742676 0.00149841544002 151.264320753 0.487927188634 -113.145490443 0.48583250033 67.024963816 0.00149841544002 151.264320753 0.725183835208 77.3330789514
10.525 0.52281604241 -144.951133193 0.284520697766 90.1189780453 0.638549904052 96.7661609247 0.487816949207 -115.610588425 0.284520697766 90.1189780453 0.525107026702 -144.986143675 0.638281326888 96.782675828 0.485703127716 64.5596867962 0.638549904052 96.7661609247 0.638281326888 96.782675828 0.429940332061 -168.616588923 0.00151108780975 147.024626199 0.487816949207 -115.610588425 0.485703127716 64.5596867962 0.00151108780975 147.024626199 0.725344616247 75.1541455558
10.55 0.521162072837 -147.517159342 0.284253959546 86.8912004825 0.640099456139 92.6409150238 0.48771145736 -118.07311612 0.284253959546 86.8912004825 0.52346469234 -147.554066417 0.639842560452 92.6569808442 0.485577902329 62.0969299111 0.640099456139 92.6409150238 0.639842560452 92.6569808442 0.425290327985 -174.234287606 0.00152407611289 142.782092653 0.48771145736 -118.07311612 0.485577902329 62.0969299111 0.00152407611289 142.782092653 0.725499353747 72.9759154168
10.575 0.519535164368 -150.071603202 0.283944920038 83.6645675275 0.641634046202 88.5135925149 0.487610753684 -120.533131264 0.283944920038 83.6645675275 0.521849377223 -150.110493164 0.641389262417 88.529196931 0.485456820889 59.6366339126 0.641634046202 88.5135925149 0.641389262417 88.529196931 0.420622395186 -179.879488935 0.00153738903077 138.536480678 0.487610753684 -120.533131264 0.485456820889 59.6366339126 0.00153738903077 138.536480678 0.72564803067 70.7983279341
10.6 0.517939328373 -152.614449268 0.283591636328 80.439283069 0.643151521869 84.3839473668 0.487514880539 -122.990691362 0.283591636328 80.439283069 0.520265095964 -152.65540941 0.642919293994 84.3990775837 0.485339878987 57.1787398631 0.643151521869 84.3839473668 0.642919293994 84.3990775837 0.415942892645 174.44613284 0.00155103574715 134.287554713 0.487514880539 -122.990691362 0.485339878987 57.1787398631 0.00155103574715 134.287554713 0.725790629255 68.6213225307
10.625 0.516378715203 -155.145709456 0.283192181178 77.2155764188 0.644649652483 80.2517366787 0.48742388219 -125.445853716 0.283192181178 77.2155764188 0.518716003549 -155.188827865 0.644430438611 80.2663794136 0.485227071063 54.7231891136 0.644649652483 80.2517366787 0.644430438611 80.2663794136 0.411258771846 168.740884111 0.00156502599831 130.035082945 0.48742388219 -125.445853716 0.485227071063 54.7231891136 0.00156502599831 130.035082945 0.725927130941 66.4448386325
10.65 0.51485760614 -157.665425762 0.282744647697 73.9937038781 0.646126131984 76.1167205135 0.487337804937 -127.898675462 0.282744647697 73.9937038781 0.517206387487 -157.710791109 0.645920404826 76.1308619811 0.485118390393 52.2699232804 0.646126131984 76.1167205135 0.645920404826 76.1308619811 0.4065776038 163.003057876 0.00157937012783 125.778837161 0.487337804937 -127.898675462 0.485118390393 52.2699232804 0.00157937012783 125.778837161 0.72605751629 64.2688156493
10.675 0.513380403943 -160.173673016 0.282247154476 70.7739504641 0.647578582051 71.9786616953 0.487256697263 -130.349213611 0.282247154476 70.7739504641 0.515740658543 -160.221374315 0.647386829502 71.9922875932 0.485013829056 49.8188842233 0.647578582051 71.9786616953 0.647386829502 71.9922875932 0.401907605356 157.230941187 0.00159407914672 121.518592569 0.487256697263 -130.349213611 0.485013829056 49.8188842233 0.00159407914672 121.518592568 0.726181764903 62.0931929553
10.7 0.511951621843 -162.670561685 0.281697851208 67.5566318085 0.649004555529 67.8373255644 0.487180609982 -132.797525081 0.281697851208 67.5566318085 0.51432333997 -162.720688049 0.648827281269 67.8504210577 0.484913377908 47.370014023 0.649004555529 67.8373255644 0.648827281269 67.8504210577 0.397257664246 151.422824273 0.00160916479952 117.254127584 0.487180609982 -132.797525081 0.484913377908 47.370014023 0.00160916479952 117.254127584 0.726299855339 59.9179098693
10.725 0.510575870934 -165.15624074 0.28109492485 64.3420962483 0.650401540153 63.6924796858 0.487109596404 -135.243666736 0.28109492485 64.3420962483 0.512959055126 -165.20888111 0.650239264288 63.7050293924 0.484817026549 44.9232549587 0.650401540153 63.6924796858 0.650239264288 63.7050293924 0.392637362182 145.577011596 0.00162463963712 112.985223586 0.487109596404 -135.243666736 0.484817026549 44.9232549587 0.00162463963712 112.985223586 0.726411765026 57.7429056359
10.75 0.509257845823 -167.63090053 0.280436606364 61.1307271255 0.65176696258 59.5438935042 0.487043712501 -137.687695426 0.280436606364 61.1307271255 0.511652513389 -167.686143404 0.651620222327 59.5558814788 0.484724763279 42.4785494856 0.65176696258 59.5438935042 0.651620222327 59.5558814788 0.388056995216 139.69183504 0.00164051709699 108.711664632 0.487043712501 -137.687695426 0.484724763279 42.4785494856 0.00164051709699 108.711664632 0.726517470177 55.5681194053
10.775 0.508002308483 -170.094775662 0.279721178074 57.9229453192 0.653098192752 55.3913379366 0.486983017091 -140.12966803 0.279721178074 57.9229453192 0.510408494289 -170.152708801 0.652967543183 55.4027476549 0.484636575054 40.0358402121 0.653098192752 55.3913379366 0.652967543183 55.4027476549 0.383527590435 133.76566949 0.00165681159188 104.433237122 0.486983017091 -140.12966803 0.484636575054 40.0358402121 0.00165681159188 104.433237122 0.726616945695 53.3934902146
10.8 0.506814070237 -172.548147839 0.278946981711 54.7192120352 0.654392548595 51.2345848954 0.486927572029 -142.569641493 0.278946981711 54.7192120352 0.509231829788 -172.60885798 0.654278563438 51.2453992384 0.484552447425 37.5950698777 0.654392548595 51.2345848954 0.654278563438 51.2453992384 0.379060917912 127.796950994 0.00167353860797 100.14972942 0.486927572029 -142.569641493 0.484552447425 37.5950698777 0.00167353860797 100.14972942 0.726710165078 51.2189569683
10.825 0.505697971812 -174.991348637 0.278112427189 51.520031882 0.655647301068 47.0734067321 0.486877442422 -145.007672874 0.278112427189 51.520031882 0.508127384655 -175.054921188 0.655550573575 47.0836079696 0.484472364475 35.1561813294 0.655647301068 47.0734067321 0.655550573575 47.0836079696 0.374669496703 121.78419772 0.00169071481364 95.8609314112 0.486877442422 -145.007672874 0.484472364475 35.1561813294 0.00169071481363 95.8609314108 0.726797100319 49.0444584182
10.85 0.504658861463 -177.424762168 0.277216002202 48.3259562659 0.656859679571 42.9075755902 0.486832696851 -147.443819392 0.277216002202 48.3259562659 0.507100034929 -177.491280916 0.656780823468 42.9171453641 0.484396308733 32.7191174994 0.656859679571 42.9075755902 0.656780823468 42.9171453641 0.370366593512 115.726033847 0.00170835818022 91.5666339955 0.486832696851 -147.443819392 0.484396308733 32.7191174994 0.00170835818022 91.5666339952 0.726877721801 46.8699331446
10.875 0.503701571155 -179.84882761 0.276256282715 45.1375871438 0.658026877704 38.7368626563 0.486793407614 -149.878138469 0.276256282715 45.1375871438 0.506154644469 -179.918374428 0.657966528228 38.7457819642 0.484324261084 30.2838213818 0.658026877704 38.7368626563 0.657966528228 38.7457819642 0.366166212518 109.621216471 0.00172648811635 87.2666285124 0.486793407614 -149.878138469 0.484324261084 30.2838213818 0.00172648811635 87.2666285122 0.726951998187 44.695319536
10.9 0.502830890878 177.735958452 0.275231944462 41.9555811773 0.659146059389 34.5610372962 0.486759650994 -152.310687785 0.275231944462 41.9555811773 0.505296039652 177.663303882 0.65910487443 34.5692864742 0.484256200652 27.8502360099 0.659146059389 34.5610372962 0.65910487443 34.5692864742 0.362083074742 103.468665529 0.00174512561753 82.9607060774 0.486759650994 -152.310687785 0.484256200652 27.8502360099 0.00174512561752 82.9607060774 0.727019896309 42.5205557699
10.925 0.502051541159 175.329039898 0.274141775589 38.780654338 0.66021436534 30.3798660614 0.486731507551 -154.741525329 0.274141775589 38.780654338 0.504528982296 175.253200346 0.660193026694 30.3874247669 0.484192104671 25.4183044331 0.66021436534 30.3798660614 0.660193026694 30.3874247669 0.358132585234 97.2674965977 0.00176429343297 78.6486568299 0.486731507551 -154.741525329 0.484192104671 25.4183044331 0.00176429343297 78.64865683 0.727081381038 40.3455797922
10.95 0.501368143941 172.929799201 0.272984690596 35.6135870206 0.661228919866 26.1931115509 0.486709062434 -157.170709451 0.272984690596 35.6135870206 0.503858140962 172.850700122 0.661228134626 26.1999587448 0.484131948327 22.9879696944 0.661228919866 26.1931115509 0.661228134626 26.1999587448 0.354330786329 91.0170562989 0.00178401625208 74.3302690744 0.486709062434 -157.170709451 0.484131948327 22.9879696944 0.00178401625208 74.3302690747 0.727136415163 38.1703292977
10.975 0.500785192 170.537555831 0.271759745782 32.4552297295 0.662186837989 22.0005311107 0.486692405735 -159.598298926 0.271759745782 32.4552297295 0.503288060823 170.455125568 0.662207340082 22.00664504 0.484075704575 20.5591748086 0.662186837989 22.0005311107 0.662207340082 22.00664504 0.35069429524 84.7169598363 0.00180432091298 70.0053283066 0.486692405735 -159.598298926 0.484075704575 20.5591748086 0.00180432091298 70.0053283072 0.72718495925 35.9947417094
11 0.500307017129 168.151564961 0.270466156466 29.3065094114 0.663085232846 17.8018753537 0.486681632871 -162.024353014 0.270466156466 29.3065094114 0.502823132313 168.065734901 0.663127784744 17.8072335336 0.484023343937 18.1318627406 0.663085232846 17.8018753537 0.663127784744 17.8072335336 0.347240224401 78.3671299819 0.00182523663636 65.6736161073 0.486681632871 -162.024353014 0.484023343937 18.1318627406 0.00182523663636 65.6736161082 0.727226971498 33.8187541584
11.025 0.499937757375 165.771016472 0.269103316285 26.1684365175 0.66392122334 13.5968864792 0.48667684501 -164.448931524 0.269103316285 26.1684365175 0.502467558854 165.68172116 0.663986617963 13.6014656748 0.483974834253 15.7059763854 0.66392122334 13.5968864792 0.663986617963 13.6014656748 0.343986083168 71.9678365902 0.00184679528777 61.3349088893 0.48667684501 -164.448931524 0.483974834253 15.7059763854 0.00184679528777 61.3349088905 0.727262407586 31.6423034625
11.05 0.499681323595 163.395034254 0.267670818997 23.0421128858 0.664691941984 9.38529637153 0.48667814954 -166.872094887 0.267670818997 23.0421128858 0.502225323904 163.30221144 0.664781004825 9.38907257893 0.483930140414 13.2814585492 0.664691941984 9.38529637153 0.664781004825 9.38907257893 0.340949659878 65.5197354582 0.00186903167257 56.9889764794 0.48667814954 -166.872094887 0.483930140414 13.2814585492 0.00186903167258 56.9889764808 0.727291220506 29.4653261061
11.075 0.49954136561 161.022675761 0.26616848328 19.9287405469 0.665394542893 5.16682445408 0.486685660594 -169.293904231 0.26616848328 19.9287405469 0.502100157642 160.926266388 0.66550813439 5.16977288212 0.483889224049 10.8582519322 0.665394542893 5.16682445408 0.66550813439 5.16977288212 0.338148883761 59.0239051002 0.00189198386799 52.6355805154 0.486685660594 -169.293904231 0.483889224049 10.8582519322 0.001891983868 52.6355805169 0.727313360388 27.2877582185
11.1 0.499521238169 158.652931768 0.264596381173 16.8296315616 0.666026209836 0.941175275033 0.486699499633 -171.714421459 0.264596381173 16.8296315616 0.502095503468 158.552879886 0.666165228029 0.943270325997 0.483852043176 8.43629911351 0.666026209836 0.941175275035 0.666165228029 0.943270325996 0.33560166685 52.4818797772 0.00191569359756 48.274472636 0.486699499633 -171.714421459 0.483852043176 8.43629911351 0.00191569359757 48.2744726375 0.727328774315 25.1095355522
11.125 0.499623966832 156.284726242 0.262954870963 13.7462190093 0.66658416429 -3.29196420185 0.486719796096 -174.133709339 0.262954870963 13.7462190093 0.502214484459 156.180978849 0.666749547791 -3.29074895162 0.483818551815 6.01554253935 0.66658416429 -3.29196420185 0.666749547791 -3.29074895162 0.333325726885 45.8956769415 0.00194020665411 43.9053924375 0.486719796096 -174.133709339 0.483818551815 6.01554253935 0.00194020665412 43.905392439 0.727337406117 22.9305934617
11.15 0.499852213672 153.916916214 0.261244635505 10.6800692467 0.667065673376 -7.53292762947 0.486746688124 -176.551831595 0.261244635505 10.6800692467 0.502459869696 153.809423008 0.667258404703 -7.53261944935 0.483788699558 3.59592451381 0.667065673376 -7.53292762947 0.667258404703 -7.53261944935 0.331338393081 39.2678171629 0.00196557337847 39.5280651699 0.486746688124 -176.551831595 0.483788699558 3.59592451381 0.00196557337848 39.528065171 0.727339196161 20.7508668809
11.175 0.500208242438 151.548291498 0.259466727221 7.63289555785 0.667468057601 -11.7820726625 0.486780323379 -178.968853007 0.259466727221 7.63289555785 0.502834040102 151.437004559 0.667689166916 -11.7826996878 0.483762431095 1.17738719381 0.667468057601 -11.7820726625 0.667689166916 -11.7826996878 0.329656397742 32.6013346193 0.00199184920213 35.1421991382 0.486780323379 -178.968853007 0.483762431095 1.17738719381 0.00199184920214 35.1421991387 0.727334081114 18.570290301
11.2 0.500693882398 149.1775741 0.257622621325 4.60657330408 0.667788698265 -16.0397847278 0.486820859956 178.615160479 0.257622621325 4.60657330408 0.50333895309 149.062447486 0.668039267563 -16.0413759802 0.483739685701 -1.2401274118 0.667788698265 -16.0397847278 0.668039267563 -16.0413759802 0.328295657689 25.8997763905 0.00201909526374 30.7474827726 0.486820859956 178.615160479 0.483739685701 -1.2401274118 0.00201909526374 30.7474827723 0.727321993701 16.3887977478
11.225 0.50131048957 146.803417116 0.255714279176 1.60315666038 0.668025044417 -20.3064812137 0.486868467408 176.200141635 0.255714279176 1.60315666038 0.503976104742 146.684406384 0.668306212234 -20.3090666226 0.483720396674 -3.65667743813 0.668025044417 -20.3064812137 0.668306212234 -20.3090666226 0.327271050529 19.1671891102 0.00204737911094 26.3435813243 0.486868467408 176.200141635 0.483720396674 -3.65667743813 0.00204737911093 26.3435813227 0.727302862436 14.2063227584
11.25 0.502058903371 144.424402931 0.253744224138 -1.37510302005 0.668174619221 -24.5826161161 0.486923327904 173.786021828 0.253744224138 -1.37510302005 0.504746487648 144.301464579 0.668487585906 -24.5862265403 0.483704490734 -6.07232115462 0.668174619221 -24.5826161161 0.668487585906 -24.5862265403 0.326596191669 12.4080920089 0.002076775501 21.9301331354 0.486923327904 173.786021828 0.483704490734 -6.07232115462 0.00207677550098 21.9301331323 0.727276611337 12.0227983582
11.275 0.502939395911 142.039040527 0.251715632844 -4.32573724359 0.668235025574 -28.8686851801 0.486985637531 171.372730877 0.251715632843 -4.32573724359 0.505650541715 141.912131362 0.668581059209 -28.87335243 0.48369188738 -8.48711694936 0.668235025574 -28.8686851801 0.66858105921 -28.87335243 0.326283218608 5.62743600832 0.00210736731656 17.5067454269 0.486985637531 171.372730877 0.48369188738 -8.48711694936 0.00210736731653 17.5067454219 0.72724315962 9.83815703685
11.3 0.503951610202 139.645761762 0.249632445443 -7.24603896378 0.668203950815 -33.1652315796 0.487055607758 168.96019691 0.249632445443 -7.24603896378 0.506688094335 139.514838185 0.668584393862 -33.1709884404 0.48368249821 -10.9011233068 0.668203950815 -33.1652315796 0.668584393862 -33.1709884404 0.326342589371 -1.16945072731 0.0021392466155 13.072989532 0.487055607758 168.96019691 0.48368249821 -10.9011233068 0.00213924661545 13.0729895247 0.727202421369 7.65233072471
11.325 0.50509448251 137.242916538 0.247499499204 -10.1330400444 0.668079170371 -37.4728521817 0.4871334671 166.548346203 0.247499499204 -10.1330400444 0.507858285266 137.107933716 0.66849544711 -37.4797324365 0.483676226193 -13.314398778 0.668079170371 -37.4728521817 0.66849544711 -37.4797324365 0.3267829019 -7.97692957879 0.00217251583797 8.62839549569 0.487133467099 166.548346203 0.483676226193 -13.314398778 0.0021725158379 8.62839548604 0.727154305186 5.46525076826
11.35 0.50636614296 134.828766879 0.245322690762 -12.9834881909 0.667858550141 -41.792204444 0.487219462987 164.137103002 0.245322690762 -12.9834881909 0.509159470498 134.689677774 0.668312175019 -41.8002428987 0.483672964919 -15.727001944 0.667858550142 -41.792204444 0.66831217502 -41.8002428987 0.32761074068 -14.7891285954 0.00220728919817 4.17244594041 0.487219462986 164.137103002 0.483672964919 -15.727001944 0.00220728919808 4.17244592834 0.727098713807 3.27684790569
11.375 0.507763787433 132.40148011 0.243109173399 -15.7938243324 0.667540047451 -46.1240140004 0.487313863888 161.726389341 0.243109173398 -15.7938243324 0.510589098231 132.258234278 0.668032634434 -46.1332465082 0.483672597806 -18.1389913697 0.667540047451 -46.1240140005 0.668032634434 -46.1332465082 0.328830555993 -21.6000272504 0.00224369429406 -0.29543092102 0.487313863888 161.726389341 0.483672597806 -18.1389913697 0.00224369429395 -0.295430935243 0.727035543698 1.08705224205
11.4 0.509283512815 129.95912152 0.240867596973 -18.5601620018 0.667121710383 -50.4690829927 0.487416961713 159.316124835 0.240867596973 -18.5601620018 0.512143549148 129.811663562 0.667654983427 -50.4795464795 0.483674997285 -20.5504255507 0.667121710383 -50.4690829927 0.667654983427 -50.4795464795 0.330444579839 -28.4035455796 0.00228187397542 -4.77586926898 0.487416961713 159.316124835 0.483674997285 -20.5504255506 0.00228187397529 -4.77586928469 0.726964684618 -1.10420677575
11.425 0.510920107026 127.499647134 0.238608399459 -21.2782710574 0.666601675295 -54.8282992122 0.487529074533 156.906226458 0.238608399459 -21.2782710573 0.513817932368 127.347914616 0.667177480068 -54.8400317028 0.483680023955 -22.9613628499 0.666601675295 -54.8282992122 0.667177480069 -54.8400317027 0.332452781007 -35.1936341389 0.00232198851926 -9.26957483474 0.487529074533 156.906226458 0.483680023955 -22.9613628499 0.00232198851912 -9.2695748507 0.726886019152 -3.29700038416
11.45 0.512666785013 125.020897559 0.236344160398 -23.9435692088 0.665978162335 -59.2026461222 0.487650549673 154.496608308 0.236344160397 -23.9435692088 0.515605828133 124.864818137 0.666598479334 -59.2156867654 0.483687525719 -25.3718614259 0.665978162335 -59.2026461222 0.666598479334 -59.2156867654 0.334852860003 -41.9643611582 0.00236421817295 -13.7773354504 0.487650549673 154.496608308 0.483687525719 -25.3718614259 0.00236421817283 -13.7773354646 0.726799422207 -5.49140052833
11.475 0.514514862489 122.520594193 0.234090027852 -26.5511263444 0.665249468757 -63.5932138368 0.48778176722 152.087181348 0.234090027852 -26.5511263444 0.517498968568 122.36008159 0.665916427972 -63.607602931 0.483697336903 -27.7819791514 0.665249468757 -63.5932138368 0.665916427972 -63.607602931 0.337640282774 -48.7099934807 0.00240876613888 -18.3000332626 0.48778176722 152.087181348 0.483697336903 -27.7819791514 0.00240876613879 -18.300033272 0.726704760478 -7.68747988759
11.5 0.516453360666 119.996339484 0.231864231273 -29.0956887258 0.664413959856 -68.0012111411 0.487923144011 149.677853129 0.231864231273 -29.0956887258 0.519486849069 119.831287866 0.665129857165 -68.0169901583 0.483709277366 -30.1917735217 0.664413959856 -68.0012111411 0.665129857165 -68.0169901583 0.34080835054 -55.4250683343 0.00245586209228 -22.8386589489 0.487923144011 149.677853129 0.483709277366 -30.1917735217 0.00245586209228 -22.8386589489 0.726601891871 -9.88531190089
