! Generated from PyAEDT SolutionData; AEDT ExportNetworkData workaround
# GHz S MA R 50
9 0.521318556178 30.5985030661 0.269989160063 -36.1798623177 0.522216531783 -0.557985812435 0.618565041338 42.5518484143 0.269989160063 -36.1798623177 0.521265717103 30.7659658971 0.521575925976 -0.482501456992 0.61914978726 -137.372247981 0.522216531783 -0.557985812435 0.521575925976 -0.482501456991 0.674720980988 169.867258378 0.00021257963537 77.0696966511 0.618565041338 42.5518484143 0.61914978726 -137.372247981 0.000212579635372 77.0696966521 0.483767284322 -156.380162744
9.025 0.519206647641 27.5398627232 0.269434598373 -39.8366936882 0.525022634396 -5.1676060819 0.618207753273 39.6953731429 0.269434598373 -39.8366936882 0.519156415388 27.7091226567 0.524374305145 -5.09164294252 0.618799919114 -140.228106451 0.525022634396 -5.16760608189 0.524374305145 -5.09164294252 0.670361207749 163.907726627 0.00021280692166 72.8634412026 0.618207753273 39.6953731429 0.618799919114 -140.228106451 0.000212806921641 72.8634412035 0.484670802551 -159.051323864
9.05 0.517125186287 24.492377991 0.268911180825 -43.4813274567 0.5277645801 -9.76373396395 0.61784548323 36.8465076718 0.268911180825 -43.4813274567 0.517077583133 24.6634608696 0.527108486809 -9.68728264478 0.618445120573 -143.076349411 0.5277645801 -9.76373396395 0.527108486809 -9.68728264478 0.666050207864 157.964638854 0.0002130270997 68.6724282853 0.61784548323 36.8465076718 0.618445120573 -143.076349411 0.000213027099672 68.6724282858 0.485584744538 -161.716956684
9.075 0.515073117488 21.4556744585 0.268419577402 -47.1141037152 0.53044448206 -14.3464404444 0.617478274199 34.0051126133 0.268419577402 -47.1141037152 0.515028167827 21.628607613 0.529780579631 -14.2694913577 0.618085436995 -145.917115818 0.53044448206 -14.3464404444 0.529780579631 -14.2694913577 0.661787483217 152.038403171 0.000213240399749 64.4964984947 0.617478274199 34.0051126133 0.618085436995 -145.917115818 0.000213240399722 64.4964984949 0.486508916782 -164.377162486
9.1 0.513049223912 18.4293926056 0.267960388338 -50.7353765551 0.533064546165 -18.9158126599 0.617106166335 31.1710518244 0.267960388338 -50.7353765551 0.513006954601 18.6042048894 0.532392784746 -18.8383560186 0.617720911164 -148.750541383 0.533064546165 -18.9158126599 0.532392784746 -18.8383560186 0.657572152002 146.129370861 0.000213447008098 60.335485029 0.617106166335 31.1710518244 0.617720911164 -148.750541383 0.000213447008077 60.3354850289 0.487443133638 -167.032040228
9.125 0.511052144821 15.4131887603 0.267534135812 -54.3455113304 0.535627056554 -23.4719535242 0.616729197032 28.3441923024 0.267534135812 -54.3455113304 0.511012585502 15.5899105817 0.534947381306 -23.3939793335 0.617351583359 -151.576758675 0.535627056554 -23.4719535242 0.534947381306 -23.3939793335 0.653402984674 140.237839689 0.000213647062018 56.1892161526 0.616729197032 28.3441923024 0.617351583359 -151.576758675 0.000213647062006 56.1892161524 0.488387217027 -169.681686625
9.15 0.509080394264 12.4067359161 0.267141257993 -57.9448821297 0.538134361667 -28.0149813311 0.616347400989 25.5244040844 0.267141257993 -57.9448821297 0.509043577667 12.5853992684 0.537446712545 -27.9364793799 0.616977491426 -154.395897223 0.538134361667 -28.0149813311 0.537446712545 -27.9364793799 0.649278437943 134.364056734 0.000213840645396 52.0575174884 0.616347400989 25.5244040844 0.616977491426 -154.395897223 0.000213840645395 52.0575174883 0.489340996166 -172.326196219
9.175 0.507132378228 9.4097244179 0.266782105075 -61.5338694429 0.540588860827 -32.5450293363 0.615960810289 22.7115601493 0.266782105075 -61.5338694429 0.507098340452 9.59036290874 0.539893172376 -32.4659891883 0.616598670847 -157.208083615 0.540588860827 -32.5450293363 0.539893172376 -32.4659891883 0.64519668673 128.508220788 0.000214027784991 47.940214148 0.615960810289 22.7115601493 0.616598670847 -157.208083615 0.000214027784999 47.9402141481 0.490304307302 -174.965661459
9.2 0.505206410786 6.42186252949 0.266456936999 -65.1128580109 0.542992991399 -37.0622453176 0.615569454459 19.9055363225 0.266456936999 -65.1128580109 0.505175191564 6.60451140855 0.542289192565 -36.9826563019 0.616215154808 -160.013441593 0.542992991399 -37.0622453176 0.542289192565 -36.9826563019 0.641155654063 122.670484374 0.00021420844727 43.8371327123 0.615569454459 19.9055363225 0.616215154808 -160.013441593 0.000214208447288 43.8371327127 0.491276993469 -177.60017277
9.225 0.503300729292 3.44287689116 0.266165922571 -68.6822348456 0.545349216547 -41.5667911161 0.615173360548 17.1062111848 0.266165922571 -68.6822348456 0.503272372232 3.62757307658 0.544637230491 -41.4866423176 0.61582697426 -162.812092149 0.545349216547 -41.5667911161 0.544637230491 -41.4866423176 0.637153038969 116.850955426 0.000214382535777 39.7481030761 0.615173360548 17.1062111848 0.61582697426 -162.812092149 0.000214382535801 39.7481030769 0.492258904248 179.770181379
9.25 0.501413508665 0.472512876727 0.265909139743 -72.242387412 0.547660013603 -46.0588421587 0.614772553184 14.3134659827 0.265909139743 -72.242387412 0.501388061491 0.659294980851 0.546939757534 -45.9781224081 0.61543415799 -165.604153609 0.547660013603 -46.0588421587 0.546939757534 -45.9781224081 0.633186342436 111.049698691 0.000214549888955 35.6729601687 0.614772553184 14.3134659827 0.61543415799 -165.604153609 0.000214549888984 35.6729601699 0.493249895544 177.145314404
9.275 0.499542874835 -2.48946514142 0.265686576833 -75.793701962 0.549927863057 -50.5385869646 0.614367054644 11.5271845432 0.265686576833 -75.793701962 0.499520389603 -2.30055678709 0.549199248067 -50.4572848284 0.615036732676 -168.389741725 0.549927863057 -50.5385869647 0.549199248067 -50.4572848284 0.629252891545 105.266736902 0.000214710278403 31.6115455652 0.614367054644 11.5271845432 0.615036732676 -168.389741725 0.000214710278436 31.6115455669 0.494249829366 174.525141541
9.3 0.497686917377 -5.44327361157 0.265498134509 -79.3365620115 0.552155238179 -55.0062266374 0.613956884914 8.7472531904 0.265498134509 -79.3365620115 0.497667450682 -5.25219693192 0.55141816909 -54.9243304075 0.614634722949 -171.168969756 0.552155238179 -55.0062266375 0.55141816909 -54.9243304075 0.625349861903 99.502051767 0.000214863407487 27.5637090019 0.613956884914 8.7472531904 0.614634722949 -171.168969756 0.000214863407521 27.5637090041 0.495258573626 171.909579786
9.325 0.495843701397 -8.38910969905 0.265343628368 -82.8713469524 0.554344595279 -59.4619743452 0.613542061747 5.97356066571 0.265343628368 -82.8713469524 0.495827314578 -8.19582085122 0.55359897049 -59.3794720281 0.614228151453 -173.941948546 0.554344595279 -59.4619743452 0.55359897049 -59.3794720281 0.621474298511 93.7555848294 0.000215008910262 23.5293098096 0.613542061747 5.97356066572 0.614228151453 -173.941948546 0.000215008910296 23.5293098121 0.496276001937 169.298547829
9.35 0.494011278713 -11.327151253 0.265222791975 -86.3984307926 0.556498364587 -63.9060547905 0.613122600722 3.20599805078 0.265222791975 -86.3984307926 0.493998038036 -11.1316046024 0.555744075934 -63.8229340971 0.613817038894 -176.708786606 0.556498364587 -63.9060547905 0.555744075934 -63.8229340971 0.617623135186 88.0272382288 0.000215146350664 19.5082182792 0.613122600722 3.20599805078 0.613817038894 -176.708786606 0.000215146350696 19.5082182819 0.497301993427 166.691965994
9.375 0.492187698368 -14.2575568374 0.265135280257 -89.918181015 0.558618941763 -68.3387036736 0.612698515298 0.444458692931 0.265135280257 -89.918181015 0.492177675217 -14.0597049339 0.557855874375 -68.2549520074 0.6134014041 -179.469590185 0.558618941763 -68.3387036736 0.557855874375 -68.2549520074 0.613793212692 82.3168754093 0.000215275221914 15.5003169732 0.612698515298 0.444458692935 0.6134014041 -179.469590185 0.000215275221944 15.5003169761 0.498336432551 164.089756187
9.4 0.490371016526 -17.1804658209 0.265080673144 -93.4309575496 0.560708680013 -72.7601671503 0.612269816868 -2.31116186642 0.265080673144 -93.4309575496 0.490364287577 -16.9802593742 0.559936712173 -72.6757715966 0.612981264067 177.775536655 0.560708680013 -72.7601671503 0.559936712173 -72.6757715966 0.609981295677 76.6243218016 0.000215394946092 11.5055019977 0.612269816868 -2.31116186641 0.612981264067 177.775536655 0.000215394946118 11.5055020005 0.499379208922 161.491841831
9.425 0.48855930579 -20.0959985194 0.265058479378 -96.9371118512 0.562769882811 -77.1707012872 0.611836514805 -5.0609659609 0.265058479378 -96.9371118512 0.488555953187 -19.8933863749 0.56198888582 -77.0856486013 0.612556634011 175.026491974 0.562769882811 -77.1707012872 0.56198888582 -77.0856486013 0.606184088557 70.9493655058 0.000215504873843 7.52368424672 0.611836514805 -5.06096596089 0.612556634011 175.026491974 0.000215504873865 7.52368424952 0.500430217134 158.898147818
9.45 0.486750663966 -23.0042563881 0.265068140431 -100.436986076 0.564804797195 -81.5705715176 0.611398616516 -7.80505386575 0.265068140431 -100.436986076 0.486750775489 -22.7991855012 0.564014635233 -81.4848481132 0.612127527416 172.283175883 0.564804797195 -81.5705715176 0.564014635233 -81.4848481132 0.602398250442 65.2917579956 0.00021560428417 3.55479063549 0.611398616516 -7.80505386574 0.612127527416 172.283175883 0.000215604284188 3.5547906381 0.501489356607 156.308600455
9.475 0.484943222319 -25.9053222564 0.26510903448 -103.930912352 0.566815607628 -85.9600520995 0.610956127481 -10.543523862 0.26510903448 -103.930912352 0.484946891558 -25.697737667 0.566016137617 -85.8736440361 0.611693956077 169.545490484 0.566815607628 -85.9600520995 0.566016137617 -85.8736440361 0.598620409191 59.6512148601 0.000215692384286 -0.401234666586 0.610956127481 -10.5435238619 0.611693956077 169.545490484 0.000215692384301 -0.401234664244 0.502556531422 153.723127411
9.5 0.483135153351 -28.7992606038 0.265180480384 -107.419212133 0.56880443041 -90.3394255784 0.610509051305 -13.2764722981 0.265180480384 -107.419212133 0.48314247987 -28.589105409 0.567995501872 -90.2523185491 0.611255930147 166.813339803 0.56880443041 -90.3394255784 0.567995501872 -90.2523185491 0.594847174701 54.0274165926 0.000215768309485 -4.34442898719 0.610509051305 -13.2764722981 0.611255930147 166.813339803 0.000215768309496 -4.34442898518 0.503631650169 151.141657669
9.525 0.481324678122 -31.6861178711 0.265281741648 -110.902195635 0.570773308597 -94.708982258 0.610057389751 -16.0039936498 0.265281741648 -110.902195635 0.481335767626 -31.4733331971 0.569954763509 -94.6211615763 0.610813458181 164.086629738 0.570773308597 -94.708982258 0.569954763509 -94.6211615763 0.591075151481 48.4200094324 0.000215831123003 -8.27480987375 0.610057389751 -16.0039936498 0.610813458181 164.086629738 0.000215831123011 -8.27480987213 0.504714625804 148.564121479
9.55 0.479510073149 -34.5659228046 0.265412030339 -114.380161351 0.572724207428 -99.0690196789 0.609601142786 -18.7261805773 0.265412030339 -114.380161351 0.479525037658 -34.3504477774 0.571895880076 -98.9804702657 0.610366547172 161.365267994 0.572724207428 -99.0690196789 0.571895880076 -98.9804702657 0.587300950594 42.8286062629 0.000215879815848 -12.1923737728 0.609601142786 -18.7261805773 0.610366547172 161.365267994 0.000215879815854 -12.1923737716 0.505805375494 145.990450309
9.575 0.477689676906 -37.4386868308 0.265570510935 -117.853395624 0.574659010219 -103.419842111 0.609140308618 -21.443123981 0.265570510935 -117.853395624 0.477708634921 -37.2204585445 0.573820727042 -103.33054848 0.609915202601 158.649164032 0.574659010219 -103.419842111 0.573820727042 -103.33054848 0.583521201011 37.2527875625 0.000215913306571 -16.0970946511 0.609140308618 -21.443123981 0.609915202601 158.649164032 0.000215913306574 -16.0970946503 0.506903820485 143.420576805
9.6 0.475861895945 -40.3044044564 0.265756304113 -121.322172299 0.576579514708 -107.761760056 0.608674883733 -24.1549130543 0.265756304113 -121.322172299 0.475884972627 -40.0833579408 0.575731094137 -107.671706301 0.609459428469 155.938229016 0.576579514708 -107.761760056 0.575731094137 -107.671706301 0.579732560424 31.6921024052 0.000215930440952 -19.9889225432 0.608674883733 -24.1549130543 0.609459428469 155.938229016 0.000215930440953 -19.9889225428 0.508009885963 140.854434743
9.625 0.474025210667 -43.1630536954 0.26596849044 -124.786752416 0.578487429819 -112.095089771 0.608204862926 -26.8616353361 0.26596849044 -124.786752416 0.474052538015 -42.9391218804 0.577628682107 -112.004259548 0.608999227341 153.232375761 0.578487429819 -112.095089771 0.577628682107 -112.004259548 0.575931725574 26.1460695033 0.000215929991597 -23.8677820081 0.608204862926 -26.8616353361 0.608999227341 153.232375761 0.000215929991598 -23.8677820081 0.509123500917 138.291958989
9.65 0.472178180756 -46.0145965168 0.266206113999 -128.247383973 0.580384372829 -116.420152801 0.607730239341 -29.5633767597 0.266206113999 -128.247383973 0.472209897792 -45.7877101952 0.579515099873 -116.328529316 0.60853460038 150.531518681 0.580384372829 -116.420152801 0.579515099873 -116.328529316 0.572115442109 20.6141782839 0.000215910657422 -27.7335704789 0.607730239341 -29.5633767597 0.60853460038 150.531518681 0.000215910657422 -27.7335704792 0.51024459801 135.73308546
9.675 0.470319450308 -48.8589793156 0.266468185924 -131.704301726 0.582271866901 -120.737275539 0.6072510045 -32.2602217014 0.266468185924 -131.704301726 0.470355703265 -48.6290671032 0.581391862054 -120.64484153 0.608065547391 147.835573748 0.582271866901 -120.737275539 0.581391862054 -120.64484153 0.568280514029 15.0958899879 0.000215871063006 -31.5861564841 0.6072510045 -32.2602217014 0.608065547391 147.835573748 0.000215871063005 -31.5861564846 0.511373113451 133.177751084
9.7 0.468447752651 -51.6961334035 0.266753687865 -135.157727037 0.584151338971 -125.046788801 0.606767148333 -34.9522530273 0.266753687865 -135.157727037 0.468488695172 -51.4631216957 0.583260386837 -124.953526519 0.607592066857 145.144458436 0.584151338971 -125.046788801 0.583260386837 -124.953526519 0.564423812722 9.5906387827 0.00021580975782 -35.425377721 0.606767148333 -34.9522530273 0.607592066857 145.144458436 0.000215809757819 -35.4253777217 0.512508986867 130.625893762
9.725 0.466561914904 -54.5259755199 0.267061575383 -138.607867759 0.58602411796 -129.34902742 0.606278659209 -37.6395521376 0.267061575383 -138.607867759 0.466607708249 -54.2897884459 0.585121994182 -129.254918615 0.607114155975 142.458091687 0.58602411796 -129.34902742 0.585121994182 -129.254918615 0.560542285643 4.09783287582 0.000215725215318 -39.2510389571 0.606278659209 -37.6395521376 0.607114155975 142.458091687 0.000215725215318 -39.251038958 0.513652161184 128.077452332
9.75 0.464660862266 -57.3484083629 0.267390781288 -142.054918156 0.587891433285 -133.644329872 0.605785523966 -40.322199011 0.267390781288 -142.054918156 0.464711675523 -57.1089677361 0.586977904314 -133.549355773 0.606631810694 139.776393859 0.587891433285 -133.644329872 0.586977904314 -133.549355773 0.556632964652 -1.38314438091 0.000215615831885 -43.0629097334 0.605785523966 -40.322199011 0.606631810694 139.776393859 0.000215615831885 -43.0629097344 0.514802582499 125.532366536
9.775 0.462743622059 -60.1633211423 0.267740218936 -145.499058853 0.589754413652 -137.933037919 0.605287727936 -43.0002722463 0.267740218936 -145.499058853 0.462799632373 -59.9205464061 0.588829236498 -137.837179212 0.606145025758 137.099286693 0.589754413652 -137.933037919 0.588829236498 -137.837179212 0.552692974036 -6.85293340684 0.000215479925648 -46.8607218403 0.605287727936 -43.0002722463 0.606145025758 137.099286693 0.000215479925648 -46.8607218413 0.515960199966 122.990576983
9.8 0.460809327546 -62.9705901534 0.268108785483 -148.940456808 0.591614086116 -142.215496276 0.604785254972 -45.6738491038 0.268108785483 -148.940456808 0.460870720349 -62.7243983238 0.590677008084 -142.118733087 0.605653794739 134.426693263 0.591614086116 -142.215496276 0.590677008084 -142.118733087 0.548719538254 -12.3121973375 0.000215315735158 -50.644166532 0.604785254972 -45.6738491038 0.605653794739 134.426693263 0.000215315735158 -50.644166533 0.517124965675 120.452025119
9.825 0.458857221522 -65.7700793768 0.268495365136 -152.379265311 0.593471375373 -146.49205231 0.604278087477 -48.3430055449 0.268495365136 -152.379265311 0.458924190783 -65.5203849796 0.592522133775 -146.394364179 0.60515811008 131.758537945 0.593471375373 -146.49205231 0.592522133775 -146.394364179 0.544709989422 -17.7616210076 0.000215121417946 -54.4128914428 0.604278087477 -48.3430055449 0.60515811008 131.758537945 0.000215121417947 -54.4128914438 0.518296834536 117.916653195
9.85 0.456886659698 -68.5616411044 0.268898832394 -155.815623989 0.595327103283 -150.763055761 0.60376620642 -51.0078162707 0.268898832394 -155.815623989 0.456959408178 -68.3083561072 0.59436542513 -150.664421622 0.604657963133 129.094746377 0.595327103283 -150.763055761 0.59436542513 -150.664421622 0.540661774586 -23.2019099783 0.000214895048984 -58.1664971604 0.60376620642 -51.0078162707 0.604657963133 129.094746377 0.000214895048984 -58.1664971613 0.519475764166 115.384404237
9.875 0.45489711388 -71.345116597 0.269318055318 -159.249658835 0.597181988604 -155.028858498 0.603249591367 -53.6683547598 0.269318055318 -159.249658835 0.454975853408 -71.0881503356 0.596207590268 -154.929256652 0.6041533442 126.435245418 0.597181988604 -155.028858498 0.596207590268 -154.929256652 0.536572462794 -28.6337896154 0.000214634619047 -61.9045334067 0.603249591367 -53.6683547598 0.6041533442 126.435245418 0.000214634619047 -61.9045334075 0.520661714772 112.855222018
9.9 0.452888174953 -74.1203367769 0.269751898836 -162.681482233 0.599036646915 -159.28981429 0.602728220501 -56.3246933044 0.269751898836 -162.681482233 0.452973126707 -73.8595958752 0.598049233772 -159.189222383 0.603644242576 123.77996312 0.599036646915 -159.28981429 0.598049233772 -159.189222383 0.532439752027 -34.058004221 0.000214338033046 -65.6264947692 0.602728220501 -56.3246933044 0.603644242576 123.77996312 0.000214338033046 -65.6264947699 0.521854649042 110.329051029
9.925 0.450859555662 -76.8871229616 0.270199228118 -166.111192999 0.600891590726 -163.546278628 0.60220207064 -58.9769030462 0.270199228118 -166.111192999 0.450950950471 -76.6225112446 0.599890856762 -163.444673617 0.60313064659 121.128828686 0.600891590726 -163.546278628 0.599890856762 -163.444673617 0.528261476008 -39.4753162212 0.000214003108334 -69.3318159152 0.60220207064 -58.9769030462 0.60313064659 121.128828686 0.000214003108333 -69.3318159157 0.523054532032 107.805836452
9.95 0.448811093196 -79.6452876442 0.270658912034 -169.538876413 0.602747229762 -167.798608557 0.601671117258 -61.6250540112 0.270658912034 -169.538876413 0.448909171855 -79.3767060429 0.601732857147 -167.695966686 0.602612543651 118.481772443 0.602747229762 -167.798608557 0.601732857147 -167.695966686 0.52403561094 -44.8865054087 0.000213627573065 -73.0198662131 0.601671117258 -61.6250540112 0.602612543651 118.481772443 0.000213627573064 -73.0198662134 0.524261331056 105.285524138
9.975 0.446742751556 -82.3946353282 0.271129826735 -172.964604251 0.604603871405 -172.047162557 0.601135334506 -64.269215143 0.271129826735 -172.964604251 0.44684776516 -82.1219817763 0.603575530032 -171.943459323 0.602089920291 115.838725803 0.604603871405 -172.047162557 0.603575530032 -171.943459323 0.519760282202 -50.2923682395 0.000213209064668 -76.6899436701 0.601135334506 -64.269215143 0.602089920291 115.838725803 0.000213209064666 -76.6899436703 0.525475015577 102.768060578
10 0.444654623708 -85.1349634252 0.271610859378 -176.388434811 0.606461721301 -176.292300447 0.600594695226 -66.9094543365 0.271610859378 -176.388434811 0.444766833995 -84.8581327454 0.605419068287 -176.187510567 0.601562762216 113.199621237 0.606461721301 -176.292300447 0.605419068287 -176.187510567 0.515433771071 -55.6937171781 0.000212745128518 -80.3412680839 0.600594695226 -66.9094543365 0.601562762216 113.199621237 0.000212745128516 -80.3412680841 0.526695557098 100.253392881
10.025 0.442546933482 -87.8660632235 0.272100912026 -179.810412928 0.608320884111 179.465616672 0.600049170964 -69.5458384698 0.272100912026 -179.810412928 0.442666613204 -87.5849470035 0.607263563252 179.571519296 0.601031054353 110.564392239 0.608320884111 179.465616672 0.607263563252 179.571519296 0.511054521476 -61.0913800855 0.000212233216929 -83.9729732854 0.600049170964 -69.5458384698 0.601031054353 110.564392239 0.000212233216927 -83.9729732855 0.527922929054 97.741468755
10.05 0.440420037204 -90.5877209391 0.272598905771 176.769430027 0.610181364423 175.226226434 0.599498731992 -72.178433436 0.272598905771 176.769430027 0.440547470509 -90.3022073954 0.609109005602 175.333268755 0.600494780902 107.9329733 0.610181364423 175.226226434 0.609109005602 175.333268755 0.506621146872 -66.4861996405 0.000211670688605 -87.5840983316 0.599498731992 -72.178433436 0.600494780902 107.9329733 0.000211670688602 -87.5840983316 0.529157106706 95.2322364802
10.075 0.438274425017 -93.2997188598 0.273103785104 173.351076155 0.612043067801 170.989165192 0.598943347309 -74.8073041739 0.273103785104 173.351076155 0.438409907854 -93.0096926873 0.610955286343 171.097375056 0.599953925388 105.305299876 0.612043067801 170.989165192 0.610955286344 171.097375056 0.502132437235 -71.8790327845 0.000211054808729 -91.1735774843 0.59894334731 -74.8073041739 0.599953925388 105.305299876 0.000211054808726 -91.1735774843 0.530398067037 92.725644892
10.1 0.436110721848 -96.0018365937 0.273614522586 169.934521068 0.613905801991 166.754067957 0.598382984662 -77.4325146989 0.273614522586 169.934521068 0.436254562393 -95.7071788006 0.612802197967 166.863474151 0.599408470719 102.681308361 0.613905801991 166.754067957 0.612802197967 166.863474151 0.49758736626 -77.2707501747 0.000210382749933 -94.7402287792 0.598382984662 -77.4325146989 0.599408470719 102.681308361 0.000210382749931 -94.7402287793 0.531645788639 90.2216433607
10.125 0.433929687963 -98.6938524367 0.274130123859 166.519773935 0.615769278282 162.520568295 0.597817610543 -80.0541281321 0.274130123859 166.519773935 0.434082207067 -98.3944401614 0.614649435738 162.63120059 0.598858399247 100.060936055 0.615769278282 162.520568295 0.614649435738 162.63120059 0.492985098772 -82.6622356311 0.000209651594436 -98.2827409595 0.597817610543 -80.0541281321 0.598858399247 100.060936055 0.000209651594433 -98.2827409596 0.532900251617 87.7201817726
10.15 0.431732219049 -101.375544871 0.274649633054 163.106857563 0.617633113018 158.288298174 0.597247190203 -82.6722067299 0.274649633054 163.106857563 0.431893750706 -101.071251179 0.616496599148 158.400187381 0.598303692824 97.4441211431 0.617633113018 158.288298174 0.616496599148 158.400187381 0.488324998405 -88.0543855578 0.000208858337712 -101.799658507 0.597247190203 -82.6722067299 0.598303692824 97.4441211431 0.00020885833771 -101.799658507 0.534161437477 85.2212105122
10.175 0.429519345732 -104.046694209 0.275172138657 159.695808485 0.619496829282 154.056887767 0.596671687651 -85.2868119131 0.275172138657 159.695808485 0.429690237581 -103.737387871 0.618343193515 154.170065787 0.597744332874 94.830802662 0.619496829282 154.056887767 0.618343193515 154.170065787 0.483606635575 -93.4481083167 0.000207999894182 -105.289364457 0.596671687651 -85.2868119131 0.597744332874 94.830802662 0.00020799989418 -105.289364457 0.535429329027 82.7246804459
10.2 0.427292232448 -106.707084404 0.275696779885 156.286677087 0.621359858748 149.825965195 0.596091065651 -87.8980042945 0.275696779885 156.286677087 0.427472846296 -106.392629639 0.620188631759 149.940465081 0.59718030046 92.2209204778 0.621359858748 149.825965195 0.620188631759 149.940465081 0.478829795779 -98.8443235293 0.000207073105498 -108.750060632 0.596091065651 -87.8980042945 0.59718030046 92.2209204778 0.000207073105497 -108.750060632 0.53670391027 80.2305429053
10.225 0.425052175558 -109.356505027 0.276222753652 152.87952775 0.623221543719 145.59515621 0.595505285723 -90.5058437077 0.276222753652 152.87952775 0.425242887937 -109.03676123 0.622032236346 145.71101223 0.596611576355 89.6144152587 0.623221543719 145.59515621 0.622032236346 145.71101223 0.473994488226 -104.243961277 0.000206074752199 -112.179744858 0.595505285723 -90.5058437077 0.596611576355 89.6144152587 0.0002060747522 -112.179744858 0.537985166302 77.7387496723
10.25 0.422800600577 -111.994753448 0.276749322203 149.474439013 0.625081139364 141.364083816 0.594914308134 -93.110389234 0.276749322203 149.474439013 0.423001803335 -111.669574873 0.623873241418 141.481331522 0.596038141126 87.0112284496 0.625081139364 141.364083816 0.623873241418 141.481331522 0.469100954835 -109.647961165 0.000205001569676 -115.576184654 0.594914308134 -93.110389234 0.596038141126 87.0112284496 0.000205001569677 -115.576184654 0.539273083209 75.2492529647
10.275 0.420539058381 -114.621637222 0.277275821489 146.07150376 0.626937816163 137.132367819 0.594318091885 -95.7116992298 0.277275821489 146.07150376 0.420751159315 -114.29087263 0.625710795133 137.251044122 0.595459975214 84.4113022472 0.626937816163 137.132367819 0.625710795133 137.251044122 0.464149679578 -115.057271223 0.000203850269665 -118.936886807 0.594318091885 -95.7116992298 0.595459975214 84.4113022472 0.000203850269667 -118.936886808 0.540567647965 72.7620054222
10.3 0.418269220235 -117.236976691 0.277801670407 142.670829428 0.628790662569 132.899624292 0.593716594693 -98.3098313539 0.277801670407 142.670829428 0.418492643767 -116.900468961 0.627543962201 133.019767546 0.594877059022 81.8145795754 0.628790662569 132.899624292 0.627543962201 133.019767546 0.459141398169 -120.472846573 0.000202617568818 -122.259062121 0.593716594694 -98.3098313539 0.594877059022 81.8145795754 0.00020261756882 -122.259062122 0.541868848327 70.2769600937
10.325 0.415992871462 -119.840607841 0.27832638098 139.272538221 0.630638687926 128.66546496 0.593109772976 -100.904842594 0.27832638098 139.272538221 0.416228059364 -119.498193523 0.629371726663 128.787115045 0.594289373016 79.2210040612 0.630638687926 128.66546496 0.629371726663 128.787115045 0.454077108072 -125.895647854 0.000201300226286 -125.539584532 0.593109772977 -100.904842594 0.594289373016 79.2210040612 0.000201300226289 -125.539584532 0.543176672736 67.7940704248
10.35 0.413711903551 -122.432385405 0.278849569625 135.876767345 0.632480825639 124.429496479 0.592497581819 -103.496789292 0.278849569625 135.876767345 0.413959315734 -122.083894216 0.631192994908 124.552694902 0.593696897825 76.6305200107 0.632480825639 124.429496479 0.631192994908 124.552694902 0.448958078796 -131.326639305 0.000199895092824 -128.774943633 0.592497581819 -103.496789292 0.593696897825 76.6305200107 0.000199895092827 -128.774943633 0.544491110212 65.3132902462
10.375 0.411428304484 -125.01218623 0.279370969633 132.483669239 0.634315936617 120.191319611 0.591879974939 -106.085727174 0.279370969633 132.483669239 0.411688419855 -124.657440494 0.63300659895 120.316109609 0.593099614353 74.0430723852 0.634315936617 120.191319611 0.63300659895 120.316109609 0.443785862404 -136.766786471 0.000198399174569 -131.961189529 0.591879974939 -106.085727174 0.593099614353 74.0430723852 0.000198399174572 -131.96118953 0.54581215025 62.8345737629
10.4 0.40914414704 -127.579912937 0.27989044502 129.093411803 0.636142813023 115.950528271 0.59125690465 -108.671711371 0.27989044502 129.093411803 0.409417464442 -127.218726941 0.63481129999 116.076954927 0.592497503901 71.458606778 0.636142813023 115.950528271 0.63481129999 116.076954927 0.438562304184 -142.217053439 0.000196809715539 -135.09386875 0.59125690465 -108.671711371 0.592497503901 71.458606778 0.000196809715542 -135.09386875 0.547139782725 60.3578755436
10.425 0.4068615748 -130.135497863 0.280408005918 125.706178617 0.637960182342 111.706708438 0.590628321807 -111.25479645 0.280408005918 125.706178617 0.407148614043 -129.767677127 0.636605792267 111.834818803 0.591890548296 68.877069391 0.637960182342 111.706708438 0.636605792267 111.834818803 0.433289553376 -147.678399524 0.000195124304004 -138.167949834 0.590628321807 -111.25479645 0.591890548296 68.877069391 0.000195124304006 -138.167949834 0.548473997781 57.8831505109
10.45 0.404582785548 -132.678907313 0.280923825717 122.322169131 0.639766711777 107.459436904 0.589994175743 -113.835036437 0.280923825717 122.322169131 0.404884088561 -132.304247765 0.638388707229 107.589280139 0.591278730037 66.2984070118 0.639766711777 107.459436904 0.638388707229 107.589280139 0.427970073842 -153.151775292 0.000193341009307 -141.177737047 0.589994175743 -113.835036437 0.591278730037 66.2984070118 0.000193341009308 -141.177737047 0.549814785733 55.4103539321
10.475 0.402310011743 -135.210146111 0.281438260171 118.941598815 0.64156101302 103.208279851 0.589354414206 -116.412484843 0.281438260171 118.941598815 0.402626143855 -134.828433146 0.640158618034 103.339907373 0.590662032447 63.7225669901 0.64156101302 103.208279851 0.640158618034 103.339907373 0.422606654553 -158.638117818 0.000191458557546 -144.116770598 0.589354414206 -116.412484843 0.590662032447 63.7225669901 0.000191458557547 -144.116770598 0.551162136962 52.9394414105
10.5 0.40004549769 -137.729262474 0.281951868749 115.564699256 0.643341647386 98.9527912147 0.588708983266 -118.987194692 0.281951868749 115.564699256 0.400377049074 -137.340269883 0.641914044395 99.0862568659 0.590040439849 61.1494972153 0.643341647386 98.9527912147 0.641914044395 99.0862568659 0.417202419724 -164.138345023 0.000189476556852 -146.977711768 0.588708983266 -118.987194692 0.590040439849 61.1494972153 0.000189476556851 -146.977711768 0.552516041812 50.470368877
10.525 0.397791473002 -140.236353203 0.282465438508 112.19171817 0.64510713135 94.6925108255 0.588057827219 -121.559218544 0.282465438508 112.19171817 0.398139060305 -139.839841946 0.643653457786 94.8278710529 0.589413937751 58.5791460929 0.64510713135 94.6925108255 0.643653457786 94.8278710529 0.411760838424 -169.653348947 0.00018739578596 -149.75221155 0.588057827219 -121.559218544 0.589413937751 58.5791460929 0.000187395785958 -149.75221155 0.553876490484 48.0030925824
10.55 0.395550121896 -142.731569185 0.282980010868 108.822919313 0.646855942497 90.4269622764 0.587400888472 -124.128608525 0.282980010868 108.822919313 0.395914390097 -142.327285996 0.645375287018 90.5642763341 0.588782513054 56.0114625216 0.646855942497 90.4269622764 0.645375287018 90.5642763341 0.40628573346 -175.183987755 0.000185218563509 -152.43076198 0.587400888472 -124.128608525 0.588782513054 56.0114625216 0.000185218563506 -152.43076198 0.555243472935 45.5375690898
10.575 0.393323547823 -145.215121219 0.28349691166 105.458582258 0.648586525892 86.155650489 0.586738107405 -126.695416347 0.28349691166 105.458582258 0.393705172357 -144.802797009 0.647077924193 86.2949806606 0.588146154284 53.44639587 0.648586525892 86.155650489 0.647077924193 86.2949806606 0.40078128931 179.268923721 0.000182949220168 -155.002530399 0.586738107405 -126.695416347 0.588146154284 53.44639587 0.000182949220165 -155.002530399 0.556616978766 43.0737552678
10.6 0.391113732855 -147.687286152 0.284017784956 102.099001986 0.65029730088 81.8780589284 0.586069422212 -129.25969334 0.284017784956 102.099001986 0.391513422052 -147.26663418 0.64875973103 82.0194707729 0.587504851847 50.8838959524 0.65029730088 81.8780589284 0.64875973103 82.0194707729 0.395252058869 173.704625165 0.000180594701407 -157.455178976 0.586069422212 -129.25969334 0.587504851847 50.8838959524 0.000180594701404 -157.455178976 0.557996997118 40.6116082836
10.625 0.388922491192 -150.148413334 0.2845446312 98.7444882697 0.651986668316 77.5936464114 0.585394768717 -131.821490475 0.2845446312 98.7444882697 0.389340989099 -149.719127107 0.650419045561 77.7372090366 0.586858598315 48.3239130055 0.651986668316 77.5936464114 0.650419045561 77.7372090366 0.389702968761 168.12242397 0.000178165335565 -159.774675196 0.585394768717 -131.821490475 0.586858598315 48.3239130055 0.000178165335562 -159.774675196 0.559383516563 38.1510855969
10.65 0.386751416049 -152.598931368 0.285079850327 95.3953647644 0.65365301822 73.3018434467 0.58471408016 -134.380858389 0.285079850327 95.3953647644 0.387189505696 -152.160682241 0.652054189172 73.4476298133 0.586207388745 45.7663976632 0.65365301822 73.3018434467 0.652054189172 73.4476298133 0.384139322965 162.521710768 0.000175675809707 -161.945104775 0.58471408016 -134.380858389 0.586207388745 45.7663976632 0.000175675809706 -161.945104775 0.560776524994 35.6921449537
10.675 0.384601819088 -155.039355177 0.285626290606 92.0519677565 0.655294737823 69.00204803 0.584027286942 -136.937847414 0.285626290606 92.0519677565 0.385060326284 -154.591789584 0.653663473966 69.1501352906 0.585551221038 43.2113009318 0.655294737823 69.00204803 0.653663473966 69.1501352906 0.378566804518 156.901977693 0.000173146404086 -163.948507395 0.584027286942 -136.937847414 0.585551221038 43.2113009318 0.000173146404086 -163.948507395 0.562176009513 33.2347443801
10.7 0.38247466141 -157.470293376 0.286187304137 88.7146444728 0.656910219979 64.6936208046 0.583334316331 -139.492507599 0.286187304137 88.7146444728 0.382954459178 -157.013029654 0.655245210376 64.8440906826 0.584890096348 40.6585741636 0.656910219979 64.6936208046 0.655245210376 64.8440906826 0.372991475091 151.262839812 0.00017060454362 -165.764769496 0.583334316331 -139.492507599 0.584890096348 40.6585741636 0.000170604543622 -165.764769496 0.563581956312 30.7788421774
10.725 0.380370474974 -159.89245596 0.286766810077 85.3837508483 0.658497871873 60.3758794797 0.582635092121 -142.044888741 0.286766810077 85.3837508483 0.380872488725 -159.42508068 0.656797714974 60.5288186939 0.584224019538 38.1081690302 0.658497871873 60.3758794797 0.656797714974 60.5288186939 0.367419772293 145.604060232 0.000168086729325 -167.371628681 0.582635092121 -142.044888741 0.584224019538 38.1081690302 0.00016808672933 -167.371628682 0.564994350565 28.3243969159
10.75 0.378289273076 -162.306662324 0.287369366886 82.0596486209 0.660056123925 56.0480923794 0.581929534229 -144.595040404 0.287369366886 82.0596486209 0.37881448669 -161.828726062 0.65831931834 56.2035931211 0.583552999707 35.5600374935 0.660056123925 56.0480923794 0.65831931834 56.2035931211 0.361858504667 139.925579488 0.000165640909532 -168.74487286 0.581929534229 -144.595040404 0.583552999707 35.5600374935 0.000165640909539 -168.74487286 0.5664131763 25.8713674304
10.775 0.376230448299 -164.713849652 0.288000255126 78.7427015934 0.661583438769 51.7094709655 0.581217558223 -147.143011947 0.288000255126 78.7427015934 0.37677991125 -164.224862091 0.659808372843 51.867631436 0.582877050781 33.0141317756 0.661583438769 51.7094709655 0.659808372843 51.867631436 0.356314844512 134.227549884 0.000163329332712 -169.858854475 0.581217558223 -147.143011947 0.582877050781 33.0141317756 0.000163329332721 -169.858854476 0.567838416284 23.419712814
10.8 0.374192655971 -167.115081712 0.288665572675 75.433270861 0.663078320105 47.3591611501 0.580499074766 -149.688852547 0.288665572675 75.433270861 0.374767491724 -166.614505966 0.661263260119 47.5200861679 0.582196192206 30.4704043266 0.663078320105 47.3591611501 0.661263260119 47.5200861679 0.350796318891 128.510375568 0.000161231879498 -170.687483098 0.580499074766 -149.688852547 0.582196192206 30.4704043266 0.000161231879508 -170.687483099 0.569270051891 20.9693924139
10.825 0.372173680785 -169.511558143 0.289372344584 72.1317087602 0.66453932115 42.9962331685 0.579773988966 -152.232611218 0.289372344584 72.1317087602 0.372775096696 -168.998804154 0.662682397927 43.1600348575 0.581510449732 27.928807789 0.66453932115 42.9962331685 0.662682397927 43.1600348575 0.345310799607 122.774759264 0.000159449786059 -171.205897673 0.579773988966 -152.232611218 0.581510449732 27.928807789 0.000159449786068 -171.205897674 0.570708062977 18.5203658258
10.85 0.370170283689 -171.904624323 0.29012865027 68.8383512289 0.665965052324 38.6196697377 0.579042199605 -154.774336838 0.29012865027 68.8383512289 0.370799582697 -171.379041162 0.664064245982 38.7864683099 0.58081985633 25.3892949594 0.665965052324 38.6196697377 0.664064245982 38.7864683099 0.339866493417 117.021756716 0.000158109528941 -171.393028408 0.579042199605 -154.774336838 0.58081985633 25.3892949594 0.000158109528948 -171.393028409 0.572152427743 16.0725928888
10.875 0.368178025477 -174.295781975 0.290943771326 65.5535081968 0.667354187643 34.2283521602 0.578303598223 -157.314078156 0.290943771326 65.5535081968 0.368836619949 -173.756648827 0.665407310187 34.3982768084 0.580124453251 22.8518187445 0.667354187643 34.2283521602 0.665407310187 34.3982768084 0.334471934578 111.252840057 0.00015736643636 -171.23519366 0.578303598223 -157.314078156 0.580124453251 22.8518187445 0.000157366436362 -171.23519366 0.573603122601 13.6260336802
10.9 0.366191062639 -176.68670069 0.291828363935 62.2774515271 0.668705469109 29.8210439551 0.577558068035 -159.851883812 0.291828363935 62.2774515271 0.366880490797 -176.133216259 0.666710144491 29.9942338754 0.579424291272 20.3163321123 0.668705469109 29.8210439551 0.666710144491 29.9942338754 0.329135982913 105.469971568 0.000157407344934 -170.730677806 0.577558068035 -159.851883812 0.579424291272 20.3163321123 0.000157407344927 -170.730677804 0.575060122027 11.1806485106
10.925 0.364201909901 -179.079230628 0.292794660777 59.0103999106 0.6700177081 25.3963714984 0.576805482639 -162.38780234 0.292794660777 59.0103999106 0.364923855361 -178.510500638 0.667971349312 25.5729770645 0.578719432146 17.7827880351 0.6700177081 25.3963714984 0.667971349312 25.5729770645 0.323867832177 99.6756894779 0.000158451412802 -169.894848421 0.576805482639 -162.38780234 0.578719432146 17.7827880351 0.000158451412786 -169.894848415 0.576523398413 8.73639791785
10.95 0.362201162434 178.524583272 0.293856708421 55.752499959 0.671289782409 20.9528010257 0.57604570447 -164.921882168 0.293856708421 55.752499959 0.36295747751 179.109560921 0.669189565064 21.1329851453 0.578009950321 15.2511394222 0.671289782409 20.9528010257 0.669189565064 21.1329851453 0.318677035733 93.8732078304 0.00016074818461 -168.764814416 0.57604570447 -164.921882168 0.578009950321 15.2511394222 0.000160748184583 -168.764814404 0.577992921913 6.29324266194
10.975 0.36017716881 176.122485165 0.295030647613 52.5038025513 0.672520627023 16.4886111889 0.575278582939 -167.454171608 0.295030647613 52.5038025513 0.360969902404 176.724838092 0.670363458784 16.6725508745 0.577295934975 12.7213390397 0.672520627023 16.4886111889 0.670363458784 16.6725508745 0.31357355974 88.0665327227 0.00016457238147 -167.402085288 0.575278582939 -167.454171608 0.577295934975 12.7213390397 0.000164572381434 -167.402085267 0.579468660283 3.85114371885
11 0.358115643283 173.711989712 0.29633504563 49.2642332337 0.673709216019 12.0018601432 0.574503952202 -169.984718824 0.29633504563 49.2642332337 0.358947074385 174.332992313 0.671491701084 12.1897483412 0.576577492437 10.1933394128 0.673709216019 12.0018601432 0.671491701084 12.1897483412 0.308567878477 82.2605977124 0.000170215780356 -165.891548395 0.574503952202 -169.984718824 0.576577492437 10.1933394127 0.000170215780316 -165.891548363 0.580950578711 1.41006227433
11.025 0.355999202719 171.29036038 0.297791292126 46.0335551535 0.674854531903 7.49034586926 0.573721628448 -172.513571787 0.297791292126 46.0335551535 0.356871880815 171.931459521 0.672572929578 7.68239359939 0.575854749087 7.66709270422 0.674854531903 7.49034586926 0.672572929578 7.6823935994 0.303671132778 76.461421627 0.00017797779558 -164.335749912 0.573721628448 -172.513571787 0.575854749087 7.66709270421 0.000177977795545 -164.335749866 0.582438639642 -1.0300402827
11.05 0.353806809129 168.854583815 0.299424072739 42.8113225919 0.675955517226 2.95155807133 0.572931406611 -175.040778198 0.299424072739 42.8113225919 0.354723603194 169.517430132 0.673605693397 3.14799694206 0.575127854843 5.14255056152 0.675955517226 2.95155807132 0.673605693397 3.14799694207 0.298895381486 70.676292539 0.000188157447748 -162.844988836 0.572931406611 -175.040778198 0.575127854843 5.1425505615 0.000188157447734 -162.844988774 0.583932802596 -3.4692023674
11.075 0.351513092968 166.401339296 0.301261938413 39.5968226176 0.677011001188 -1.61738048108 0.572133056353 -177.566385375 0.301261938413 39.5968226175 0.35247725121 167.087825651 0.674588371221 -1.4162952987 0.574396987381 2.61966392107 0.677011001188 -1.61738048109 0.674588371221 -1.41629529869 0.294253988515 64.9139821321 0.000201049627438 -161.525470281 0.572133056353 -177.566385375 0.574396987381 2.61966392105 0.000201049627467 -161.525470204 0.585433023972 -5.90746220686
11.1 0.349087524551 163.9269621 0.303337993061 36.3890016761 0.678019590867 -6.21978593432 0.571326317142 179.909559921 0.303337993061 36.3890016761 0.350102747748 164.63927125 0.675519052111 -6.01377217036 0.573662357266 0.098382754057 0.678019590867 -6.21978593434 0.675519052111 -6.01377217035 0.28976220626 59.1849949416 0.000216947639044 -160.468664249 0.571326317142 179.909559921 0.573662357266 0.0983827540285 0.000216947639144 -160.468664159 0.58693925685 -8.34485784875
11.125 0.34649339035 161.427399392 0.305690728229 33.1863729966 0.678979512216 -10.8595022669 0.570510892186 177.387011733 0.305690728229 33.1863729965 0.347563922558 162.168063692 0.676395363824 -10.6482463207 0.572924214215 -2.42134426826 0.678979512216 -10.8595022669 0.676395363824 -10.6482463206 0.285438041941 53.5018566707 0.000236152382065 -159.744460969 0.570510892186 177.387011733 0.572924214215 -2.4213442683 0.000236152382271 -159.744460867 0.588451450778 -10.781427171
11.15 0.34368651647 158.898157108 0.308365041219 29.9868994524 0.679888379393 -15.5410118973 0.569686440935 174.865925257 0.308365041219 29.9868994523 0.344817258193 159.670134115 0.677214226589 -15.3241637387 0.5721828548 -4.93957022102 0.679888379393 -15.5410118974 0.67721422659 -15.3241637387 0.281303530626 47.8794443298 0.000258987087459 -159.399090859 0.569686440935 174.865925257 0.5721828548 -4.93957022106 0.00025898708781 -159.39909075 0.589969551551 -13.217207893
11.175 0.340613661638 156.334236239 0.311413483125 26.7878448539 0.680742861156 -20.2695742968 0.56885256976 172.346257351 0.311413483125 26.7878448538 0.341810312441 157.141005617 0.677971500352 -20.0467412783 0.571438631943 -7.4563505287 0.680742861156 -20.2695742968 0.677971500352 -20.0467412783 0.277386591983 42.3353571396 0.000285815956289 -159.45711479 0.56885256976 172.346257351 0.571438631943 -7.45635052876 0.000285815956829 -159.457114678 0.591493500981 -15.6522375879
11.2 0.337210474348 153.730057097 0.314897796098 23.5855843933 0.681538198363 -25.0514010586 0.568008820336 169.827967257 0.314897796098 23.5855843932 0.338479714588 154.57574651 0.678661478532 -24.8221403458 0.57069196669 -9.9717437896 0.681538198363 -25.0514010586 0.678661478532 -24.8221403458 0.273723724264 36.8903188842 0.000317065410586 -159.925888827 0.568008820336 169.827967257 0.57069196669 -9.97174378966 0.00031706541136 -159.925888718 0.593023236652 -18.0865536979
11.225 0.333398869922 151.07937089 0.318890815521 20.3753618895 0.682267504248 -29.8938788365 0.5671546551 167.311017633 0.31889081552 20.3753618894 0.334748595335 151.968922004 0.679276158755 -29.6576880685 0.569943362848 -12.4858129161 0.682267504247 -29.8938788366 0.679276158755 -29.6576880685 0.270363898126 31.5685859803 0.000353247569752 -160.800882517 0.567154655099 167.311017633 0.569943362848 -12.4858129162 0.000353247570797 -160.800882415 0.594558691669 -20.5201935514
11.25 0.32908362835 148.375159841 0.32347883324 17.150977233 0.68292074476 -34.8058556985 0.566289439018 164.79537604 0.32347883324 17.1509772328 0.330523257328 149.314550865 0.679804186248 -34.5621613564 0.569193425238 -14.9986267312 0.682920744759 -34.8058556985 0.679804186248 -34.5621613563 0.267374166849 26.3983047043 0.000394986570237 -162.070717826 0.566289439018 164.79537604 0.569193425239 -14.9986267313 0.000394986571583 -162.070717734 0.59609979439 -22.9531943847
11.275 0.324147935688 145.609531351 0.328764542897 13.9043815101 0.683483242835 -39.7980122617 0.565412416723 162.281017093 0.328764542896 13.9043815099 0.325688818587 146.606080958 0.680229311737 -39.5461550346 0.568442882459 -17.5102622292 0.683483242834 -39.7980122617 0.680229311737 -39.5461550345 0.264847722036 21.4117056064 0.000443049221239 -163.721380218 0.565412416723 162.281017093 0.568442882459 -17.5102622293 0.000443049222892 -163.72138014 0.597646468158 -25.3855933684
11.3 0.31844748008 142.773620981 0.334870716787 10.6251489615 0.683933466122 -44.8833472235 0.564522683898 159.767925602 0.334870716786 10.6251489614 0.320103455127 143.836412147 0.680528120849 -44.622563389 0.567692615205 -20.0208078159 0.683933466122 -44.8833472236 0.680528120849 -44.6225633889 0.262915406465 16.6449278199 0.000498382223737 -165.739498563 0.564522683897 159.767925602 0.567692615205 -20.020807816 0.000498382225672 -165.739498502 0.599198631012 -27.8174276403
11.325 0.311802553443 139.857538725 0.341944792041 7.29978311057 0.68423972311 -50.0778186608 0.563619151746 157.25610119 0.34194479204 7.29978311042 0.313590718958 140.998024037 0.680666656853 -49.8072161008 0.566943691245 -22.5303680096 0.684239723109 -50.0778186608 0.680666656853 -49.8072161007 0.26176204602 12.1371105214 0.000562158876665 -168.114845533 0.563619151745 157.25610119 0.566943691245 -22.5303680097 0.000562158878806 -168.114845488 0.600756195401 -30.2487343479
11.35 0.303987381337 136.850435226 0.350164562149 3.91079755034 0.684355174668 -55.4011992833 0.562700503561 154.745565169 0.350164562149 3.91079755021 0.305929197372 138.083325313 0.680595340203 -55.1197261649 0.566197407928 -25.0390703421 0.684355174667 -55.4011992833 0.680595340203 -55.1197261649 0.261649341124 7.92815424791 0.000635838963572 -170.842319519 0.562700503561 154.745565169 0.566197407927 -25.0390703422 0.000635838965781 -170.84231949 0.602319067889 -32.6795507048
11.375 0.294715582329 133.74085677 0.359745153397 0.435487827279 0.684210210851 -60.8782278254 0.561765143313 152.23637086 0.359745153397 0.435487827161 0.296838492925 135.085466297 0.68024123115 -60.5846310762 0.565455342223 -27.5470756119 0.68421021085 -60.8782278254 0.68024123115 -60.5846310761 0.26294734307 4.05424497697 0.000721246400137 -173.923698358 0.561765143312 152.23637086 0.565455342223 -27.547075612 0.000721246402201 -173.923698343 0.603887148866 -35.1099140648
11.4 0.283620223635 130.517766313 0.370947358093 -3.15572321422 0.683700650664 -66.5401726776 0.560811138617 149.728619267 0.370947358092 -3.1557232143 0.285960139595 132.000130435 0.67949609074 -66.2329419826 0.564719405881 -30.0545932922 0.683700650664 -66.5401726776 0.67949609074 -66.2329419826 0.266176463863 0.539928304608 0.000820670112758 -177.369456284 0.560811138617 149.728619267 0.564719405881 -30.0545932922 0.000820670114398 -177.369456278 0.605460332272 -37.5398620245
11.425 0.270226408228 127.173102335 0.384087070858 -6.90153142596 0.682669232647 -72.4269705822 0.559836166569 147.222483078 0.384087070857 -6.901531426 0.272831692159 128.829454876 0.678197709992 -72.104261391 0.563991897537 -32.5619049127 0.682669232647 -72.4269705822 0.678197709992 -72.104261391 0.272061061449 -2.61453098714 0.00093699403205 178.799059158 0.559836166569 147.222483078 0.563991897537 -32.5619049127 0.000936994032964 178.799059158 0.607038505346 -39.9694325666
11.45 0.253913863631 123.707999861 0.399544751698 -10.8528152399 0.680876205197 -78.5901638927 0.558837484823 144.718243668 0.399544751698 -10.8528152399 0.256852121794 125.5908006 0.676100329659 -78.2496892293 0.563275530407 -35.0693997957 0.680876205197 -78.5901638927 0.676100329659 -78.2496892293 0.281593295826 -5.4510594167 0.00107386067316 174.54676884 0.558837484823 144.718243668 0.563275530407 -35.0693997957 0.00107386067317 174.54676884 0.608621548439 -42.3986642664
11.475 0.233867296012 120.148260812 0.417771913005 -15.0768142449 0.677952069254 -85.0969278903 0.557811981434 142.216348186 0.417771913005 -15.0768142449 0.237237883124 122.337333204 0.67282724453 -84.7358024751 0.562573385249 -37.5776297524 0.677952069254 -85.0969278903 0.67282724453 -84.7358024751 0.296101708244 -8.0754009287 0.00123586610043 169.820958005 0.557811981434 142.216348186 0.562573385249 -37.5776297524 0.00123586609977 169.820958007 0.610209334933 -44.8275965962
11.5 0.209015940382 116.585446574 0.439287300362 -19.6627669615 0.67332108845 -92.0355234163 0.55675642453 139.717496683 0.439287300362 -19.6627669615 0.212975444523 119.210217421 0.667794312546 -91.6500324813 0.56188867572 -40.0873920234 0.67332108845 -92.0355234163 0.667794312546 -91.6500324813 0.317312821383 -10.67734874 0.00142876378251 164.545930355 0.55675642453 139.717496683 0.56188867572 -40.0873920234 0.00142876378251 164.545930355 0.611801731345 -47.2562703886
