! Generated from PyAEDT SolutionData; AEDT ExportNetworkData workaround
# GHz S MA R 50
9 0.222264696049 150.595116769 0.54102951309 -169.818757361 0.485863233802 -75.2481913771 0.649478551528 43.2914478569 0.54102951309 -169.818757361 0.222308562566 150.9249631 0.48580487343 -75.2998619236 0.649507193129 -136.666867486 0.485863233802 -75.2481913771 0.48580487343 -75.2998619236 0.726587988633 -149.527141955 0.000661638630131 91.9562690089 0.649478551528 43.2914478569 0.649507193129 -136.666867486 0.000661638630138 91.9562690084 0.395370180227 -124.473947229
9.025 0.220312191442 147.85413238 0.541856790505 -172.627496381 0.486450648331 -79.5108413833 0.649015079306 40.3815681474 0.541856790504 -172.627496381 0.220342184704 148.187955048 0.486392140187 -79.5632573833 0.649048724227 -139.57611365 0.486450648331 -79.5108413833 0.486392140187 -79.5632573833 0.725799605649 -155.34556753 0.000664899008995 87.0736372766 0.649015079306 40.3815681474 0.649048724228 -139.57611365 0.000664899009098 87.0736372862 0.396881228717 -127.176822306
9.05 0.218383038539 145.124839523 0.542700654522 -175.428973032 0.4870037356 -83.7662513932 0.648547402562 37.4796200696 0.542700654522 -175.428973032 0.218399009261 145.462585825 0.486944992454 -83.8194271503 0.648586095329 -142.477437026 0.4870037356 -83.7662513932 0.486944992454 -83.8194271503 0.72505632407 -161.158661343 0.000668097496465 82.1976363978 0.648547402562 37.4796200695 0.64858609533 -142.477437026 0.000668097496628 82.1976364133 0.398399113002 -129.874584117
9.075 0.216477573099 142.406823685 0.543561119093 -178.223449847 0.487522845546 -88.0143360182 0.648075519595 34.5854560904 0.543561119093 -178.223449847 0.216479371937 142.748434504 0.487463778559 -88.0682852701 0.648119304856 -145.370985387 0.487522845546 -88.0143360182 0.487463778559 -88.0682852701 0.724357832792 -166.965537017 0.000671230128317 77.3286843114 0.648075519595 34.5854560903 0.648119304858 -145.370985387 0.000671230128511 77.3286843297 0.399923726487 -132.567317801
9.1 0.214596020848 139.69967701 0.544438078067 178.988817558 0.488008441073 -92.255016495 0.647599427586 31.698931976 0.544438078067 178.988817558 0.214583497477 140.045087137 0.487948959769 -92.3097523924 0.647648350577 -148.256903217 0.488008441072 -92.255016495 0.487948959769 -92.3097523924 0.723703655807 -172.765393908 0.000674293260362 72.4671735173 0.647599427586 31.6989319759 0.647648350579 -148.256903217 0.000674293260565 72.4671735361 0.401454967522 -135.25510731
9.125 0.212738510251 137.002996806 0.54533131297 176.207581091 0.488461096572 -96.4882207656 0.64711912261 28.8199067185 0.545331312969 176.207581091 0.212711512766 137.352135289 0.488401108846 -96.5437558517 0.647173229508 -151.135331788 0.488461096572 -96.4882207656 0.488401108847 -96.5437558517 0.723093155898 -178.557510731 0.000677283558288 67.6134737273 0.64711912261 28.8199067185 0.647173229509 -151.135331788 0.000677283558485 67.6134737451 0.402992739266 -137.93803547
9.15 0.210905082416 134.316383951 0.546240500626 173.432600716 0.488881495887 -100.713883621 0.646634599651 25.9482424612 0.546240500626 173.432600716 0.210863457022 134.669174469 0.488820908046 -100.770229812 0.646693937831 -154.006409238 0.488881495886 -100.713883621 0.488820908047 -100.770229812 0.722525538671 175.658760565 0.000680197986956 62.7679343149 0.646634599651 25.9482424611 0.646693937832 -154.006409238 0.000680197987135 62.7679343305 0.404536949539 -140.61618404
9.175 0.209095698416 131.639441344 0.547165220618 170.663644899 0.489270429729 -104.931946897 0.646145852621 23.0838044209 0.547165220618 170.663644899 0.209039289375 131.995802585 0.489209146562 -104.989115465 0.646210470823 -156.870270652 0.489270429729 -104.931946897 0.489209146562 -104.989115465 0.721999856894 169.884000605 0.000683033799353 57.9308865567 0.64614585262 23.0838044209 0.646210470824 -156.870270652 0.000683033799506 57.9308865697 0.406087510686 -143.289633771
9.2 0.207310244382 128.971772485 0.548104962559 167.900491 0.489628792578 -109.14235972 0.645652874378 20.2264608099 0.548104962559 167.900491 0.20723889417 129.331618524 0.48956671745 -109.200361275 0.645722822793 -159.727048142 0.489628792578 -109.14235972 0.48956671745 -109.200361275 0.721515015179 164.118727967 0.000685788525421 53.1026456626 0.645652874378 20.2264608098 0.645722822794 -159.727048142 0.000685788525545 53.1026456727 0.40764433944 -145.95846447
9.225 0.20554853477 126.312980288 0.549059133171 165.142925591 0.48995757909 -113.345078782 0.645155656756 17.3760827565 0.549059133171 165.142925591 0.205462084392 126.676220953 0.489894614066 -113.403923257 0.645230987027 -162.57687093 0.48995757909 -113.345078782 0.489894614066 -113.403923257 0.721069775013 158.36340411 0.000688459960916 48.2835125934 0.645155656756 17.3760827564 0.645230987028 -162.57687093 0.000688459961009 48.2835126007 0.409207356783 -148.622755049
9.25 0.203810314197 123.662666171 0.550027063161 162.390744714 0.490257880057 -117.54006865 0.644654190581 14.5325442254 0.550027063161 162.390744714 0.20370860364 124.029207407 0.490193926041 -117.599765285 0.644734955743 -165.419865425 0.490257880057 -117.54006865 0.490193926041 -117.599765285 0.720662760163 152.618437795 0.000691046156417 43.4737756696 0.644654190581 14.5325442254 0.644734955743 -165.419865425 0.00069104615648 43.4737756742 0.410776487819 -151.282583592
9.275 0.202095258264 121.020429485 0.551008013884 159.643754085 0.490530877942 -121.727302089 0.644148465705 11.6957219383 0.551008013884 159.643754085 0.201978127027 121.3901737 0.490465834841 -121.78785942 0.64423472005 -168.256155308 0.490530877942 -121.727302089 0.490465834841 -121.78785942 0.720292462471 146.884188984 0.000693545406581 38.6737119769 0.644148465705 11.6957219383 0.644234720051 -168.256155308 0.000693545406617 38.6737119792 0.412351661641 -153.9380274
9.3 0.200402973733 118.385867283 0.552001183786 156.901769248 0.490777842053 -125.906760402 0.643638471026 8.86549529446 0.552001183786 156.901769248 0.200270261432 118.758713686 0.49071160895 -125.968186248 0.643730269923 -171.085861605 0.490777842053 -125.906760402 0.490711608951 -125.968186248 0.71995724805 141.160972223 0.000695956239711 33.8835885783 0.643638471026 8.86549529446 0.643730269923 -171.085861605 0.000695956239724 33.8835885788 0.413932811205 -156.58916305
9.325 0.198732998406 115.758574433 0.553005714635 154.164615675 0.491000123372 -130.078433775 0.64312419452 6.04174629231 0.553005714635 154.164615675 0.198584545408 116.134419371 0.49093259872 -130.140735226 0.643221594169 -173.90910277 0.491000123372 -130.078433775 0.49093259872 -130.140735226 0.7196553639 135.449059505 0.000698277407665 29.1036635415 0.64312419452 6.04174629232 0.643221594169 -173.90910277 0.000698277407657 29.1036635405 0.415519873203 -159.236066443
9.35 0.197084800984 113.138144059 0.554020697513 151.432128823 0.491199149112 -134.242321614 0.642605623263 3.22435945174 0.554020697513 151.432128823 0.19692044908 113.516881345 0.49113023093 -134.305505023 0.642708680412 -176.725994761 0.491199149112 -134.242321614 0.49113023093 -134.305505023 0.719384944913 129.748682644 0.000700507876131 24.3341867954 0.642605623263 3.22435945174 0.642708680412 -176.725994761 0.000700507876108 24.3341867933 0.41711278794 -161.878812856
9.375 0.195457781131 110.524168269 0.555045178595 148.704154157 0.491376417027 -138.398432884 0.642082743462 0.413221737615 0.555045178595 148.704154157 0.195277374226 110.905689518 0.491306003116 -138.462503858 0.642191515075 -179.536651113 0.491376417027 -138.398432884 0.491306003116 -138.462503858 0.71914402128 124.060035198 0.000702646815264 19.5754008291 0.642082743462 0.413221737626 0.642191515074 -179.536651113 0.00070264681523 19.5754008263 0.418711499216 -164.517476983
9.4 0.193851269921 107.916239129 0.556078164689 145.980547123 0.49153348954 -142.546786432 0.64155554048 -2.39177751534 0.55607816469 145.980547123 0.193654654739 108.300434096 0.491461477695 -142.611749825 0.641670083368 177.658816987 0.49153348954 -142.546786432 0.491461477695 -142.611749825 0.718930526259 118.383273955 0.000704693590664 14.8275412493 0.64155554048 -2.39177751532 0.641670083368 177.658816987 0.000704693590624 14.8275412461 0.420315954208 -167.152132984
9.425 0.192264530766 105.313949843 0.557118628557 143.261173095 0.491671987722 -146.687411294 0.641023998858 -5.19074667628 0.557118628557 143.261173095 0.192051557586 105.700706773 0.491598275956 -146.753271199 0.641144369286 174.860300629 0.491671987722 -146.687411294 0.491598275956 -146.753271199 0.718742304264 112.718520057 0.000706647754675 10.0908372101 0.641023998858 -5.19074667627 0.641144369286 174.860300629 0.000706647754632 10.0908372069 0.421926103352 -169.782854524
9.45 0.190696760881 102.71689607 0.55816551399 140.545907291 0.491793585173 -150.820346981 0.640488102342 -7.98379189038 0.558165513991 140.545907291 0.190467284293 103.106102055 0.491718071939 -150.887106728 0.640614355597 172.067693109 0.491793585173 -150.820346981 0.491718071939 -150.887106728 0.71857711924 107.065859782 0.000708509037969 5.36551173368 0.640488102342 -7.98379189037 0.640614355597 172.067693109 0.000708509037925 5.36551173064 0.423541900234 -172.40971481
9.475 0.189147093314 100.12467734 0.559217740673 137.834634656 0.491900001854 -154.945643745 0.639947833903 -10.7710171492 0.559217740673 137.834634656 0.188900973006 100.516218698 0.491822586274 -155.013305895 0.640080023849 169.28088986 0.491900001854 -154.945643745 0.491822586274 -155.013305895 0.718432663248 101.425345049 0.000710277341384 0.651781935679 0.639947833903 -10.7710171492 0.640080023849 169.28088986 0.000710277341344 0.651781932963 0.425163301477 -175.032786631
9.5 0.187614599486 97.5368985255 0.560274208798 135.127249727 0.491992997905 -159.063362821 0.639403175762 -13.5525243595 0.560274208798 135.127249727 0.187351701079 97.9306611885 0.491913579991 -159.131929165 0.639541354366 166.499788391 0.491992997905 -159.063362821 0.491913579991 -159.131929165 0.718306565215 95.79699369 0.00071195272798 -4.05014082615 0.639403175762 -13.5525243595 0.639541354366 166.499788391 0.000711952727944 -4.05014082843 0.426790266638 -177.652142386
9.525 0.186098292223 94.95317131 0.561333803465 132.423656467 0.49207436749 -163.173576639 0.638854109407 -16.3284134098 0.561333803465 132.423656467 0.185818488135 95.3490412267 0.491992848373 -163.243048195 0.638998326255 163.724288217 0.49207436749 -163.173576639 0.491992848372 -163.243048195 0.71819639977 90.1807895285 0.000713535415275 -8.74005086628 0.638854109407 -16.3284134098 0.638998326255 163.724288217 0.000713535415246 -8.74005086806 0.428422758099 179.732145881
9.55 0.184597129179 92.3731156351 0.562395398846 129.723768092 0.49214593271 -167.27636901 0.638300615611 -19.0987822359 0.562395398846 129.723768092 0.184300299548 92.77097919 0.492062214855 -167.346746024 0.638450917414 160.9542908 0.49214593271 -167.27636901 0.492062214855 -167.346746024 0.718099696081 84.5766823229 0.000715025767641 -13.4177481328 0.638300615611 -19.0987822359 0.638450917414 160.9542908 0.000715025767619 -13.4177481341 0.430060740966 177.120006456
9.575 0.183110016584 89.7963610876 0.563457862115 127.027506868 0.492209537611 -171.371835287 0.637742674447 -21.8637268836 0.563457862115 127.027506868 0.182796050227 90.1961055318 0.492123525039 -171.443117234 0.637899104538 158.189699489 0.492209537611 -171.371835287 0.492123525039 -171.443117234 0.718013946647 78.9845876059 0.000716424288833 -18.0830382022 0.637742674447 -21.8637268836 0.637899104538 158.189699489 0.000716424288819 -18.083038203 0.431704182975 174.51136793
9.6 0.18163581322 87.2225482071 0.564520057169 124.334803908 0.492267042317 -175.460082496 0.637180265306 -24.6233415703 0.564520057169 124.334803908 0.181304608649 87.6240621025 0.492178640815 -175.532268081 0.637342863127 155.43041946 0.492267042317 -175.460082496 0.492178640815 -175.532268081 0.71793661594 73.4043864602 0.000717731614638 -22.7357322942 0.637180265306 -24.6233415703 0.637342863127 155.43041946 0.000717731614632 -22.7357322945 0.433353054389 171.906159178
9.625 0.180173334545 84.6513297011 0.565580848111 121.645598951 0.492320317319 -179.541229439 0.636613366907 -27.3777187442 0.565580848111 121.645598951 0.179824801018 85.054503374 0.492229434651 -179.614316599 0.636782167505 152.676357663 0.492320317319 -179.541229439 0.492229434651 -179.614316599 0.717865148849 67.8359252655 0.000718948505635 -27.3756472955 0.636613366907 -27.3777187442 0.636782167505 152.676357663 0.000718948505636 -27.3756472954 0.435007327911 169.304309339
9.65 0.178721356875 82.0823715576 0.566639102519 118.959840131 0.492371237935 176.384593226 0.636041957306 -30.1269491423 0.566639102519 118.959840131 0.178355415497 82.4870975623 0.492277784038 176.310607315 0.636216990824 149.927422764 0.492371237935 176.384593226 0.492277784038 176.310607315 0.717796978852 62.2790154413 0.000720075840066 -32.0026057816 0.636041957306 -30.1269491423 0.636216990824 149.927422764 0.000720075840072 -32.0026057813 0.43666697859 166.705747798
9.675 0.177278621561 79.5153540514 0.5676936945 116.277483747 0.492421678959 172.317242932 0.635466013907 -32.8711218461 0.5676936945 116.277483747 0.176895206407 79.9215276423 0.492325566142 172.242361853 0.635647305081 147.183525094 0.492421678959 172.317242932 0.492325566142 172.242361853 0.717729535862 56.7334332117 0.000721114606827 -36.6164360283 0.635466013907 -32.8711218461 0.635647305081 147.183525094 0.000721114606837 -36.6164360276 0.438331983734 164.110404178
9.7 0.175843839076 76.9499726485 0.568743507537 113.598494027 0.49247350951 168.256565171 0.634885513468 -35.6103243353 0.568743507537 113.598494027 0.175442898357 77.3574922587 0.492374652641 168.180793258 0.635073081136 144.444576599 0.49247350951 168.256565171 0.492374652641 168.180793258 0.717660253688 51.1989194075 0.000722065898599 -41.2169720041 0.634885513468 -35.6103243353 0.635073081136 144.444576599 0.000722065898613 -41.2169720033 0.440002322829 161.518208325
9.725 0.174415692984 74.3859388108 0.569787437124 110.922842892 0.492528588101 164.202393487 0.634300432106 -38.344642541 0.569787437124 110.922842892 0.173997190221 74.7947065389 0.492426904788 164.125735817 0.634494288721 141.71049079 0.492528588101 164.202393487 0.492426904788 164.125735817 0.717586577092 45.6751793209 0.000722930905131 -45.8040533401 0.634300432106 -38.344642541 0.634494288721 141.71049079 0.000722930905147 -45.8040533393 0.441677977452 158.9290903
9.75 0.172992843726 71.8229807141 0.570824393209 108.250509719 0.492588757913 160.154549478 0.633710745297 -41.0741608956 0.570824393209 108.250509719 0.172556758941 72.2329028167 0.492484168678 160.077011867 0.633910896461 138.981182695 0.492588757913 160.154549478 0.492484168678 160.077011867 0.717505968386 40.1618826198 0.000723710906705 -50.3775252704 0.633710745297 -41.0741608956 0.633910896461 138.981182695 0.000723710906722 -50.3775252695 0.443358931199 156.342980376
9.775 0.171573932194 69.2608438867 0.571853302453 105.581481113 0.492655842291 156.112842831 0.633116427879 -43.7989623822 0.571853302453 105.581481113 0.171120263111 69.6718312787 0.492548270737 156.034431822 0.633322871887 136.256568813 0.492655842291 156.112842831 0.492548270737 156.034431822 0.717415913574 34.6586633257 0.00072440726782 -54.9372385409 0.633116427879 -43.7989623822 0.633322871887 136.256568813 0.000724407267837 -54.9372385401 0.445045169604 153.759809034
9.8 0.170157583075 66.6992917855 0.572873110304 102.915750685 0.492731640454 152.077071353 0.632517454051 -46.5191285823 0.572873110304 102.915750685 0.169686346314 67.1112605474 0.49262101342 151.997794206 0.632730181455 133.536567072 0.492731640454 152.077071353 0.49262101342 151.997794206 0.717313928016 29.1651198569 0.000725021431124 -59.4830492863 0.632517454051 -46.5191285823 0.632730181455 133.536567072 0.00072502143114 -59.4830492856 0.446736680068 151.179506962
9.825 0.168742407948 64.1381063217 0.573882782907 100.253318832 0.492817923405 148.047021027 0.63191379737 -49.2347397215 0.573882782907 100.253318832 0.168253640208 64.5509782165 0.492704171122 147.966885711 0.632132790563 130.821096781 0.492817923405 148.047021027 0.492704171122 147.966885711 0.717197561624 23.6808151317 0.000725554911622 -64.0148188724 0.63191379737 -49.2347397215 0.632132790564 130.821096781 0.000725554911636 -64.0148188718 0.448433451792 148.602005058
9.85 0.167327008115 61.5770883538 0.574881308861 97.5941925343 0.492916430046 144.02246607 0.631305430745 -51.9458747144 0.574881308861 97.5941925343 0.166820767348 61.9907913536 0.492799486274 143.941481252 0.631530663568 128.110078593 0.492916430046 144.02246607 0.492799486274 143.941481252 0.717064403602 18.2052767274 0.000726009291212 -68.5324137072 0.631305430745 -51.9458747144 0.631530663568 128.110078593 0.000726009291223 -68.5324137067 0.450135475705 146.027234436
9.875 0.165909977183 59.0160581627 0.575867700838 94.9383851647 0.493028863461 140.003169003 0.630692326432 -54.6526112074 0.575867700838 94.9383851647 0.165386343736 59.4305269881 0.492908665633 139.921344031 0.630923763801 125.403434462 0.493028863461 140.003169003 0.492908665633 139.921344031 0.716912086754 12.7379970847 0.000726386213572 -73.0357050202 0.630692326432 -54.6526112074 0.630923763801 125.403434462 0.000726386213579 -73.0357050198 0.451842744404 143.455126428
9.9 0.164489903378 56.4548559279 0.576840997074 92.2859163069 0.493156887382 135.988880717 0.630074456025 -57.3550256209 0.576840997074 92.2859163069 0.163948981117 56.8700326014 0.493033376725 135.906225614 0.63031205359 122.701087603 0.493156887382 135.988880717 0.493033376725 135.906225614 0.716738291392 7.27843374775 0.000726687379424 -77.5245686157 0.630074456025 -57.3550256209 0.63031205359 122.701087603 0.000726687379429 -77.5245686155 0.453555252089 140.8856126
9.925 0.163065371624 53.8933422208 0.577800262757 89.6368115941 0.493302122789 131.979340554 0.629451790451 -60.0531931898 0.577800262757 89.6368115941 0.162507289016 54.3091766375 0.493175244449 131.895866 0.629695494275 120.002962456 0.493302122789 131.979340554 0.493175244449 131.895866 0.71654074889 1.82600962839 0.000726914542232 -81.9988846014 0.629451790451 -60.0531931898 0.629695494275 120.002962456 0.000726914542233 -81.9988846013 0.455272994505 138.318624754
9.95 0.161634965373 51.3313985342 0.578744591328 86.9911025624 0.493466144638 127.974276373 0.628824299951 -62.7471880027 0.578744591328 86.9911025624 0.161059876543 51.7478490526 0.49333584779 127.889993695 0.629074046224 117.308984646 0.493466144638 127.974276373 0.49333584779 127.889993695 0.716317244919 -3.6198867197 0.000727069504314 -86.4585370974 0.628824299951 -62.7471880027 0.629074046224 117.308984646 0.000727069504312 -86.4585370974 0.456995968888 135.754094951
9.975 0.160197268227 48.7689278661 0.579673105716 84.3488265231 0.493650478691 123.973404625 0.628191954077 -65.4370830402 0.579673105716 84.3488265231 0.159605353961 49.1859619227 0.49351671665 123.888325782 0.628447668854 114.61908095 0.493650478691 123.973404625 0.49351671665 123.888325782 0.716065622442 -9.05990082901 0.00072715411344 -90.9034139311 0.628191954077 -65.4370830402 0.628447668854 114.61908095 0.000727154113436 -90.9034139312 0.458724173906 133.191955517
10 0.158750865344 46.2058553781 0.580584959531 81.7100264548 0.493856598418 119.976430419 0.627554721672 -68.1229502123 0.580584959531 81.7100264548 0.158142334063 46.6234501288 0.493719328735 119.890567985 0.627816320647 111.933179259 0.493856598418 119.976430419 0.493719328735 119.890567985 0.7157837845 -14.4947120624 0.000727170259885 -95.3334063227 0.627554721672 -68.1229502123 0.627816320647 111.933179259 0.000727170259878 -95.3334063228 0.460457609609 130.632139065
10.025 0.157294344667 43.6421291477 0.581479338232 79.0747509155 0.494085921949 115.983047584 0.626912570863 -70.804860394 0.581479338232 79.0747509155 0.156669433349 44.0602721412 0.493945106503 115.896414737 0.62717995917 109.251208545 0.494085921949 115.983047584 0.493945106503 115.896414737 0.715469696889 -19.9250333863 0.000727119873971 -99.7484085666 0.626912570863 -70.804860394 0.62717995917 109.251208545 0.000727119873963 -99.7484085667 0.46219627738 128.074578512
10.05 0.155826297982 41.0777210366 0.582355460312 76.4430539758 0.494339809037 111.99293872 0.626265469038 -73.4828834604 0.582355460312 76.4430539758 0.155185273045 41.4964109238 0.494195414121 111.905549225 0.626538541088 106.573098825 0.494339809037 111.99293872 0.494195414121 111.905549225 0.715121390759 -25.3516111855 0.000727004924102 -104.148317714 0.626265469038 -73.4828834604 0.626538541088 106.573098825 0.000727004924092 -104.148317714 0.463940179884 125.519207099
10.075 0.154345321839 38.5126276983 0.583212578509 73.8149951745 0.494619558005 108.005775247 0.625613382836 -76.1570883212 0.583212578509 73.8149951745 0.153688479973 38.9318749831 0.494471554407 107.917643442 0.625892022188 103.898781133 0.494619558005 108.005775247 0.494471554407 107.917643442 0.714736965247 -30.7752251296 0.000726827415266 -108.533033265 0.625613382836 -76.1570883212 0.625892022188 103.898781133 0.000726827415257 -108.533033265 0.465689321022 122.96595841
10.1 0.152850018356 35.9468717486 0.58404998108 71.1906394953 0.494926402649 104.021217437 0.624956278129 -78.8275429533 0.58404998108 71.1906394953 0.152177687316 36.3666995861 0.494774765722 103.932358219 0.62524035739 101.228187483 0.494926402649 104.021217437 0.494774765722 103.932358219 0.714314590191 -36.1966881032 0.000726589388027 -112.902456867 0.624956278129 -78.8275429533 0.62524035739 101.228187483 0.000726589388018 -112.902456867 0.46744370589 120.414766402
10.125 0.151338995922 33.3805031276 0.58486699318 68.5700573671 0.495261509055 100.038914442 0.624294120007 -81.4943144337 0.58486699318 68.5700573671 0.150651535278 33.8009481756 0.495106218781 99.9493432511 0.624583500768 98.561250839 0.495261509055 100.038914442 0.495106218781 99.9493432511 0.713852509019 -41.6168462061 0.00072629291796 -117.256492041 0.624294120007 -81.4943144337 0.624583500768 98.561250839 0.000726292917951 -117.256492041 0.469203340726 117.86556542
10.15 0.149810869845 30.8136006816 0.585662978351 65.953324685 0.495625972287 96.0585043106 0.623626872756 -84.1574689702 0.585662978351 65.953324685 0.149108671689 31.2347140134 0.495467013339 95.9682371143 0.623921405569 95.8979050859 0.495625972287 96.0585043106 0.495467013339 95.9682371143 0.713349041886 -47.0365788311 0.000725940115531 -121.595043919 0.623626872756 -84.1574689702 0.623921405569 95.8979050859 0.000725940115523 -121.595043919 0.470968232878 115.318290231
10.175 0.148264262959 28.2462739989 0.586437340185 63.3405228545 0.496020812933 92.0796139855 0.622954499848 -86.8170719328 0.586437340185 63.3405228545 0.147547752581 28.668122084 0.495858174728 91.9886672678 0.623254024226 93.238084997 0.496020812933 92.0796139855 0.495858174728 91.9886672678 0.712802589151 -52.4567988248 0.000725533126388 -125.918019015 0.622954499848 -86.8170719328 0.623254024226 93.238084997 0.000725533126382 -125.918019015 0.472738390753 112.772876043
10.2 0.146697806229 25.6786655357 0.58718952418 60.7317388561 0.496446973438 88.1018593023 0.622276963916 -89.4731878831 0.58718952418 60.7317388561 0.145967442754 26.1013312986 0.496280650182 88.0102500483 0.622581308377 90.5817262054 0.496446973438 88.1018593023 0.496280650182 88.0102500483 0.712211635267 -57.8784527331 0.000725074132035 -130.225325027 0.622276963916 -89.4731878831 0.622581308377 90.5817262054 0.000725074132029 -130.225325027 0.474513823778 110.229258539
10.225 0.145110139388 23.110953074 0.58791901982 58.1270653304 0.496905314212 84.1248449694 0.621594226747 -92.1258806039 0.58791901982 58.1270653304 0.144366416392 23.5345370407 0.496735304943 84.0325906523 0.621903208884 87.9287651746 0.496905314212 84.1248449694 0.496735304943 84.0325906523 0.711574753183 -63.3025211334 0.000724565350849 -134.51687067 0.621594226747 -92.1258806039 0.621903208884 87.9287651746 0.000724565350845 -134.51687067 0.47629454236 107.687373902
10.25 0.143499911639 20.5433525584 0.588625362942 55.5266006827 0.497396609457 80.1481645409 0.620906249254 -94.7752131272 0.588625362942 55.5266006827 0.142743357744 20.9679741015 0.497222918078 80.0552831104 0.621219675847 85.2791391699 0.497396609457 80.1481645409 0.497222918078 80.0552831104 0.710890609341 -68.7300190508 0.000724009039422 -138.792565545 0.620906249254 -94.7752131272 0.621219675847 85.2791391699 0.00072400903942 -138.792565545 0.478080557844 105.147158847
10.275 0.141865782479 17.9761213652 0.589308138395 52.9304492046 0.497921542666 76.1714003806 0.62021299147 -97.4212477625 0.589308138395 52.9304492046 0.141096961936 18.4019200608 0.497744177978 76.0779102513 0.620530658626 82.63278623 0.497921542666 76.1714003806 0.497744177978 76.0779102513 0.710157969363 -74.1619964566 0.00072340749417 -143.052320057 0.62021299147 -97.4212477625 0.620530658626 82.63278623 0.000723407494169 -143.052320057 0.479871882469 102.608550646
10.3 0.140206422671 15.409562065 0.58996698307 50.3387212122 0.498480701773 72.1941236189 0.619514412529 -100.064046124 0.58996698307 50.3387212122 0.139425935944 15.8366991747 0.498299677493 72.1000436602 0.619836105853 79.9896451395 0.498480701773 72.1941236189 0.498299677493 72.1000436602 0.709375704525 -79.5995388411 0.000722763053175 -147.296045361 0.619514412529 -100.064046124 0.619836105853 79.9896451395 0.000722763053175 -147.296045361 0.481668529326 100.071487165
10.325 0.138520515439 12.8440267479 0.590601589314 47.7515331968 0.49907457388 68.2158941034 0.61881047065 -102.703669156 0.590601589314 47.7515331968 0.137728999796 13.2726868433 0.498889908664 68.1212436305 0.619135965455 77.3496554014 0.49907457388 68.2158941034 0.498889908664 68.1212436305 0.708542799117 -85.0437678556 0.000722078098231 -151.523653364 0.61881047065 -102.703669156 0.619135965455 77.3496554014 0.000722078098231 -151.523653364 0.483470512313 97.5359068926
10.35 0.136806757931 10.2799219931 0.591211708782 45.1690079874 0.499703539536 64.2362603472 0.61810112313 -105.340177161 0.591211708782 45.1690079874 0.136004888059 10.7103147401 0.499515256992 64.1410591132 0.618430184666 74.71275721 0.499703539536 64.2362603472 0.499515256992 64.1410591132 0.707658358799 -90.4958420098 0.000721355057026 -155.735056768 0.61810112313 -105.340177161 0.618430184666 74.71275721 0.000721355057028 -155.735056768 0.485277846093 95.0017489692
10.375 0.135063863022 7.71771457432 0.591797156782 42.5912749199 0.500367866522 60.2547594748 0.617386326327 -107.973629825 0.591797156782 42.5912749199 0.134252351688 8.15007669755 0.500175995215 60.159027665 0.617718710055 72.0788914245 0.500367866522 60.2547594748 0.500175995215 60.159027665 0.706721620046 -95.9569574152 0.000720596405452 -159.930169151 0.617386326327 -107.973629825 0.617718710055 72.0788914245 0.000720596405453 -159.930169152 0.487090546041 92.468953223
10.4 0.133290561545 5.15793800909 0.592357817146 40.0184700108 0.501067703075 56.2709171719 0.616666035655 -110.604086239 0.592357817146 40.0184700108 0.132470160308 5.5925354608 0.500872276532 56.1746753988 0.617001487536 69.4479995428 0.501067703075 56.2709171719 0.500872276532 56.1746753988 0.705731960823 -101.428348558 0.000719804669957 -164.108905114 0.616666035655 -110.604086239 0.617001487536 69.4479995428 0.000719804669958 -164.108905114 0.488908628198 89.9374601996
10.425 0.131485605017 2.60120007605 0.592893647676 37.45073613 0.501803070529 52.2842476392 0.615940205576 -113.231604929 0.592893647676 37.45073613 0.130657105028 3.03833043482 0.501604127236 52.1875169403 0.616278462393 66.8200236751 0.501803070529 52.2842476392 0.501604127236 52.1875169403 0.704688912577 -106.911289085 0.000718982429939 -168.271180453 0.615940205576 -113.231604929 0.616278462393 66.8200236751 0.000718982429939 -168.271180453 0.490732109215 87.4072111956
10.45 0.129647768993 0.0481914452539 0.593404686227 34.8882231683 0.502573855305 48.2942535567 0.615208789592 -115.856243875 0.593404686227 34.8882231683 0.128812001897 0.488186574991 0.502371438703 48.1970553939 0.615549579301 64.1949065188 0.502573855305 48.2942535567 0.502371438703 48.1970553939 0.703592173704 -112.407092578 0.000718132320099 -172.416912396 0.615208789592 -115.856243875 0.615549579301 64.1949065188 0.000718132320099 -172.416912396 0.492561006301 84.8781482902
10.475 0.127775857137 -2.50030440995 0.593891057457 32.331088194 0.503379800213 44.3004260612 0.614471740247 -118.47806054 0.593891057457 32.331088194 0.126933696111 -2.05707540721 0.503173958683 44.2027823224 0.614814782345 61.5725913328 0.503379800213 44.3004260612 0.503173958683 44.2027823224 0.702441624592 -117.917113304 0.000717257032732 -176.546019883 0.614471740247 -118.47806054 0.614814782345 61.5725913328 0.000717257032731 -176.546019883 0.494395337158 82.3502143774
10.5 0.125868706167 -5.04339982248 0.594352980308 29.7794955916 0.504220495014 40.3022447434 0.613729009127 -121.097111887 0.594352980308 29.7794955916 0.125021067133 -4.59652732161 0.504011281865 40.2041777466 0.614074015047 58.953021912 0.504220495014 40.3022447434 0.504011281865 40.2041777466 0.701237344396 -123.442746906 0.000716359319889 179.341576103 0.613729009127 -121.097111887 0.614074015047 58.953021912 0.000716359319888 179.341576103 0.49623511992 79.8233531985
10.525 0.123925191826 -7.58008983164 0.594790776265 27.2336171748 0.505095366198 36.2991776687 0.612980546861 -123.713454408 0.594790776265 27.2336171748 0.123073034874 -7.12912002428 0.504882839647 36.2007101689 0.613327220391 56.3361425629 0.505095366198 36.2991776687 0.504882839647 36.2007101689 0.699979629669 -128.985431006 0.000715441995366 175.245952157 0.612980546861 -123.713454408 0.613327220391 56.3361425629 0.000715441995364 175.245952157 0.498080373083 77.2975093733
10.55 0.121944236069 -10.1092371036 0.595204878426 24.6936322668 0.506003665926 32.2906814294 0.612226303132 -126.327144143 0.595204878426 24.6936322668 0.12108856714 -9.65366791422 0.505787889074 32.191836628 0.612574340845 53.7218980786 0.506003665926 32.2906814294 0.505787889074 32.191836628 0.698669014997 -134.546645698 0.000714507936453 171.167182016 0.612226303132 -126.327144143 0.612574340845 53.7218980786 0.000714507936451 171.167182016 0.499931115429 74.7726284314
10.575 0.119924815678 -12.6295545543 0.59559584146 22.1597277358 0.506944460108 28.276201234 0.611466226687 -128.938236704 0.59559584146 22.1597277358 0.119066688563 -12.1688310782 0.506725500914 28.1770027917 0.611815318398 51.1102337138 0.506944460108 28.276201234 0.506725500914 28.1770027917 0.697306295779 -140.127913885 0.000713560085381 167.105336075 0.611466226687 -128.938236704 0.611815318398 51.1102337138 0.000713560085379 167.105336075 0.501787365946 72.2486568433
10.6 0.117865972568 -15.1395853015 0.59596435247 19.6320979767 0.507916615559 24.2551710424 0.610700265356 -131.546787298 0.59596435247 19.6320979767 0.11700649129 -14.6730947042 0.507694546811 24.1556430949 0.611050094583 48.5010951604 0.507916615559 24.2551710424 0.507694546811 24.1556430949 0.695892553294 -145.730801422 0.000712601450385 163.060480842 0.610700265356 -131.546787298 0.611050094583 48.5010951604 0.000712601450384 163.060480842 0.503649143742 69.7255420503
10.625 0.11576682609 -17.6376795058 0.596311242807 17.1109448253 0.508918786219 20.2270137542 0.609928366069 -134.152850747 0.596311242807 17.1109448253 0.114907147741 -17.1647453165 0.508693685495 20.1271809318 0.61027861052 45.894428523 0.508918786219 20.2270137542 0.508693685495 20.1271809318 0.69442918217 -151.356917023 0.000711635106297 159.03267834 0.609928366069 -134.152850747 0.61027861052 45.894428523 0.000711635106297 159.03267834 0.505516467946 67.2032324936
10.65 0.113626587676 -20.1219675824 0.596637500884 14.5964773912 0.509949398387 16.1911414602 0.609150474885 -136.756481511 0.596637500884 14.5964773912 0.11276792581 -19.6418433096 0.509721348025 16.0910289111 0.609500806947 43.2901802943 0.509949398387 16.1911414602 0.509721348025 16.0910289111 0.692917920412 -157.007911886 0.000710664194558 155.021985455 0.609150474885 -136.756481511 0.609500806947 43.2901802943 0.000710664194559 155.021985455 0.507389357611 64.6816776432
10.675 0.111444578265 -22.5903291743 0.596944285998 12.0889117929 0.511006634976 12.1469557672 0.608366537022 -139.357733714 0.596944285998 12.0889117929 0.11058820694 -22.1021911631 0.510775722026 12.0465891847 0.608716624264 40.6882973304 0.511006634976 12.1469557672 0.510775722026 12.0465891847 0.691360882067 -162.685478969 0.00070969192254 151.028453215 0.608366537022 -139.357733714 0.608716624264 40.6882973304 0.000709691922543 151.028453215 0.509267831596 62.1608280254
10.7 0.109220249019 -25.0403571668 0.597232943187 9.58847077876 0.512088418749 8.09384820664 0.6075764969 -141.956661158 0.597232943187 9.58847077876 0.108367507629 -24.5432966176 0.511854734935 7.99325386059 0.607926002579 38.0887268259 0.512088418749 8.09384820664 0.511854734935 7.99325386059 0.689760592621 -168.391351865 0.000708721562027 147.052126018 0.6075764969 -141.956661158 0.607926002579 38.0887268259 0.00070872156203 147.052126018 0.511151908447 59.6406352492
10.725 0.106953205922 -27.4693158999 0.597505019123 7.09538321164 0.513192394564 4.03120073966 0.606780298179 -144.553317355 0.597505019123 7.09538321164 0.10610550496 -26.9623299643 0.512956036232 3.93040551294 0.607128881758 35.4914162895 0.513192394564 4.03120073966 0.512956036232 3.93040551294 0.688120027196 -174.127303205 0.000707756446691 143.093040799 0.606780298179 -144.553317355 0.607128881758 35.4914162895 0.000707756446695 143.093040798 0.513041606267 57.1210520314
10.75 0.104643239023 -29.8740925894 0.59776227902 4.60988339701 0.514315910635 -0.0416136288905 0.60597788382 -147.147755543 0.59776227902 4.60988339701 0.10380206695 -29.356074465 0.514076978704 -0.142582199379 0.606325201479 32.8963135181 0.514315910635 -0.0416136288902 0.514076978704 -0.142582199379 0.686442651536 -179.895142508 0.0007067999684 139.151226135 0.60597788382 -147.147755543 0.606325201479 32.8963135181 0.000706799968406 139.151226135 0.51493694257 54.6020322209
10.775 0.102290357179 -32.2511408017 0.598006724535 2.1322102291 0.51545599884 -4.12523011302 0.605169196137 -149.74002871 0.598006724535 2.1322102291 0.101457288611 -31.7208687613 0.515214598748 -4.22634378997 0.605514901296 30.303366572 0.51545599884 -4.12523011302 0.515214598748 -4.22634378997 0.684732465767 174.303286602 0.000705855572128 135.226701309 0.605169196137 -149.74002871 0.605514901296 30.303366572 0.000705855572133 135.226701308 0.516837934128 52.083530821
10.8 0.0998948293829 -34.5964146492 0.598240612576 -0.337393871116 0.516609354149 -8.22029127013 0.604354176873 -152.330189621 0.598240612576 -0.337393871115 0.0990715348444 -34.0525399634 0.516365595791 -8.32152106381 0.604697920705 27.7125237486 0.516609354149 -8.22029127013 0.516365595791 -8.32152106381 0.68299405081 168.466109908 0.000704926749255 131.319475314 0.604354176873 -152.330189621 0.604697920705 27.7125237486 0.00070492674926 131.319475313 0.518744596801 49.5655040107
10.825 0.0974572339839 -36.9052921735 0.598466474944 -2.79868425505 0.517772313248 -12.3274459712 0.603532767274 -154.918290836 0.598466474944 -2.79868425505 0.0966454914988 -36.346325939 0.517526310913 -12.4287620815 0.603874199219 25.1237335559 0.517772313248 -12.3274459712 0.517526310913 -12.4287620815 0.681232617256 162.591426955 0.000704017029024 127.429545838 0.603532767274 -154.918290836 0.603874199219 25.1237335559 0.000704017029028 127.429545837 0.520656945355 47.0479091639
10.85 0.0949785173568 -39.1724861989 0.598687138656 -5.2514156136 0.518940832469 -16.4473481997 0.602704908179 -157.504384742 0.598687138656 -5.2514156136 0.094180226229 -38.5967851573 0.518692704771 -16.5487199518 0.603043676454 22.5369446862 0.518940832469 -16.4473481997 0.518692704771 -16.5487199518 0.679454056417 156.677316344 0.000703129967888 123.556898219 0.602704908179 -157.504384742 0.603043676454 22.5369446862 0.00070312996789 123.556898219 0.522574993265 44.5307048668
10.875 0.0924600639682 -41.3919407625 0.598905746765 -7.69534384466 0.520110465192 -20.580655662 0.601870540117 -160.08852357 0.598905746765 -7.69534384466 0.0916772611236 -40.7976923287 0.519860334995 -20.6820514351 0.602206292215 19.9521059876 0.520110465192 -20.580655662 0.519860334995 -20.6820514351 0.677664993131 150.721842112 0.00070226913651 119.701504411 0.601870540117 -160.08852357 0.602206292215 19.9521059876 0.000702269136508 119.701504411 0.524498752499 42.013850934
10.9 0.0899037801692 -43.5567111291 0.599125779444 -10.1302282549 0.521276338903 -24.7280281893 0.601029603422 -162.670759429 0.599125779444 -10.1302282549 0.0891386595001 -42.9419180477 0.521024333239 -24.8294153382 0.601361986606 17.3691664364 0.521276338903 -24.7280281893 0.521024333239 -24.8294153382 0.675872839742 144.723061317 0.000701438104173 115.863321973 0.601029603422 -162.670759429 0.601361986605 17.3691664363 0.000701438104168 115.863321974 0.52642823329 39.4973084222
10.925 0.0873121945631 -45.6588254372 0.599351075017 -12.5558341297 0.522433132152 -28.8901259138 0.600182038349 -165.251144328 0.599351075017 -12.5558341297 0.0865671297576 -45.021290793 0.522179382129 -28.9914706824 0.600510700132 14.7880751071 0.522433132152 -28.8901259138 0.522179382129 -28.9914706824 0.674085850523 138.679032979 0.000700640420399 112.04229313 0.600182038349 -165.251144328 0.600510700132 14.7880751071 0.000700640420389 112.042293131 0.528363443884 36.9810396413
10.95 0.0846885783872 -47.6891263139 0.599585850556 -14.9719357057 0.523575051691 -33.0676071983 0.599327785217 -167.829730206 0.599585850556 -14.9719357057 0.0839661497587 -47.0264400933 0.523319692397 -33.1688746253 0.599652373834 12.2087811426 0.523575051691 -33.0676071983 0.523319692397 -33.1688746253 0.672313175577 132.58782853 0.000699879593608 108.238343929 0.599327785217 -167.829730206 0.599652373834 12.2087811426 0.000699879593594 108.23834393 0.530304390268 34.4650081644
10.975 0.0820370900272 -49.6370915499 0.599834721576 -17.3783195761 0.524695810175 -37.2611263002 0.598466784551 -170.406568962 0.599834721576 -17.3783195761 0.0813401158611 -48.94662065 0.524438980567 -37.3622801151 0.598786949417 9.63123372247 0.524695810175 -37.2611263002 0.524438980567 -37.3622801151 0.670564913025 126.447543923 0.000699159066749 104.451383552 0.598466784551 -170.406568962 0.598786949417 9.63123372247 0.00069915906673 104.451383554 0.532251075884 31.9491788346
11 0.079362948531 -51.4906344426 0.600102720268 -19.7747885591 0.525788604803 -41.4713307512 0.597598977255 -172.981712486 0.600102720268 -19.7747885592 0.0786945213973 -50.7695190563 0.525530447588 -41.5723332614 0.597914369404 7.0553820303 0.525788604803 -41.4713307512 0.525530447588 -41.5723332614 0.668852158029 120.256313572 0.000698482189903 100.681303841 0.597598977255 -172.981712486 0.597914369404 7.0553820303 0.00069848218988 100.681303844 0.53420350131 29.4335177693
11.025 0.0766726417295 -53.2358871863 0.600395311593 -22.1611660497 0.526846097432 -45.6988584343 0.596724304788 -175.555212691 0.600395311593 -22.1611660497 0.0760361700402 -52.4810479919 0.526586758934 -45.7996704014 0.597034577299 4.48117521954 0.526846097432 -45.6988584343 0.526586758934 -45.7996704014 0.66718704687 114.012326251 0.000697852190007 96.9279790736 0.596724304788 -175.555212691 0.597034577299 4.48117521954 0.000697852189982 96.9279790766 0.536161663924 26.917992363
11.05 0.0739741751811 -54.8569754608 0.600718406481 -24.5373008703 0.527860396689 -49.9443343407 0.595842709363 -178.127121548 0.600718406481 -24.5373008703 0.0733734299004 -54.0651381813 0.527600026702 -50.0449148462 0.596147517775 1.90856237786 0.527860396689 -49.9443343407 0.527600026702 -50.0449148462 0.665582793999 107.713843121 0.000697272138007 93.1912660729 0.595842709363 -178.127121548 0.596147517775 1.90856237785 0.00069727213798 93.1912660766 0.538125557538 24.4025712857
11.075 0.0712773683641 -56.335800244 0.601078371225 -26.9030726234 0.528823042766 -54.2083669935 0.594954134167 179.302508876 0.601078371225 -26.9030726235 0.0707165341029 -55.5035471087 0.528561794391 -54.3086732924 0.595253136865 -0.662507510273 0.528823042766 -54.2083669935 0.528561794391 -54.3086732924 0.664053719612 101.359217983 0.000696744913878 89.4710047044 0.594954134167 179.302508876 0.595253136865 -0.662507510281 0.000696744913853 89.4710047086 0.540095172011 21.8872244804
11.1 0.068594203869 -57.6518554017 0.601482032107 -29.2583975327 0.529724995595 -58.4915445256 0.594058523593 176.733626383 0.601482032107 -29.2583975327 0.068077932429 -56.7757170116 0.529463025061 -58.5915318877 0.594351382186 -3.23208560279 0.529724995595 -58.4915445256 0.529463025061 -58.5915318877 0.662615264926 94.9469198571 0.000696273170211 85.7670188097 0.594058523593 176.733626383 0.594351382186 -3.2320856028 0.000696273170188 85.7670188141 0.542070492822 19.3719231565
11.125 0.0659392329887 -58.7821288278 0.601936674126 -31.6032347436 0.530556627237 -62.7944304045 0.593155823499 174.166178599 0.601936674126 -31.6032347436 0.0654726955082 -57.8587349338 0.530294093708 -62.8940519417 0.593442203176 -5.80022324129 0.530556627238 -62.7944304045 0.530294093708 -62.8940519417 0.661283991984 88.4755579262 0.000695859295183 82.079117634 0.593155823499 174.166178599 0.593442203176 -5.80022324129 0.000695859295166 82.0791176383 0.54405150062 16.8566397807
11.15 0.0633300357365 -59.7011631357 0.602450032676 -33.9375930296 0.531307719382 -67.1175588019 0.592245981491 171.600112934 0.602450032675 -33.9375930296 0.0629189666158 -58.7274765327 0.531044784735 -67.2167652817 0.592525551357 -8.36697199445 0.531307719382 -67.1175588019 0.531044784735 -67.2167652817 0.660077564443 81.9439088239 0.000695505375983 78.4070977766 0.592245981491 171.600112934 0.592525551357 -8.36697199446 0.000695505375973 78.4070977802 0.54603817074 14.3413480648
11.175 0.0607877229367 -60.3813909718 0.603030276919 -36.2615378244 0.531967466907 -71.4614296112 0.591328947221 169.035376532 0.603030276919 -36.2615378244 0.06043844433 -59.3550539119 0.531704295503 -71.5601692543 0.59160138062 -10.9323837038 0.531967466907 -71.4614296112 0.531704295503 -71.5601692543 0.659014705507 75.3509461715 0.00069521316386 74.7507456804 0.591328947221 169.035376532 0.59160138062 -10.9323837038 0.000695213163857 74.7507456828 0.548030472681 11.8260229509
11.2 0.0583374498441 -60.7939093631 0.603685983597 -38.5751984689 0.532524488557 -75.8265031258 0.590404672718 166.471916226 0.603685983597 -38.5751984689 0.0580568594656 -59.7137338066 0.532261246988 -75.9247213872 0.590669647532 -13.4965105321 0.532524488557 -75.8265031258 0.532261246988 -75.9247213872 0.658115128916 68.6958721677 0.000694984042133 71.1098406535 0.590404672718 166.471916226 0.590669647532 -13.4965105321 0.000694984042137 71.109840654 0.550028369548 9.31064059237
11.225 0.0560088814693 -60.9099101638 0.604426100035 -40.8787755291 0.53296684581 -80.2131943962 0.589473112745 163.909678482 0.604426100035 -40.8787755291 0.0558043790137 -59.7765364329 0.532703702623 -80.3108337293 0.589730311683 -16.0594050141 0.53296684581 -80.2131943962 0.532703702623 -80.3108337293 0.657399438782 61.9781509198 0.000694818998507 67.484158386 0.589473112745 163.909678482 0.589730311683 -16.0594050141 0.000694818998515 67.4841583839 0.552031817456 6.7951783331
11.25 0.0538365068722 -60.7030194588 0.605259895213 -43.172548004 0.533282071051 -84.6218672991 0.58853422518 161.348609347 0.605259895213 -43.172548004 0.0537158268101 -59.5197436726 0.533019196462 -84.7188669011 0.588783336046 -18.6211201107 0.533282071051 -84.6218672991 0.533019196462 -84.7188669011 0.656888994092 55.1975430727 0.000694718603032 63.8734748988 0.58853422518 161.348609347 0.588783336046 -18.6211201107 0.000694718603041 63.8734748933 0.554040764888 4.27961468221
11.275 0.0518596442985 -60.1527755172 0.606196897906 -45.4568802062 0.533457206152 -89.0528283601 0.587587971434 158.788654385 0.606196897906 -45.4568802061 0.0518305585655 -58.9264933878 0.533194771737 -89.1491238978 0.587828687381 -21.1817092655 0.533457206152 -89.0528283601 0.533194771737 -89.1491238978 0.656605733917 48.3541411454 0.000694682992928 60.2775708291 0.587587971434 158.788654385 0.587828687381 -21.1817092655 0.000694682992933 60.2775708198 0.556055152014 1.76392928626
11.3 0.0501219217447 -59.249323522 0.607246821187 -47.732228063 0.533478852543 -93.5063203857 0.586634316895 156.229758617 0.607246821187 -47.7322280629 0.050191781131 -57.9914485872 0.53321703092 -93.6018437007 0.586866336668 -23.7412264653 0.533478852543 -93.5063203857 0.53321703092 -93.6018437007 0.656571959859 41.4484048277 0.000694711865273 56.6962359335 0.586634316895 156.229758617 0.586866336669 -23.7412264652 0.000694711865268 56.69623592 0.558074909957 -0.751897101939
11.325 0.0486699856152 -57.9990448692 0.608419472914 -49.9991445544 0.533333233754 -97.9825159752 0.585673231411 153.671866454 0.608419472915 -49.9991445544 0.0488450921192 -56.7261414319 0.533072198256 -98.0771947678 0.585896259579 -26.2997263033 0.533333233754 -97.9825159752 0.533072198256 -98.0771947678 0.656810073055 34.481195338 0.000694804478257 53.1292736626 0.585673231411 153.671866454 0.585896259579 -26.2997263032 0.000694804478235 53.1292736448 0.560099960015 -3.26788265789
11.35 0.0475512313233 -56.4302362266 0.609724652309 -52.2582839829 0.5330062713 -102.481510999 0.584704689806 151.114921624 0.60972465231 -52.2582839828 0.0478360823018 -55.1640054323 0.532746195634 -102.575268489 0.584918436981 -28.8572640465 0.533006271299 -102.481510999 0.532746195634 -102.575268489 0.65734226418 27.453807797 0.000694959661322 49.5765056508 0.584704689806 151.114921624 0.584918436982 -28.8572640464 0.000694959661276 49.5765056293 0.562130212827 -5.78404452304
11.375 0.0468105194352 -54.5972371683 0.611172033259 -54.5104047558 0.532483674555 -107.003318142 0.583728672437 148.558867096 0.61117203326 -54.5104047557 0.047207034341 -53.3634976754 0.532224732469 -107.096072709 0.583932855494 -31.4138957063 0.532483674555 -107.003318142 0.532224732469 -107.096072709 0.658190156413 20.3680004542 0.000695175834094 46.0377759574 0.583728672437 148.558867096 0.583932855494 -31.4138957063 0.000695175834021 46.0377759332 0.564165567484 -8.30039884572
11.4 0.0464861600044 -52.5809665201 0.612771035662 -56.7563703677 0.531751045061 -111.547860635 0.582745165793 146.003645 0.612771035664 -56.7563703676 0.0469930671736 -51.4074768169 0.531493410006 -111.639525431 0.582939508075 -33.9696781136 0.531751045061 -111.547860635 0.531493410006 -111.639525431 0.659374403236 13.2260195261 0.000695451033561 42.5129548979 0.582745165793 146.003645 0.582939508076 -33.9696781135 0.000695451033462 42.5129548725 0.566205910584 -10.8169608251
11.425 0.0466058393457 -50.4842295823 0.614530686823 -58.9971482892 0.530793995338 -116.114966303 0.581754163134 143.44919654 0.614530686825 -58.9971482892 0.0472184193865 -49.3976162353 0.530537840143 -116.205448841 0.581938394667 -36.5246689973 0.530793995338 -116.114966303 0.530537840143 -116.205448842 0.660914245177 6.0306183786 0.00069578294851 39.0019423243 0.581754163134 143.44919654 0.581938394667 -36.5246689972 0.000695782948394 39.0019423001 0.568251115223 -13.3337447581
11.45 0.0471834302476 -48.4216998491 0.616459475677 -61.2338065149 0.529598281919 -120.704362074 0.580755665178 140.895461906 0.616459475678 -61.2338065149 0.047893746044 -47.4442121798 0.529343778477 -120.7935638 0.580929522883 -39.0789270677 0.529598281919 -120.704362074 0.529343778477 -120.7935638 0.662827032207 -1.2149301669 0.000696168959898 35.5046702354 0.580755665178 140.895461906 0.580929522883 -39.0789270677 0.000696168959783 35.5046702154 0.570301039921 -15.8507640895
11.475 0.0482175455738 -46.5066520962 0.618565203365 -63.4675075869 0.528149951861 -125.315669124 0.57974968084 138.342380171 0.618565203366 -63.4675075868 0.0490151452537 -45.6536598916 0.527897270834 -125.403484951 0.579912908749 -41.6325121039 0.528149951861 -125.315669124 0.527897270834 -125.403484951 0.665127721298 -8.5068295005 0.000696606185503 32.0211046315 0.57974968084 138.342380171 0.579912908749 -41.6325121039 0.000696606185421 32.0211046195 0.572355527483 -18.3680314646
11.5 0.0496922107935 -44.8380586679 0.620854834361 -65.6995000025 0.526435501479 -129.948398802 0.578736228017 135.789889198 0.620854834361 -65.6995000025 0.0505651369892 -44.1169611442 0.526184812025 -130.03471663 0.578888577505 -44.1854850458 0.526435501479 -129.948398802 0.526184812025 -130.03471663 0.667828361512 -15.8407637538 0.000697091527055 28.5512465689 0.578736228017 135.789889198 0.578888577505 -44.1854850458 0.000697091527057 28.5512465691 0.574414403788 -20.8855587843
