! Generated from PyAEDT SolutionData; AEDT ExportNetworkData workaround
# GHz S MA R 50
9 0.45638380492 43.3875066975 0.190697492425 -131.565829578 0.681283199535 -74.0724197082 0.53963088405 37.0831411971 0.190697492425 -131.565829578 0.456446007022 43.4111943548 0.681597926105 -74.0797245815 0.539180652644 -142.935370742 0.681283199535 -74.0724197082 0.681597926105 -74.0797245815 0.266978286812 -7.95751590854 0.000252054520672 -133.845106901 0.53963088405 37.0831411971 0.539180652644 -142.935370742 0.000252054520673 -133.845106901 0.646593124972 -150.734723202
9.025 0.45922514904 40.5274771938 0.188109543673 -135.329421269 0.680294225847 -78.9479312626 0.539378457178 34.2999412828 0.188109543673 -135.329421269 0.459296616634 40.5512116919 0.680608368886 -78.9549484009 0.538921080022 -145.71807797 0.680294225848 -78.9479312626 0.680608368887 -78.9549484009 0.271922862471 -15.5781562127 0.000251833930463 -137.383927012 0.539378457178 34.2999412828 0.538921080022 -145.71807797 0.000251833930079 -137.383927074 0.647019978825 -153.158652388
9.05 0.462065504873 37.6642389189 0.185565032122 -139.075400961 0.679272976299 -83.805482198 0.539121885898 31.5241563319 0.185565032122 -139.075400961 0.462146239036 37.6880344148 0.67958646597 -83.8122089002 0.538657370194 -148.49337981 0.679272976299 -83.805482198 0.679586465971 -83.8122089002 0.276952254562 -23.1066570268 0.000251784177905 -140.911746528 0.539121885897 31.5241563319 0.538657370194 -148.49337981 0.000251784177291 -140.911746619 0.647453253587 -155.5775755
9.075 0.464904317529 34.7983071052 0.183061907687 -142.804792743 0.678221034341 -88.6455022613 0.538861354243 28.7556542718 0.183061907687 -142.804792743 0.464994318955 34.8221787776 0.678533804228 -88.6519358127 0.538389698614 -151.261407892 0.678221034341 -88.6455022613 0.678533804228 -88.6519358128 0.282048807396 -30.5474558659 0.000251903931406 -144.43183129 0.538861354243 28.7556542718 0.538389698614 -151.261407892 0.000251903930682 -144.431831389 0.647892624018 -157.99158678
9.1 0.467741293187 31.9301658289 0.18059793465 -146.518568391 0.677139704342 -93.4684260722 0.538597040332 25.9943057017 0.18059793465 -146.518568391 0.46784056253 31.9541297733 0.67745169128 -93.4745637263 0.538118235569 -154.022291166 0.677139704342 -93.4684260722 0.67745169128 -93.4745637263 0.28719797757 -37.9050572882 0.000252190765608 -147.947223869 0.538597040332 25.9943057017 0.538118235569 -154.022291166 0.000252190764864 -147.947223963 0.648337776016 -160.400778579
9.125 0.470576384921 29.0602656336 0.178170730217 -150.217645704 0.676030029189 -98.2746887397 0.538329116601 23.2399838306 0.178170730217 -150.217645704 0.470684923072 29.0843387587 0.676341173111 -98.2805277023 0.537843146318 -156.77615597 0.676030029189 -98.2746887396 0.676341173111 -98.2805277023 0.292388026264 -45.1839183901 0.000252641360361 -151.460733823 0.538329116601 23.2399838305 0.537843146318 -156.77615597 0.000252641359659 -151.460733906 0.648788406151 -162.80524141
9.15 0.473409775321 26.1890215662 0.175777798624 -153.902887293 0.674892808866 -103.064722022 0.538057750028 20.4925644143 0.175777798624 -153.902887293 0.473527583621 26.2132214937 0.675203052659 -103.070259439 0.537564591238 -159.523126091 0.674892808867 -103.064722022 0.67520305266 -103.070259439 0.297609698725 -52.3883643847 0.000253251671957 -154.974933529 0.538057750028 20.4925644143 0.537564591238 -159.523126091 0.000253251671338 -154.974933596 0.649244221227 -165.205063989
9.175 0.476241856311 23.3168116497 0.17341656122 -157.575099752 0.673728619695 -107.838950999 0.537783102354 17.7519256905 0.17341656122 -157.575099752 0.476368936704 23.3411566189 0.674037909069 -107.844183947 0.537282725971 -162.26332283 0.673728619696 -107.838950999 0.674037909069 -107.844183947 0.302855904522 -59.5225287761 0.000254017079192 -158.492158455 0.537783102354 17.7519256905 0.53728272597 -162.26332283 0.000254017078678 -158.492158506 0.649704937859 -167.60033329
9.2 0.479073206637 20.4439758032 0.171084382986 -161.235033116 0.672537833963 -112.597791223 0.537505330286 15.017948312 0.171084382986 -161.235033116 0.479209561752 20.4684845811 0.672846117328 -112.602716701 0.536997701568 -164.996865069 0.672537833963 -112.597791223 0.672846117328 -112.602716701 0.308121408444 -66.5903132388 0.000254932507023 -162.014510913 0.537505330286 15.017948312 0.536997701568 -164.996865069 0.000254932506623 -162.014510951 0.650170282076 -169.991134584
9.225 0.481904567495 17.570815213 0.168778595873 -164.883380573 0.671320639708 -117.341646313 0.537224585702 12.2905152803 0.168778595873 -164.883380573 0.482050200684 17.5955070105 0.671627868069 -117.346261238 0.536709664642 -167.723869341 0.671320639708 -117.341646313 0.671627868069 -117.346261238 0.313402538791 -73.5953630088 0.000255992530628 -165.54386646 0.537224585702 12.2905152803 0.536709664642 -167.723869341 0.000255992530341 -165.543866485 0.650639988943 -172.377551496
9.25 0.484736816816 14.6975921474 0.166496519337 -168.520778353 0.670077060476 -122.070905955 0.536941015841 9.56951187824 0.166496519337 -168.520778353 0.484891732131 14.7224865441 0.670383187328 -122.075207161 0.53641875751 -170.444449891 0.670077060476 -122.070905955 0.670383187328 -122.075207161 0.318696917411 -80.5410542787 0.000257191462561 -169.081882257 0.536941015841 9.56951187823 0.53641875751 -170.444449891 0.000257191462379 -169.081882273 0.651113802199 -174.759666049
9.275 0.487570942697 11.8245302017 0.164235478389 -172.147805775 0.668806974866 -126.785944286 0.536654763487 6.85482560243 0.164235478389 -172.147805775 0.487735144827 11.8496470766 0.669111956111 -126.78992852 0.536125118343 -173.158718746 0.668806974867 -126.785944286 0.669111956111 -126.78992852 0.324003213921 -87.4304907283 0.000258523425501 -172.630006851 0.536654763487 6.85482560242 0.536125118343 -173.158718746 0.000258523425411 -172.630006861 0.651591473913 -177.137558711
9.3 0.490408016471 8.95181494877 0.16199281948 -175.764985389 0.667510135748 -131.487118609 0.536365967148 4.14634609632 0.16199281948 -175.764985389 0.490581510641 8.97717441998 0.667813929609 -131.490782532 0.535828881308 -175.866785784 0.667510135748 -131.487118609 0.667813929609 -131.490782532 0.32932092515 -94.2665068741 0.00025998241286 -176.189490895 0.536365967148 4.14634609631 0.535828881308 -175.866785784 0.000259982412844 -176.1894909 0.652072764156 -179.511308447
9.325 0.493249165875 6.07959496755 0.159765924466 -179.372783212 0.666186189023 -136.174768421 0.536074761221 1.44396508346 0.159765924466 -179.372783212 0.493431957712 6.10521733938 0.666488755979 -136.178108611 0.535530176716 -178.568758795 0.666186189023 -136.174768421 0.666488755979 -136.178108611 0.334650179772 -101.051676397 0.000261562339255 -179.76139846 0.536074761221 1.44396508346 0.535530176716 -178.568758795 0.000261562339298 -179.761398462 0.652557440691 178.119007238
9.35 0.496095548736 3.20798321429 0.157552222885 177.028391003 0.664834691842 -140.849214724 0.535781276157 -1.25242369848 0.157552222885 177.028391003 0.496287644107 3.23388893174 0.665135994563 -140.852227674 0.53522913116 178.735256452 0.664834691842 -140.849214724 0.665135994563 -140.852227674 0.339991567389 -107.788323994 0.00026325708261 176.653381354 0.535781276157 -1.25242369848 0.53522913116 178.735256452 0.000263257082695 176.653381353 0.653045278669 175.753312251
9.375 0.49894832756 0.337058697772 0.155349202769 173.438183453 0.663455130204 -145.510759573 0.535485638613 -3.94292456285 0.155349202769 173.438183453 0.499149732399 0.363268308364 0.663755133498 -145.5134417 0.534925867658 176.045156141 0.663455130204 -145.510759573 0.663755133498 -145.5134417 0.345345990798 -114.47853961 0.00026506051937 173.054122727 0.535485638613 -3.94292456285 0.534925867658 176.045156141 0.000265060519481 173.054122728 0.653536060348 173.391531864
9.4 0.501808645367 -2.53313158274 0.153154420143 169.856295982 0.662046935869 -150.159685859 0.535187971604 -6.62763993823 0.153154420143 169.856295982 0.502019365482 -2.50659746036 0.662345606629 -150.162033504 0.534620505786 173.360838349 0.662046935869 -150.159685859 0.662345606628 -150.162033504 0.350714539863 -121.124194182 0.00026696655412 169.440251526 0.535187971604 -6.62763993823 0.534620505786 173.360838349 0.000266966554245 169.440251526 0.654029574817 171.033592671
9.425 0.504677603032 -5.40257048012 0.150965507372 166.282485779 0.660609502528 -154.796257279 0.53488839464 -9.3066704314 0.150965507372 166.282485779 0.504897643908 -5.37569118147 0.660906809695 -154.798266714 0.534313161817 170.682202985 0.660609502528 -154.796257279 0.660906809695 -154.798266714 0.356098385233 -127.726956193 0.000268969144681 165.811333919 0.53488839464 -9.30667043139 0.534313161817 170.682202985 0.000268969144808 165.811333919 0.654525617736 168.679422542
9.45 0.507556238386 -8.27126836626 0.148780180488 162.716565121 0.659142201203 -159.420718482 0.534587023866 -11.9801148892 0.148780180488 162.71656512 0.507785604981 -8.24402320075 0.659438115732 -159.42238591 0.534003948849 168.009151722 0.659142201203 -159.420718482 0.659438115732 -159.42238591 0.361498690064 -134.28830853 0.000271062323538 162.167065314 0.534587023866 -11.9801148892 0.534003948849 168.009151722 0.000271062323659 162.167065314 0.65502399108 166.328950581
9.475 0.510445507234 -11.1392606665 0.146596245598 159.158401151 0.657644394833 -164.033295362 0.534283972189 -14.6480704592 0.146596245598 159.158401151 0.510684203782 -11.1116289322 0.657938889658 -164.034616927 0.533692976933 165.341587943 0.657644394833 -164.033295362 0.657938889658 -164.034616927 0.366916537889 -140.809565254 0.000273240216348 158.507259661 0.534283972189 -14.6480704592 0.533692976933 165.341587943 0.000273240216456 158.50725966 0.655524502905 163.982107084
9.5 0.513346266429 -14.0066053031 0.144411604471 155.607915747 0.656115452011 -168.634195483 0.533979349407 -17.3106326486 0.144411604471 155.607915747 0.513594296246 -13.9785662975 0.65640850202 -168.635167274 0.533380353204 162.679416681 0.656115452011 -168.634195483 0.65640850202 -168.635167274 0.372352874837 -147.291887963 0.000275497058078 154.831839179 0.533979349407 -17.3106326486 0.533380353204 162.679416681 0.000275497058168 154.831839178 0.656026967109 161.638823494
9.525 0.516259259083 -16.8733800885 0.142224259375 152.065085466 0.65455475987 -173.223608618 0.533673262325 -19.9678953827 0.142224259375 152.065085466 0.516516624379 -16.8449131151 0.654846341886 -173.224226673 0.533066181996 160.022544557 0.65455475987 -173.223608618 0.654846341886 -173.224226673 0.377808464478 -153.736301567 0.00027782720723 151.140824528 0.533673262325 -19.9678953827 0.533066181996 160.022544557 0.000277827207301 151.140824526 0.65653120321 159.299032368
9.55 0.519185101945 -19.7396801036 0.140032317226 148.529941606 0.652961736079 -177.80170738 0.533365814874 -22.6199510605 0.140032317226 148.529941606 0.519451803644 -19.7107644764 0.653251828838 -177.80196769 0.532750564967 157.370879728 0.652961736079 -177.80170738 0.653251828838 -177.80196769 0.383283853675 -160.143709288 0.000280225158511 147.434325438 0.533365814874 -22.6199510605 0.532750564967 157.370879728 0.000280225158563 147.434325437 0.657037036132 156.962667331
9.575 0.522124274947 -22.6056150968 0.137833993118 145.002570408 0.651335839952 177.631352068 0.533057108222 -25.2668906107 0.137833993118 145.002570408 0.522400312525 -22.576230142 0.651624424089 177.63145355 0.532433601211 154.724331829 0.651335839952 177.631352068 0.651624424089 177.63145355 0.388779347952 -166.5149068 0.000282685554195 143.712531814 0.533057108222 -25.2668906107 0.532433601211 154.724331829 0.000282685554227 143.712531813 0.657544295996 154.62966304
9.6 0.525077112893 -25.4713069336 0.135627613253 141.483113421 0.649676582649 173.075429231 0.532747240879 -27.9088035448 0.135627613253 141.483113421 0.525362484222 -25.4414319892 0.649963640687 173.075896591 0.532115387373 152.08281192 0.649676582649 173.075429231 0.649963640687 173.075896591 0.394294995007 -172.85059544 0.000285203194367 139.975705299 0.532747240879 -27.9088035448 0.532115387373 152.08281192 0.000285203194382 139.975705298 0.658052817914 152.29995515
9.625 0.528043799215 -28.3368871226 0.133411617332 137.971768063 0.64798353647 168.530398454 0.532436308806 -30.5457780098 0.133411617332 137.971768063 0.528338500426 -28.3065015376 0.648269052808 168.531235807 0.531796017755 149.446232433 0.64798353647 168.530398454 0.648269052808 168.531235807 0.399830575145 -179.151394448 0.000287773046199 136.224171305 0.532436308806 -30.5457780098 0.531796017755 149.446232433 0.0002877730462 136.224171304 0.658562441802 149.973480275
9.65 0.531024361727 -31.2024944432 0.131184560424 134.468788415 0.646256343236 163.996148041 0.532124405513 -33.1779008391 0.131184560424 134.468788415 0.531328387082 -31.1715775746 0.646540304138 163.997359531 0.531475584427 146.814507119 0.646256343237 163.996148041 0.646540304138 163.997359531 0.405385597516 174.58214777 0.000290390252325 132.458311497 0.532124405513 -33.1779008391 0.531475584427 146.814507119 0.000290390252314 132.458311497 0.659073012182 147.650175954
9.675 0.534018670258 -34.0682726915 0.12894511435 130.974486289 0.644494721751 159.472579349 0.531811622157 -35.8052576025 0.12894511435 130.974486289 0.534332012042 -34.0368039023 0.644777115339 159.474169142 0.531154177327 144.187550999 0.644494721751 159.472579349 0.644777115339 159.474169142 0.410959301184 168.349543343 0.000293050138388 128.678556727 0.531811622157 -35.8052576025 0.531154177327 144.187550999 0.000293050138369 128.678556728 0.659584378007 145.329980618
9.7 0.537026436064 -36.9343685636 0.126692068609 127.489232617 0.64269847436 154.959605852 0.53149804764 -38.4279326547 0.126692068609 127.489232617 0.537349084485 -36.9023272196 0.642979290608 154.961578132 0.530831884361 141.565280313 0.64269847436 154.959605852 0.642979290608 154.961578132 0.416550660185 162.150355588 0.000295748219775 124.885380403 0.53149804764 -38.4279326547 0.530831884361 141.565280313 0.00029574821975 124.885380404 0.660096392474 143.012833556
9.725 0.540047212869 -39.8009296862 0.124424330862 124.013459221 0.640867492598 150.457152183 0.5311837687 -41.0460091824 0.124424330862 124.013459221 0.540379155981 -39.7682951531 0.641146723326 150.459511151 0.5305087915 138.947612473 0.640867492598 150.457152183 0.641146723326 150.459511151 0.422158391801 155.984190565 0.000298480207572 121.079292276 0.5311837687 -41.0460091824 0.5305087915 138.947612473 0.000298480207544 121.079292278 0.660608912856 140.698674888
9.75 0.543080399427 -42.6681028053 0.122140927025 120.547661017 0.639001761945 145.965153179 0.530868870006 -43.6595692515 0.122140927025 120.547661017 0.543421623059 -42.6348544464 0.639279400811 145.967903047 0.530184982874 136.334466013 0.639001761945 145.965153179 0.639279400811 145.967903047 0.427780967441 149.850689507 0.000301242013723 117.260832659 0.530868870006 -43.6595692515 0.530184982874 136.334466013 0.000301242013695 117.260832661 0.661121800332 138.387445527
9.775 0.546125243448 -45.5360321387 0.119841000966 117.092398743 0.6371013657 141.483552903 0.530553434241 -46.2686938516 0.119841000966 117.092398743 0.546475731153 -45.5021493128 0.637377408195 141.486697894 0.529860540865 133.725760547 0.6371013657 141.483552903 0.637377408195 141.486697894 0.433416625564 143.749522066 0.000304029755419 113.430567028 0.530553434241 -46.2686938516 0.529860540865 133.725760547 0.000304029755393 113.430567029 0.661634919819 136.079087158
9.8 0.549180846757 -48.4048578973 0.117523813872 113.648302292 0.635166487985 137.012303682 0.530237542198 -48.8734629409 0.117523813872 113.648302292 0.54954057977 -48.3703199572 0.635440931422 137.015848024 0.529535546192 131.121416716 0.635166487985 137.012303682 0.635440931422 137.015848024 0.439063386193 137.680380324 0.000306839758696 109.589081029 0.530237542198 -48.8734629409 0.529535546192 131.121416716 0.000306839758674 109.589081031 0.662148139814 133.773542204
9.825 0.552246171546 -51.2747149751 0.115188743292 110.216074741 0.633197415902 132.551365137 0.52992127286 -51.4739554896 0.115188743292 110.216074741 0.552615128762 -51.2395012667 0.633470259413 132.555313063 0.529210078001 128.521356151 0.633197415902 132.551365137 0.633470259413 132.555313063 0.444719066632 131.642973513 0.000309668561266 105.736975864 0.52992127286 -51.4739554896 0.529210078001 128.521356151 0.000309668561247 105.736975866 0.662661332234 131.470753802
9.85 0.555320047589 -54.1457318087 0.112835281927 106.796497229 0.631194540868 128.10070323 0.52960470349 -54.0702495227 0.112835281927 106.796497229 0.555698205548 -54.1098216709 0.631465785392 128.105058975 0.528884213945 125.925501424 0.631194540868 128.10070323 0.631465785392 128.105058975 0.450381298075 125.637023396 0.000312512914576 101.874864034 0.52960470349 -54.0702495227 0.528884213945 125.925501424 0.000312512914562 101.874864036 0.663174372263 129.170665775
9.875 0.558401180273 -57.0180294032 0.11046303618 103.390434783 0.629158359149 123.660289316 0.529287909714 -56.6624221622 0.11046303618 103.390434783 0.558788513162 -56.9814021684 0.629428007424 123.665057116 0.528558030267 123.333776004 0.629158359149 123.660289316 0.629428007424 123.665057116 0.456047542832 119.662260237 0.000315369785134 98.0033654486 0.529287909714 -56.6624221622 0.528558030267 123.333776004 0.000315369785125 98.0033654495 0.663687138201 126.873222607
9.9 0.56148815934 -59.8917205209 0.108071724547 99.9988433041 0.62708947163 119.23009922 0.528970965602 -59.2505496683 0.108071724547 99.9988433041 0.561884639004 -59.8543555163 0.627357528182 119.235283307 0.528231601878 120.746104217 0.62708947163 119.23009922 0.627357528182 119.235283307 0.461715111964 113.718419327 0.000318236355112 94.1231038685 0.528970965602 -59.2505496683 0.528231601878 120.746104217 0.000318236355108 94.1231038691 0.664199511315 124.57836942
9.925 0.56457946819 -62.7669090279 0.105661175897 96.6227778857 0.624988582849 114.810112315 0.528653943758 -61.8347074807 0.105661175897 96.6227778857 0.564985064161 -62.7287855773 0.625255053975 114.81571692 0.527905002433 118.162411203 0.624988582849 114.810112315 0.625255053975 114.81571692 0.467381183146 107.805237995 0.000321110022268 90.2347036816 0.528653943758 -61.8347074807 0.527905002433 118.162411203 0.000321110022268 90.2347036818 0.664711375693 122.286051947
9.95 0.567673493652 -65.6436893916 0.103231327722 93.2634027147 0.62285649933 110.40031064 0.528336915396 -64.4149702589 0.103231327722 93.2634027147 0.568088173188 -65.6047868177 0.623121393087 110.406339989 0.52757830441 115.582622871 0.62285649933 110.40031064 0.623121393087 110.406339989 0.473042818619 101.922453058 0.000323988399232 86.3387869875 0.528336915396 -64.4149702589 0.52757830441 115.582622871 0.000323988399235 86.3387869875 0.665222618104 119.996216514
9.975 0.5707685361 -68.5221463226 0.100782224422 89.9220028469 0.620694127264 106.00067802 0.528019950425 -66.9914119226 0.100782224422 89.922002847 0.571192264234 -68.4824439503 0.620957453453 106.007136335 0.527251579179 113.006665861 0.620694127264 106.00067802 0.620957453453 106.007136335 0.478696983092 96.0697986782 0.000326869312203 82.4359709821 0.528019950425 -66.9914119226 0.527251579179 113.006665861 0.000326869312209 82.4359709818 0.665733127851 117.708810017
10 0.573862819806 -71.4023545533 0.0983140157469 86.5999982013 0.618502469574 101.611199226 0.527703117533 -69.5641056913 0.0983140157469 86.5999982013 0.574295559408 -71.3618317129 0.618764239717 101.618090723 0.526924897074 110.434467502 0.618502469574 101.611199226 0.618764239717 101.618090723 0.4843405615 90.2470045586 0.000329750799116 78.5268656232 0.527703117533 -69.5641056913 0.526924897074 110.434467502 0.000329750799123 78.5268656228 0.66624279664 115.423779898
10.025 0.576954503439 -74.2843787449 0.0958269554848 83.2989601959 0.616282622406 97.2318591513 0.527386484265 -72.1331241243 0.0958269554848 83.2989601959 0.577396215291 -74.2430147757 0.61654284973 97.2391880393 0.526598327466 107.865955769 0.616282622406 97.2318591513 0.61654284973 97.2391880393 0.489970376527 84.4537944541 0.000332631107323 74.612071562 0.527386484265 -72.1331241243 0.526598327466 107.865955769 0.000332631107332 74.6120715615 0.666751518435 113.14107413
10.05 0.580041690602 -77.1682735136 0.0933214005447 80.0206315406 0.614035771103 92.862642013 0.52707011711 -74.6985391605 0.0933214005447 80.0206315406 0.580492333486 -77.1260477682 0.614294470516 92.8704124953 0.526271938829 105.301059244 0.614035771103 92.862642013 0.614294470516 92.8704124953 0.495583205805 78.6898849554 0.000335508690881 70.6921783234 0.52707011711 -74.6985391605 0.526271938829 105.301059244 0.000335508690889 70.6921783228 0.667259189331 110.860641194
10.075 0.583122440341 -80.054083568 0.0907978105815 76.7669498152 0.611763185708 88.5035305881 0.52675408158 -77.2604221579 0.0907978105815 76.7669498152 0.583581971129 -80.0109754162 0.612020373773 88.5117468616 0.525945798812 102.739707076 0.611763185708 88.5035305881 0.612020373773 88.5117468616 0.501175798704 72.9549845106 0.000338382207464 66.7677627178 0.52675408158 -77.2604221579 0.525945798812 102.739707076 0.000338382207471 66.7677627172 0.667765707414 108.58243006
10.1 0.586194777517 -82.9418439483 0.0882567483538 73.5400756069 0.609466216042 84.1545054727 0.526438442292 -79.8188439333 0.0882567483538 73.5400756069 0.586663151285 -82.8978327816 0.609721910953 84.1631717284 0.525619974299 100.181828936 0.609466216042 84.1545054727 0.609721910953 84.1631717284 0.506744892664 67.2487926549 0.000341250515011 62.8393874682 0.526438442292 -79.8188439333 0.525619974299 100.181828936 0.000341250515017 62.8393874677 0.668270972633 106.306390175
10.125 0.589256702987 -85.8315803584 0.0856988810405 70.3424261626 0.607146286416 79.8155443724 0.526123263054 -82.3738748025 0.0856988810405 70.3424261626 0.589733873127 -85.7866455937 0.607400507966 79.8246647961 0.525294531484 97.6273549831 0.607146286416 79.8155443724 0.607400507966 79.8246647961 0.512287228962 61.570999421 0.000344112668122 58.907600035 0.526123263054 -82.3738748025 0.525294531484 97.6273549831 0.000344112668127 58.9076000346 0.668774886667 104.03247144
10.15 0.592306203509 -88.7233095821 0.0831249827884 67.1767157446 0.604804890031 75.486621423 0.525808606946 -84.9255846204 0.0831249827884 67.1767157446 0.592792121859 -88.6774306658 0.605057659582 75.4962001962 0.52496953593 95.0762158169 0.604804890031 75.486621423 0.605057659582 75.4962001962 0.517799567872 55.9212849055 0.0003469679143 54.9729316214 0.525808606946 -84.9255846204 0.52496953593 95.0762158169 0.000346967914303 54.9729316211 0.669277352792 101.760624195
10.175 0.595341261312 -91.6170399738 0.0805359388317 64.0460041703 0.602443583105 71.1677065417 0.525494536404 -87.4740428217 0.0805359388317 64.0460041703 0.595835878291 -91.5701963854 0.602694923559 71.1777478427 0.524645052637 92.5283424406 0.602443583105 71.1677065417 0.602694923559 71.1777478427 0.523278703131 50.299318969 0.000349815690059 51.035896344 0.525494536404 -87.4740428217 0.524645052637 92.5283424406 0.000349815690061 51.0358963439 0.669778275759 99.4907992062
10.2 0.598359863273 -94.5127720171 0.0779327516005 60.9537553948 0.600063978809 66.8587648089 0.525181113305 -90.0193184617 0.0779327516005 60.9537553948 0.598863128026 -94.4649432721 0.600313914568 66.8692728147 0.524321146107 89.9836662176 0.600063978809 66.8587648089 0.600313914568 66.8692728147 0.528721475658 44.7047610527 0.000352655616974 47.0969905522 0.525181113305 -90.0193184617 0.524321146107 89.9836662176 0.000352655616974 47.0969905522 0.670277561659 97.2229476504
10.225 0.601360009642 -97.4104989404 0.0753165493492 57.9039084753 0.597667741027 62.5597558821 0.524868399053 -92.5614802583 0.0753165493492 57.9039084753 0.601871870195 -97.3616645933 0.597916297961 62.5707347702 0.52399788041 87.4421188307 0.597667741027 62.5597558821 0.597916297961 62.5707347702 0.534124786443 39.1372600924 0.000355487497697 43.1566922813 0.524868399053 -92.5614802583 0.52399788041 87.4421188307 0.000355487497696 43.1566922814 0.670775117796 94.9570210991
10.25 0.604339722272 -100.310207384 0.0726885979726 54.9009638813 0.595256578025 58.2706334401 0.524556454662 -95.1005966339 0.0726885979726 54.9009638813 0.604860125691 -100.260347029 0.595503783433 58.2820873909 0.523675319249 84.9036322393 0.595256578025 58.2706334401 0.595503783433 58.2820873909 0.539485608564 33.596454518 0.000358311311997 39.2154608255 0.524556454662 -95.1005966339 0.523675319249 84.9036322393 0.000358311311995 39.2154608257 0.671270852558 92.6929715068
10.275 0.60729705231 -103.211878108 0.0700503168706 51.9500889125 0.592832236057 53.9913446586 0.524245340847 -97.6367357583 0.0700503168706 51.9500889125 0.607825944873 -103.160971383 0.59307811863 54.0032778583 0.523353526025 82.3681386369 0.592832236057 53.9913446586 0.59307811863 54.0032778583 0.544800998265 28.0819723235 0.000361127212845 35.2737364176 0.524245340847 -97.6367357583 0.523353526025 82.3681386369 0.000361127212844 35.2737364178 0.671764675291 90.4307511985
10.3 0.610230087322 -106.11548674 0.0674032999747 49.0572470271 0.590396492965 49.7218297165 0.523935118107 -100.169965593 0.0674032999747 49.0572470272 0.610767414695 -106.063513321 0.590641082742 49.7342463604 0.523032563903 79.8355704076 0.590396492965 49.7218297165 0.590641082742 49.7342463604 0.550068105055 22.5934311993 0.000363935522592 31.3319400022 0.523935118107 -100.169965593 0.523032563903 79.8355704076 0.000363935522591 31.3319400024 0.672256496167 88.1703128575
10.325 0.613136957807 -109.021004546 0.0647493433864 46.2293572217 0.587951151812 45.462021332 0.523625846818 -102.700353934 0.0647493433864 46.2293572217 0.613682665225 -108.967944151 0.588194480142 45.4749256279 0.522712495883 77.305860082 0.587951151812 45.462021332 0.588194480142 45.4749256279 0.555284180783 17.1304387149 0.000366736729253 27.3904730927 0.523625846818 -102.700353934 0.522712495883 77.305860082 0.000366736729252 27.3904730927 0.672746226055 85.9116095143
10.35 0.616015843096 -111.928399226 0.0620904815455 43.4744913413 0.585498034599 41.211844328 0.523317587324 -105.227968462 0.0620904815455 43.4744913413 0.61656987555 -111.874231611 0.585740134098 41.2252405009 0.522393384865 74.7789402924 0.585498034599 41.211844328 0.585740134098 41.2252405009 0.560446587664 11.6925925459 0.000369531482939 23.4497177 0.523317587324 -105.227968462 0.522393384865 74.7789402924 0.00036953148294 23.4497176999 0.673233776391 83.6545945369
10.375 0.618864976597 -114.83763573 0.0594290344679 40.8021194252 0.583038976093 36.9712152255 0.523010400023 -107.752876783 0.0594290344679 40.8021194252 0.619427279037 -114.782340685 0.583279880604 36.9851075221 0.522075293719 72.2547437265 0.583038976093 36.9712152255 0.583279880604 36.9851075221 0.565552805236 6.27948073716 0.000372320592465 19.5100363262 0.523010400023 -107.752876783 0.522075293719 72.2547437265 0.000372320592467 19.5100363259 0.673719059046 81.3992216205
10.4 0.621682650408 -117.748677081 0.0567676694552 38.2234160333 0.580575817817 32.7400418635 0.522704345468 -110.275146481 0.0567676694552 38.2234160333 0.622253167934 -117.692234422 0.580815562362 32.754434558 0.521758285357 69.733203081 0.580575817817 32.7400418635 0.580815562362 32.754434558 0.57060043624 0.890681996271 0.000375105022141 15.5717720123 0.522704345468 -110.275146481 0.521758285357 69.733203081 0.000375105022145 15.5717720119 0.674201986191 79.1454447793
10.425 0.624467219251 -120.661485205 0.054109481859 35.7516440518 0.578110402217 28.5182230448 0.522399484456 -112.794845165 0.054109481859 35.7516440518 0.625045897327 -120.603874771 0.578349022959 28.5331204444 0.521442422806 67.2142510134 0.578110402217 28.5182230448 0.578349022959 28.5331204444 0.575587211437 -4.47423398822 0.000377885888803 11.6352484353 0.522399484456 -112.794845165 0.521442422806 67.2142510134 0.000377885888808 11.6352484347 0.674682470164 76.8932183386
10.45 0.627217103773 -123.576021768 0.0514581011069 33.4026367801 0.575644567049 24.3056482035 0.522095878128 -115.312040524 0.0514581011069 33.4026367801 0.627803888432 -123.517223409 0.575882101246 24.3210546555 0.521127769283 64.6978200923 0.575644567049 24.3056482035 0.575882101246 24.3210546555 0.580510993368 -9.81570620874 0.000380664459088 7.70077004615 0.522095878128 -115.312040524 0.521127769283 64.6978200923 0.000380664459094 7.70077004532 0.675160423329 74.6424969274
10.475 0.629930793181 -126.492249011 0.0488178304335 31.1954040116 0.573180139999 20.1021970948 0.521793588068 -117.826800372 0.0488178304335 31.1954040116 0.630525631247 -126.432242577 0.573416625963 20.1181169941 0.520814388271 62.1838427472 0.573180139999 20.1021970948 0.573416625963 20.1181169941 0.585369779105 -15.1341819853 0.000383442147003 3.76862224406 0.521793588068 -117.826800372 0.520814388271 62.1838427472 0.000383442147011 3.76862224307 0.675635757941 72.3932354726
10.5 0.632606847261 -129.410130581 0.046193831821 29.1528927479 0.570718933569 15.907739502 0.521492676405 -120.33919271 0.046193831821 29.1528927479 0.633209686569 -129.34889591 0.57095441062 15.9241772992 0.520502343598 59.6722512158 0.570718933569 15.907739502 0.57095441062 15.9241772992 0.590161702023 -20.4301166013 0.000386220511823 -0.160928417932 0.521492676405 -120.33919271 0.520502343598 59.6722512158 0.000386220511832 -0.160928419048 0.676108385995 70.1453891933
10.525 0.635243897761 -132.329632361 0.0435923717901 27.3029365444 0.568262740227 11.7221349597 0.521193205916 -122.849285778 0.0435923717901 27.3029365444 0.635854687386 -132.267149259 0.568497248655 11.7390951702 0.520191699524 57.1629774899 0.568262740227 11.7221349597 0.568497248655 11.7390951702 0.594885032655 -25.7039729315 0.000389001256354 -4.08763400162 0.521193205916 -122.849285778 0.520191699524 57.1629774899 0.000389001256363 -4.0876340028 0.676578219086 67.898913597
10.55 0.637840649195 -135.250723289 0.0410211491296 25.679425637 0.565813327856 7.54523248799 0.520895240136 -125.357148116 0.0410211491296 25.679425637 0.638459339685 -135.186971515 0.566046908879 7.5627197021 0.519882520819 54.6559532599 0.565813327856 7.54523248799 0.566046908879 7.5627197021 0.599538178704 -30.956221068 0.000391786225617 -8.01126492997 0.520895240136 -125.357148116 0.519882520819 54.6559532599 0.000391786225626 -8.01126493114 0.677045168256 65.653764476
10.575 0.640395879066 -138.173376178 0.0384897324775 24.3237150614 0.563372435491 3.37687033611 0.520598843467 -127.86284862 0.0384897324775 24.3237150614 0.641022422685 -138.10833542 0.563605131212 3.39488922979 0.519574872858 52.1511098566 0.563372435491 3.37687033611 0.563605131212 3.39488922979 0.604119684263 -36.1873379452 0.000394577406017 -11.9316097157 0.520598843467 -127.86284862 0.519574872858 52.1511098566 0.000394577406025 -11.9316097167 0.677509143835 63.4098979049
10.6 0.642908437559 -141.097568527 0.0360101433228 23.2862438793 0.560941769356 -0.783124270873 0.520304081292 -130.366456611 0.0360101433228 23.2862438793 0.64354278853 -141.031218379 0.561173622729 -0.764568923769 0.519268821713 49.6483781907 0.560941769356 -0.783124270874 0.561173622729 -0.764568923769 0.608628228365 -41.3978069694 0.000397376925041 -15.8484746757 0.520304081292 -130.366456611 0.519268821713 49.6483781907 0.000397376925048 -15.8484746767 0.677970055289 61.16727024
10.625 0.645377246721 -144.023283329 0.0335976264029 22.6282340249 0.558522999209 -4.93493538504 0.520011020098 -132.868041899 0.0335976264029 22.6282340249 0.646019361485 -143.955603259 0.558754053995 -4.91583869965 0.518964434243 47.1476886906 0.558522999209 -4.93493538504 0.558754053995 -4.91583869965 0.613062622908 -46.5881176555 0.00040018705158 -19.7616836364 0.520011020098 -132.868041899 0.518964434243 47.1476886906 0.000400187051587 -19.7616836371 0.678427811046 58.9258381188
10.65 0.647801299169 -146.950509876 0.0312716488387 22.423115037 0.556117754973 -9.07875859424 0.519719727594 -135.367674848 0.0312716488387 22.423115037 0.648451136647 -146.881479198 0.55634805571 -9.05911556027 0.518661778204 44.6489712367 0.556117754973 -9.07875859424 0.55634805571 -9.05911556027 0.61742181008 -51.7587652739 0.00040301019695 -23.6710776325 0.519719727594 -135.367674848 0.518661778204 44.6489712367 0.000403010196955 -23.6710776329 0.678882318333 56.6855584614
10.675 0.650179656368 -149.879244569 0.0290571481088 22.7568876494 0.553727623671 -13.2148012916 0.51943027284 -137.865426454 0.0290571481087 22.7568876494 0.65083717823 -149.808842405 0.553957215637 -13.1946067575 0.518360922348 42.1521550932 0.553727623671 -13.2148012916 0.553957215637 -13.1946067575 0.621704859371 -56.9102505107 0.000405848916693 -27.5765146057 0.51943027284 -137.865426454 0.518360922348 42.1521550932 0.000405848916696 -27.5765146058 0.67933348299 54.4463884729
10.7 0.652511446497 -152.809491732 0.0269859788768 23.7258751608 0.551354146634 -17.3432829621 0.519142726387 -140.361368418 0.0269859788768 23.7258751608 0.653176617449 -152.737696972 0.551583075814 -17.3225316178 0.518061936537 39.6571688364 0.551354146634 -17.3432829621 0.551583075814 -17.3225316178 0.625910964252 -62.0430791447 0.000408705913284 -31.4778691072 0.519142726387 -140.361368418 0.518061936537 39.6571688364 0.000408705913285 -31.477869107 0.679781209289 52.2082856474
10.725 0.654795861962 -155.741264438 0.0250983397489 25.4291660604 0.548998816985 -21.4644354921 0.518857160409 -142.855573224 0.0250983397489 25.4291660604 0.655468650037 -155.668055692 0.549227130042 -21.4431218497 0.517764891857 37.1639402799 0.548998816985 -21.4644354921 0.549227130042 -21.4431218497 0.630039438634 -67.1577617411 0.000411584039835 -35.37503201 0.518857160409 -142.855573224 0.517764891857 37.1639402799 0.000411584039834 -35.3750320096 0.680225399742 49.9712077733
10.75 0.657032156568 -158.674585347 0.0234436286012 27.9518713418 0.546663077373 -25.5785035096 0.518573648856 -145.348114225 0.0234436286012 27.9518713418 0.65771253343 -158.599940901 0.546890821619 -25.5566218833 0.517469860745 34.6723963957 0.546663077373 -25.5785035096 0.546890821619 -25.5566218833 0.634089713179 -72.2548133677 0.000414486304935 -39.2679102368 0.518573648856 -145.348114225 0.517469860745 34.6723963957 0.000414486304933 -39.2679102362 0.680665954893 47.7351129398
10.775 0.6592196424 -161.609487579 0.0220796649232 31.3355621165 0.544348317947 -29.6857447631 0.518292267605 -147.839065729 0.0220796649232 31.3355621165 0.659907583667 -161.533385331 0.544575541319 -29.6632892455 0.51717691711 32.182463231 0.544348317947 -29.6857447631 0.544575541319 -29.6632892455 0.638061331561 -77.3347533306 0.000417415878756 -43.1564265106 0.518292267605 -147.839065729 0.51717691711 32.182463231 0.000417415878754 -43.1564265099 0.681102773112 45.4999595459
10.8 0.661357686429 -164.546015606 0.0210687562037 35.5371176155 0.542055874548 -33.7864305461 0.518013094625 -150.328503095 0.0210687562037 35.5371176155 0.662053172 -164.468433011 0.542282625583 -33.7633949836 0.516886136478 29.6940658209 0.542055874548 -33.7864305461 0.542282625583 -33.7633949836 0.641953946729 -82.3981049341 0.000420376100581 -47.0405191353 0.518013094625 -150.328503095 0.516886136478 29.6940658209 0.000420376100579 -47.0405191347 0.68153575037 43.2657063103
10.825 0.663445706868 -167.484226196 0.0204693968955 40.3896908274 0.539787027091 -37.8808461776 0.517736210149 -152.81650283 0.0204693968955 40.3896908274 0.664148721277 -167.405140193 0.54001335491 -37.8572241427 0.516597596129 27.207128096 0.539787027091 -37.8808461776 0.54001335491 -37.8572241427 0.645767317265 -87.4453952624 0.000423370487907 -50.920141816 0.517736210149 -152.81650283 0.516597596129 27.207128096 0.000423370487906 -50.9201418157 0.681964780005 41.0323122832
10.85 0.665483169298 -170.424189407 0.0203244525163 45.5943328141 0.537542998127 -41.9692915474 0.517461696853 -155.303142692 0.0203244525163 45.5943328141 0.666193702083 -170.343576343 0.537768952417 -41.9450763082 0.516311375252 24.7215727843 0.537542998127 -41.9692915474 0.537768952417 -41.9450763082 0.649501303872 -92.4771549832 0.000426402747314 -54.7952635256 0.517461696853 -155.303142692 0.516311375252 24.7215727843 0.000426402747315 -54.7952635258 0.682389752473 38.7997368609
10.875 0.667469582577 -173.365989641 0.0206501527759 50.7677390379 0.535324951545 -46.0520817374 0.517189640053 -157.788501803 0.0206501527759 50.7677390379 0.668187628662 -173.283825189 0.535550582545 -46.0272662239 0.516027555107 22.2373213081 0.535324951545 -46.0520817374 0.535550582545 -46.0272662239 0.653155866037 -97.493918172 0.00042947678728 -58.6658684308 0.517189640053 -157.788501803 0.516027555107 22.2373213081 0.000429476787284 -58.6658684317 0.68281055509 36.5679398016
10.9 0.669404494517 -176.309726784 0.0214318793222 55.535559393 0.533133991396 -50.1295477291 0.516920127908 -160.272660769 0.0214318793221 55.535559393 0.670130054622 -176.225985845 0.53335934989 -50.1041244963 0.51574621919 19.7542936736 0.533133991396 -50.1295477291 0.53335934989 -50.1041244963 0.656731058913 -102.496222154 0.000432596733167 -62.5319558868 0.516920127908 -160.272660769 0.51574621919 19.7542936736 0.000432596733175 -62.5319558888 0.683227071755 34.3368812441
10.925 0.671287487335 -179.255517427 0.0226293742883 59.6205408378 0.530971160805 -54.2020372106 0.516653251638 -162.755701801 0.0226293742883 59.6205408378 0.672020568409 -179.170174029 0.531196298119 -54.1759983972 0.515467453422 17.2724083541 0.530971160805 -54.2020372106 0.531196298119 -54.1759983972 0.660227030425 -107.484607362 0.000435766944598 -66.3935405139 0.516653251638 -162.755701801 0.515467453422 17.2724083541 0.00043576694461 -66.3935405171 0.683639182653 32.1065217286
10.95 0.673118172847 177.79650379 0.0241880262443 62.8796670618 0.528837440952 -58.2699154957 0.51638910576 -165.237708852 0.0241880262443 62.8796670618 0.673858788523 177.883476611 0.529062408953 -58.2432527786 0.515191346333 14.791582166 0.528837440952 -58.2699154957 0.529062408953 -58.2432527786 0.663644018607 -112.459617198 0.000438992035482 -70.2506523684 0.51638910576 -165.237708852 0.515191346333 14.791582166 0.000438992035499 -70.250652373 0.684046763948 29.8768222203
10.975 0.674896187369 174.846182719 0.0260502672203 65.287955078 0.526733750079 -62.3335665686 0.516127788331 -167.718767762 0.0260502672203 65.287955078 0.67564435845 174.934813044 0.526958601182 -62.3062711124 0.514917989275 12.311730136 0.526733750079 -62.3335665686 0.526958601182 -62.3062711124 0.666982349166 -117.421797911 0.000442276896967 -74.1033372225 0.516127788331 -167.718767762 0.514917989275 12.311730136 0.000442276896989 -74.1033372286 0.684449687446 27.6477441363
11 0.676621186259 171.893344093 0.0281632616171 66.8972991298 0.524660942497 -66.3933942712 0.515869401221 -170.198966409 0.0281632616171 66.8972991298 0.677376941237 171.983661264 0.524885729678 -66.3654566721 0.51464747663 9.83276535978 0.524660942497 -66.3933942712 0.524885729678 -66.3654566721 0.670242433243 -122.371698454 0.000445626723622 -77.9516569689 0.515869401221 -170.198966409 0.51464747663 9.83276535978 0.000445626723648 -77.9516569764 0.684847820244 25.4192493754
11.025 0.678292838049 168.937789739 0.0304824162299 67.7968349091 0.522619807562 -70.4498236478 0.515614050392 -172.678394876 0.0304824162299 67.7968349091 0.679056213656 169.029824519 0.522844584375 -70.4212338705 0.514379906052 7.35459885131 0.522619807562 -70.4498236478 0.522844584375 -70.4212338705 0.673424765342 -127.30987035 0.000449047043194 -81.7956901664 0.515614050392 -172.678394876 0.514379906052 7.35459885131 0.000449047043225 -81.7956901754 0.685241024345 23.1913003514
11.05 0.679910818041 165.979296606 0.0329719996335 68.0857962616 0.520611068585 -74.5033024659 0.515361846209 -175.157145625 0.0329719996335 68.0857962616 0.680681859839 166.073081357 0.52083588919 -74.4740497745 0.514115378704 4.87713938121 0.520611068585 -74.5033024659 0.52083588919 -74.4740497745 0.676529921375 -132.236867516 0.000452543750312 -85.6355327453 0.515361846209 -175.157145625 0.514115378704 4.87713938121 0.000452543750346 -85.6355327553 0.685629156254 20.9638600305
11.075 0.681474801256 163.017614564 0.0356043107735 67.8587147914 0.518635381634 -78.5543029327 0.515112903765 -177.635313693 0.0356043107735 67.8587147914 0.682253564277 163.113183447 0.518860300832 -78.5243758123 0.513853999534 2.40029330405 0.518635381634 -78.5543029327 0.518860300832 -78.5243758123 0.679558556765 -137.153246075 0.000456123144566 -89.4712988905 0.515112903765 -177.635313693 0.513853999534 2.40029330405 0.000456123144601 -89.4712989011 0.686012066539 18.7368919739
11.1 0.682984454584 160.052463953 0.0383583601147 67.1990603975 0.516693334205 -82.6033236281 0.514867343237 179.887003111 0.0383583601146 67.1990603975 0.683771004014 160.149853146 0.51691840748 -82.572709698 0.513595877545 -0.0760356267148 0.516693334205 -82.6033236281 0.51691840748 -82.572709698 0.682511404536 -142.05956411 0.000459791973429 -93.3031221259 0.514867343237 179.887003111 0.513595877545 -0.0760356267196 0.000459791973463 -93.3031221364 0.686389599362 16.510360384
11.125 0.684439427921 157.08353284 0.0412185524847 66.177615215 0.514785443702 -86.6508916771 0.514625290264 177.409703976 0.0412185524847 66.177615215 0.685233839846 157.182780794 0.515010727278 -86.6195775935 0.513341126107 -2.55194645731 0.514785443701 -86.6508916771 0.515010727278 -86.6195775935 0.685389273311 -146.956381367 0.000463557480572 -97.131156621 0.514625290264 177.409703976 0.513341126107 -2.55194645732 0.000463557480603 -97.1311566306 0.686761591971 14.2842301578
11.15 0.685839344077 154.110473954 0.0441735623126 64.8531099709 0.512912155704 -90.6975651869 0.514386876359 174.932684859 0.0441735623126 64.8531099709 0.686641706298 154.211621669 0.513137706612 -90.6655365336 0.513089863278 -5.0275412467 0.512912155704 -90.6975651869 0.513137706612 -90.6655365336 0.688193045129 -151.844258886 0.000467427460175 -100.955578746 0.514386876359 174.932684859 0.513089863278 -5.02754124671 0.000467427460198 -100.955578754 0.687127874156 12.0584669461
11.175 0.687183787154 151.132901252 0.0472154429723 63.2737363485 0.511073841968 -94.7439359762 0.51415223935 172.455838221 0.0472154429723 63.2737363485 0.687994200076 151.235992595 0.511299718122 -94.7111771425 0.512842212147 -7.50292529554 0.511073841968 -94.7439359762 0.511299718122 -94.7111771425 0.690923672999 -156.723758549 0.000471410317929 -104.776588904 0.51415223935 172.455838221 0.512842212147 -7.50292529554 0.00047141031794 -104.776588908 0.687488267659 9.83303722107
11.2 0.688472289051 148.150386062 0.0503389509529 61.4788460625 0.509270798102 -98.7906326255 0.513921523857 169.979052752 0.0503389509529 61.4788460625 0.689290866672 148.255468125 0.509497058403 -98.7571266692 0.512598301213 -9.9782073923 0.509270798102 -98.7906326255 0.509497058403 -98.7571266692 0.693582178066 -161.595442517 0.000475515139546 -108.594413667 0.513921523857 169.979052752 0.512598301213 -9.9782073923 0.000475515139541 -108.594413666 0.687842585542 7.60790835205
11.225 0.689704313673 145.162452765 0.0535410475524 59.5005346181 0.507503240893 -102.838323884 0.513694881807 167.502213067 0.0535410475524 59.5005346181 0.690531184674 145.269576267 0.507729945335 -102.804052377 0.512358264782 -12.4535000782 0.507503240893 -102.838323884 0.507729945335 -102.804052377 0.696169646324 -166.459872554 0.000479751767689 -112.409308256 0.513694881807 167.502213067 0.512358264782 -12.4535000782 0.000479751767663 -112.409308249 0.688190631508 5.38304869283
11.25 0.690879238334 142.168573936 0.0568205407915 57.3650033419 0.505771305184 -106.887722464 0.51347247299 165.025199377 0.0568205407915 57.3650033419 0.691714547315 142.277793679 0.505998514993 -106.852665319 0.512122243396 -14.9289199322 0.505771305185 -106.887722464 0.505998514993 -106.852665319 0.698687224742 -171.317609214 0.000484130888401 -116.221559397 0.51347247299 165.025199377 0.512122243396 -14.9289199322 0.00048413088835 -116.221559382 0.688532199174 3.15842768105
11.275 0.691996331758 139.168164885 0.0601778363806 55.0936838222 0.50407504028 -110.939589271 0.513254465665 162.547887136 0.0601778363806 55.0936838221 0.692840240623 139.279540277 0.504302818066 -110.90372455 0.511890384303 -17.4045878788 0.50407504028 -110.939589271 0.504302818066 -110.90372455 0.701136116725 -176.169210865 0.000488664128279 -120.031488604 0.513254465665 162.547887136 0.511890384303 -17.4045878788 0.000488664128201 -120.031488579 0.688867071292 0.934015952886
11.3 0.693054727933 136.160577523 0.0636147737998 52.7041460623 0.50241440577 -114.994738107 0.513041037207 160.070146656 0.0636147737998 52.7041460622 0.693907417472 136.274173166 0.502642815718 -114.958041795 0.51166284195 -19.880629519 0.50241440577 -114.994738107 0.502642815718 -114.958041795 0.703517576791 178.984767452 0.000493364163859 -123.839455929 0.513041037207 160.070146656 0.51166284195 -19.8806295189 0.00049336416375 -123.839455893 0.689195018936 -1.29021452412
11.325 0.69405339494 133.145093456 0.0671345300742 50.2108233699 0.500789266718 -119.054040892 0.512832374817 157.591842679 0.0671345300742 50.2108233698 0.694915066652 133.260979824 0.501018374795 -119.016486658 0.511439778526 -22.3571754881 0.500789266719 -119.054040892 0.501018374795 -119.016486658 0.7058329044 174.143775363 0.000498244844903 -127.645864244 0.512832374817 157.591842679 0.511439778526 -22.3571754881 0.000498244844764 -127.645864197 0.689515800646 -3.51429029629
11.35 0.6949910977 130.120916215 0.0707415791789 47.6255874937 0.499199388096 -123.118433474 0.512628676285 155.11283393 0.0707415791789 47.6255874936 0.695861975906 130.239170416 0.499429262306 -123.079992387 0.511221364545 -24.8343618422 0.499199388097 -123.118433474 0.499429262306 -123.079992387 0.708083436815 169.307268708 0.000503321333631 -131.451164119 0.512628676285 155.11283393 0.511221364545 -24.8343618421 0.000503321333464 -131.451164062 0.689829161566 -5.73823624237
11.375 0.695866353348 127.087162492 0.0744416992934 44.9582036624 0.497644428374 -127.188922068 0.51243015082 152.632972607 0.0744416992934 44.9582036622 0.696746687665 127.20786916 0.497875139047 -127.149562286 0.511007779474 -27.3123304749 0.497644428375 -127.188922068 0.497875139047 -127.149562286 0.710270540956 164.474711317 0.000508610262236 -135.255859376 0.512430150819 152.632972607 0.511007779474 -27.3123304748 0.000508610262046 -135.255859309 0.690134832583 -7.96207535989
11.4 0.696677377698 124.042852278 0.0782420235688 42.2166901455 0.496123932133 -131.266590406 0.512237019948 150.152103847 0.0782420235688 42.2166901453 0.697567445955 124.166104576 0.496355552263 -131.22627682 0.510799212416 -29.7912295688 0.496123932133 -131.266590406 0.496355552263 -131.22627682 0.712395604154 159.645577032 0.000514129911528 -139.060513398 0.512237019948 150.152103847 0.510799212416 -29.7912295687 0.000514129911327 -139.060513325 0.690432529528 -10.1858285121
11.425 0.697422020904 120.986897726 0.0821511329503 39.4076020828 0.494637321553 -135.352607664 0.512049518494 147.670065123 0.0821511329502 39.4076020827 0.698322132617 121.112798513 0.494869927194 -135.3113015 0.51059586285 -32.2712140836 0.494637321553 -135.352607664 0.494869927194 -135.3113015 0.714460023776 154.819351981 0.000519900414034 -142.865756326 0.512049518494 147.670065122 0.51059586285 -32.2712140836 0.000519900413838 -142.865756254 0.690721952504 -12.4095141274
11.45 0.698097690056 117.918090584 0.0861791921563 36.5362550958 0.493183886622 -139.448237259 0.511867895638 145.186685599 0.0861791921562 36.5362550956 0.699008190593 118.046753758 0.493417557345 -139.405895619 0.510397941431 -34.7524462845 0.493183886623 -139.448237259 0.493417557345 -139.405895619 0.716465195681 149.995537134 0.000525943985533 -146.672293252 0.511867895638 145.186685599 0.510397941431 -34.7524462845 0.000525943985366 -146.672293189 0.69100278544 -14.6331478408
11.475 0.698701255918 114.835088014 0.0903381323774 33.6069007004 0.491762773861 -143.554846594 0.511692416071 142.70178542 0.0903381323774 33.6069007003 0.699622531531 114.966640052 0.491997593286 -143.51142195 0.510205670862 -37.2350963143 0.491762773862 -143.554846594 0.491997593287 -143.51142195 0.718412501506 145.173651135 0.000532285189802 -150.480913576 0.511692416071 142.70178542 0.510205670862 -37.2350963142 0.000532285189697 -150.480913535 0.69127469603 -16.8567420669
11.5 0.699228940455 111.73639655 0.0946418868372 30.6228627229 0.49037297334 -147.673917875 0.511523361249 140.215174928 0.0946418868372 30.6228627229 0.700161424402 111.870978304 0.490609029761 -147.629357485 0.510019286844 -39.7193428141 0.49037297334 -147.673917875 0.490609029761 -147.629357485 0.720303294777 140.353233429 0.000538951242269 -154.292501711 0.511523361249 140.215174928 0.510019286844 -39.7193428141 0.00053895124227 -154.292501711 0.691537336285 -19.0803054906
