! Generated from PyAEDT SolutionData; AEDT ExportNetworkData workaround
# GHz S MA R 50
9 0.37421405598 1.42082107514 0.287206993161 -76.6143545183 0.605509730364 -18.822140696 0.640963298342 44.985403671 0.287206993161 -76.6143545183 0.373090803604 1.36330611576 0.605518099156 -18.9280342145 0.641609871293 -135.156089077 0.605509730364 -18.822140696 0.605518099156 -18.9280342145 0.516435172008 173.813846387 0.00071494230854 -113.324952485 0.640963298342 44.985403671 0.641609871293 -135.156089077 0.000714942308537 -113.324952486 0.421310232603 -133.384641434
9.025 0.372596428367 -1.59148112244 0.286889341295 -80.1994868366 0.607042370416 -23.369911723 0.640596963113 42.1094463421 0.286889341296 -80.1994868366 0.371471240788 -1.6476861558 0.607054569406 -23.4757130832 0.641238521556 -138.032468003 0.607042370417 -23.3699117229 0.607054569405 -23.4757130833 0.512799753966 168.035977605 0.000720139717941 -117.62099934 0.640596963114 42.1094463416 0.641238521556 -138.032468003 0.000720139719597 -117.620999405 0.422431276012 -136.038220998
9.05 0.371031849711 -4.59264802991 0.286606210458 -83.7664863702 0.608522264759 -27.9037265122 0.640226965408 39.2413529565 0.286606210459 -83.7664863704 0.369904389513 -4.64764831045 0.60853847425 -28.0094526176 0.640863609625 -140.901026086 0.60852226476 -27.903726512 0.60853847425 -28.0094526178 0.50926272389 162.270128032 0.000725330378937 -121.920825561 0.640226965409 39.2413529558 0.640863609624 -140.901026085 0.000725330381587 -121.920825669 0.423559628529 -138.686730546
9.075 0.369517550759 -7.58318629678 0.286358195227 -87.3158738556 0.609951471612 -32.4236626234 0.639853331339 36.3809772279 0.286358195228 -87.3158738558 0.368387489419 -7.63709134784 0.609971871249 -32.5293310259 0.640485146147 -143.761906419 0.609951471613 -32.4236626231 0.609971871248 -32.5293310262 0.505820390603 156.517563756 0.000730506263726 -126.224200769 0.63985333134 36.3809772272 0.640485146146 -143.761906418 0.000730506266861 -126.224200901 0.42469515984 -141.330269119
9.1 0.368050717084 -10.5635639349 0.286145696354 -90.8481853842 0.611332117366 -36.9298220414 0.639476085364 33.5281767397 0.286145696356 -90.8481853844 0.366917736509 -10.6164872935 0.611356885907 -37.0354509413 0.640103140529 -146.615248968 0.611332117368 -36.9298220412 0.611356885906 -37.0354509416 0.502468885668 150.779368098 0.000735659285396 -130.530871186 0.639476085365 33.528176739 0.640103140528 -146.615248968 0.000735659288639 -130.530871328 0.42583774435 -143.968933708
9.125 0.366628505393 -13.5342108559 0.285968933458 -94.363968245 0.612666380406 -41.4223284278 0.639095250419 30.6828127453 0.285968933459 -94.3639682452 0.365492299339 -13.5862697439 0.612695695492 -41.5279366735 0.639717600974 -149.46119063 0.612666380408 -41.4223284275 0.612695695491 -41.5279366738 0.499204200031 145.056454204 0.000740781335049 -134.840561268 0.63909525042 30.6828127446 0.639717600973 -149.461190629 0.000740781338134 -134.840561406 0.426987261005 -146.602819311
9.15 0.365248058325 -16.495519479 0.285827957268 -97.8637771423 0.613956476319 -45.9013246035 0.638710848033 27.8447499846 0.285827957269 -97.8637771425 0.364108333711 -16.5468344801 0.613990514236 -46.0069316921 0.639328534514 -152.29986529 0.613956476321 -45.9013246033 0.613990514236 -46.0069316923 0.496022215803 139.349578176 0.000745864317602 -139.152975388 0.638710848034 27.844749984 0.639328534513 -152.29986529 0.000745864320353 -139.152975516 0.42814359313 -149.232018979
9.175 0.363906517945 -19.4478453985 0.285722661352 -101.34817077 0.615204644455 -50.3669702588 0.63832289842 25.013856516 0.285722661353 -101.34817077 0.362762996066 -19.4985401413 0.615243579898 -50.4725963357 0.638935947045 -155.131403893 0.615204644456 -50.3669702586 0.615243579897 -50.4725963359 0.492918733299 133.659352391 0.000750900185937 -143.467799583 0.638322898421 25.0138565155 0.638935947044 -155.131403893 0.000750900188252 -143.467799694 0.429306628266 -151.856623871
9.2 0.362601038072 -22.3915081034 0.285652793269 -104.817708726 0.616413135784 -54.8194398841 0.637931420564 22.1900035614 0.28565279327 -104.817708726 0.361453455711 -22.4417089478 0.61645714161 -54.9251057432 0.638539843367 -157.955934508 0.616413135785 -54.819439884 0.616457141609 -54.9251057433 0.489889493606 127.986258703 0.000755880973084 -147.784703312 0.637931420565 22.190003561 0.638539843366 -157.955934508 0.000755880974916 -147.784703403 0.43047625802 -154.476723304
9.225 0.361328795587 -25.3267917415 0.285617965105 -108.27294874 0.617584201989 -59.2589209127 0.637536432281 19.3730653631 0.285617965105 -108.27294874 0.360176906035 -25.3766274689 0.617633448968 -59.3646479954 0.638140227224 -160.773582398 0.617584201989 -59.2589209126 0.617633448968 -59.3646479955 0.486930197064 122.33066127 0.000760798822161 -152.103341231 0.637536432281 19.3730653629 0.638140227223 -160.773582398 0.000760798823508 -152.1033413 0.431652377911 -157.092404807
9.25 0.360087000835 -28.2539459219 0.285617663385 -111.714444201 0.618720085714 -63.685612066 0.637137950272 16.5629190521 0.285617663385 -111.714444201 0.358930574821 -28.303547428 0.61877474228 -63.7914224605 0.637737101342 -163.584470089 0.618720085715 -63.6856120659 0.618774742279 -63.7914224606 0.484036518137 116.692818801 0.000765646013823 -156.423354937 0.637137950273 16.5629190519 0.637737101342 -163.584470089 0.000765646014714 -156.423354985 0.432834887234 -159.703754172
9.275 0.35887290723 -31.1731865524 0.285651258351 -115.142741965 0.619823011898 -68.0997218895 0.636735990174 13.7594445255 0.285651258352 -115.142741965 0.357711733767 -31.2226865415 0.619883243891 -68.205638329 0.637330467474 -166.388717444 0.619823011899 -68.0997218895 0.619883243891 -68.205638329 0.481204117189 111.072896033 0.000770414991024 -160.744374685 0.636735990174 13.7594445255 0.637330467474 -166.388717444 0.00077041499151 -160.744374712 0.434023688916 -162.310855506
9.3 0.35768382015 -34.0846967054 0.285718012624 -118.558380407 0.620895180105 -72.5014674665 0.636330566588 10.9625243334 0.285718012624 -118.558380407 0.356517707299 -34.134229387 0.620961150516 -72.6075133262 0.636920326438 -169.186441735 0.620895180105 -72.5014674665 0.620961150516 -72.6075133262 0.478428649698 105.470974342 0.000775098380937 -165.066021035 0.636330566588 10.9625243333 0.636920326438 -169.186441735 0.000775098381081 -165.066021043 0.435218689389 -164.913791285
9.325 0.356517105197 -36.9886275107 0.285817089249 -121.961887723 0.621938757767 -76.8910732962 0.635921693113 8.17204357274 0.285817089249 -121.961887723 0.355345880752 -37.0383282966 0.622010626483 -76.9972725906 0.636506678161 -171.977757711 0.621938757767 -76.8910732963 0.622010626483 -76.9972725906 0.475705773435 99.8870613804 0.000779689013941 -169.387906418 0.635921693113 8.17204357277 0.636506678161 -171.977757711 0.000779689013813 -169.387906411 0.43641979846 -167.512642403
9.35 0.35537019589 -39.8850990715 0.285947559182 -125.353780438 0.622955874274 -81.2687703234 0.635509382367 5.38788978946 0.285947559182 -125.353780438 0.354193707987 -39.9351042735 0.623033797815 -81.3751477017 0.636089521723 -174.762777675 0.622955874274 -81.2687703234 0.623033797815 -81.3751477016 0.47303115412 94.3210997147 0.000784179939625 -173.709636607 0.635509382367 5.38788978951 0.636089521723 -174.762777675 0.000784179939294 -173.709636587 0.437626929192 -170.107488223
9.375 0.354240600841 -42.7742013999 0.286108408211 -128.734562121 0.623948615802 -85.6347951046 0.635093646002 2.60995288575 0.286108408211 -128.734562121 0.353058718495 -42.824647928 0.624032747063 -85.7413758458 0.635668855397 -177.54161155 0.623948615801 -85.6347951047 0.624032747063 -85.7413758457 0.470400470015 88.7729744293 0.000788564439838 -178.03081206 0.635093646002 2.60995288583 0.635668855397 -177.54161155 0.000788564439372 -178.030812031 0.438839997784 -172.698406628
9.4 0.353125910466 -45.6559953698 0.286298543377 -132.104722276 0.624919020828 -89.9893890989 0.634674494723 -0.161874966146 0.286298543377 -132.104722276 0.351938524039 -45.707020431 0.625009508826 -90.0961991054 0.635244676693 179.685633046 0.624919020828 -89.9893890989 0.625009508826 -90.0961991053 0.467809415859 83.2425197253 0.000792836038845 177.648970862 0.634674494723 -0.161874966055 0.635244676693 179.685633046 0.000792836038304 177.648970897 0.440058923465 -175.28547407
9.425 0.352023803262 -48.5305136858 0.286516798905 -135.4647354 0.625869076252 -94.3327980673 0.634251938288 -2.92769940536 0.286516798905 -135.4647354 0.350830824866 -48.5822544823 0.625966065864 -94.439863858 0.634816982398 176.918850734 0.625869076252 -94.3327980673 0.625966065865 -94.439863858 0.465253706498 77.7295245391 0.000796988510729 173.330118835 0.634251938288 -2.92769940526 0.634816982398 176.918850733 0.000796988510164 173.330118873 0.44128362838 -177.868765617
9.45 0.350932051692 -51.3977618632 0.286761941708 -138.815060197 0.626800714044 -98.6652715707 0.633825985522 -5.68762395906 0.286761941708 -138.815060197 0.349733415521 -51.4503552916 0.62690434576 -98.7726202731 0.634385768622 174.157938302 0.626800714044 -98.6652715708 0.626904345761 -98.7726202731 0.462729080513 72.2337372395 0.000801015884204 169.01304066 0.633825985522 -5.68762395897 0.634385768622 174.157938302 0.000801015883657 169.013040698 0.442514037495 179.551644998
9.475 0.349848527695 -54.25771922 0.287032676475 -142.156138912 0.627715808375 -102.987062552 0.633396644315 -8.44175011505 0.287032676475 -142.156138912 0.348644190295 -54.3113015694 0.627826218045 -103.094721893 0.633951030834 171.402794643 0.627715808375 -102.987062552 0.627826218045 -103.094721893 0.460231304042 66.7548694691 0.000804912445076 164.698146523 0.633396644315 -8.44175011497 0.633951030835 171.402794643 0.000804912444579 164.698146558 0.443750078492 176.975685332
9.5 0.348771207843 -57.1103398751 0.287327650401 -145.488396808 0.628616173156 -107.298426992 0.632963921625 -11.1901773905 0.287327650401 -145.488396808 0.347561148331 -57.1650465268 0.628733491742 -107.406425286 0.633512763906 168.653320683 0.628616173156 -107.298426992 0.628733491742 -107.406425286 0.457756174995 61.2925992069 0.000808672736603 160.38584743 0.632963921625 -11.1901773904 0.633512763906 168.653320683 0.000808672736179 160.385847462 0.444991681684 174.403284187
9.525 0.347698178183 -59.9555537548 0.287645457579 -148.812241732 0.629503559938 -111.599623626 0.632527823474 -13.9330033974 0.287645457579 -148.812241732 0.346482398395 -60.0115188807 0.629627913274 -111.707989768 0.633070962149 165.909419324 0.629503559938 -111.599623626 0.629627913274 -111.707989768 0.455299527731 55.8465731365 0.000812291558062 156.076554811 0.632527823474 -13.9330033973 0.633070962149 165.909419324 0.000812291557724 156.076554838 0.446238779915 171.834371564
9.55 0.346627638758 -62.7932676012 0.287984643099 -152.128063795 0.630379656124 -115.890913715 0.63208835495 -16.6703239046 0.287984643099 -152.128063795 0.345406163348 -62.8506238639 0.630511164679 -115.999677166 0.632625619355 163.170995373 0.630379656124 -115.890913715 0.630511164679 -115.999677166 0.452857238286 50.4164084056 0.000815763961826 151.770680304 0.63208835495 -16.6703239046 0.632625619355 163.170995373 0.00081576396158 151.770680324 0.447491308487 169.268878624
9.575 0.345557907837 -65.6233659845 0.288343706878 -155.436235127 0.631246083448 -120.172560862 0.631645520199 -19.4022328979 0.288343706878 -155.436235127 0.344330784325 -65.6822442375 0.631384862095 -120.281751634 0.632176728833 160.437955485 0.631246083448 -120.172560862 0.631384862095 -120.281751634 0.450425230136 45.0016938636 0.000819085249308 147.468635706 0.631645520199 -19.4022328978 0.632176728833 160.437955485 0.000819085249152 147.468635719 0.448749205068 166.706737642
9.6 0.344487425874 -68.4457123152 0.288721107253 -158.737109718 0.632104396687 -124.444830854 0.631199322423 -22.1288226361 0.288721107253 -158.737109718 0.343254724633 -68.5062413038 0.632250554472 -124.554479501 0.631724283442 157.710208105 0.632104396687 -124.444830854 0.632250554472 -124.554479501 0.447999480476 39.6019908613 0.000822250966095 143.170833099 0.631199322423 -22.1288226361 0.631724283442 157.710208105 0.000822250966023 143.170833105 0.450012409621 164.147881969
9.625 0.343414759196 -71.2601498563 0.289115264365 -162.031023321 0.632956082561 -128.707991547 0.630749763873 -24.8501837064 0.289115264365 -162.031023321 0.342176573404 -71.3224559203 0.633109722487 -128.818129147 0.63126827563 154.987663406 0.632956082561 -128.707991547 0.633109722487 -128.818129147 0.44557602695 34.2168336928 0.00082525689664 138.877685131 0.630749763873 -24.8501837064 0.63126827563 154.987663406 0.00082525689664 138.877685131 0.451280864327 161.592245992
9.65 0.342338603453 -74.0665027338 0.289524563365 -165.318293411 0.633802558798 -132.962312758 0.630296845843 -27.5664050765 0.289524563365 -165.318293411 0.341095048989 -74.1307095113 0.633963777609 -133.0729709 0.630808697467 152.270233234 0.633802558798 -132.962312758 0.633963777609 -133.0729709 0.443150974752 28.8457297543 0.000828099058824 134.589605452 0.630296845843 -27.5664050765 0.630808697467 152.270233234 0.000828099058883 134.589605446 0.452554513517 159.039765097
9.675 0.341257786841 -76.8645769457 0.289947357448 -168.599219205 0.634645173339 -137.208066183 0.629840568666 -30.2775741447 0.289947357448 -168.599219205 0.340009002143 -76.9308050789 0.634814061311 -137.31927695 0.630345540672 149.557831051 0.634645173339 -137.208066183 0.634814061311 -137.31927695 0.440720504001 23.4881594858 0.000830773698742 130.307009292 0.629840568666 -30.2775741447 0.630345540672 149.557831051 0.000830773698847 130.307009281 0.453833303603 156.490375628
9.7 0.340171273109 -79.6541613692 0.290381970753 -171.874081712 0.635485203651 -141.44552532 0.629380931704 -32.9837767891 0.290381970753 -171.874081712 0.338917418995 -79.722528213 0.635661844391 -141.557321271 0.629878796647 146.850371885 0.635485203652 -141.44552532 0.635661844391 -141.557321271 0.438280877274 18.1435761562 0.000833277285995 126.030314168 0.629380931704 -32.9837767891 0.629878796646 146.850371885 0.00083327728613 126.030314153 0.455117183014 153.944014858
9.725 0.339078164384 -82.4350287677 0.290826701144 -175.143143831 0.636323856133 -145.674965406 0.628917933346 -35.6850974141 0.290826701144 -175.143143831 0.337819423832 -82.5056481008 0.636508326383 -145.787379561 0.629408456503 144.147772276 0.636323856134 -145.674965405 0.636508326383 -145.787379561 0.435828447207 12.8114055418 0.000835606509779 121.759940709 0.628917933346 -35.6850974141 0.629408456503 144.147772276 0.000835606509929 121.759940692 0.456406102137 151.400620949
9.75 0.337977703821 -85.2069367981 0.291279822881 -178.406650466 0.637162265599 -149.89666335 0.628451571004 -38.3816189958 0.291279822881 -178.406650466 0.336714281725 -85.2799185377 0.637354635048 -150.009729172 0.628934511089 141.449950222 0.637162265599 -149.89666335 0.637354635048 -150.009729172 0.43335966404 7.49104554099 0.000837758276026 117.496313591 0.628451571004 -38.3816189958 0.628934511089 141.449950222 0.00083775827618 117.496313573 0.457700013254 148.860132918
9.775 0.336869278101 -87.9696290215 0.2917395892 178.335171329 0.638001494814 -154.110897677 0.627981841101 -41.0734231257 0.2917395892 178.335171329 0.335601400992 -88.0450789425 0.638201825917 -154.224649053 0.628456951011 138.756825137 0.638001494814 -154.110897677 0.638201825917 -154.224649053 0.430871083031 2.18186575874 0.000839729705821 113.239862557 0.627981841101 -41.0734231258 0.62845695101 138.756825137 0.000839729705967 113.239862538 0.458998870493 146.32249061
9.8 0.335752419809 -90.7228359211 0.292204234821 175.082112185 0.638842534087 -158.317948467 0.627508739074 -43.7605900532 0.292204234821 175.082112185 0.334480335561 -90.8008553797 0.639050881886 -158.432419689 0.627975766656 136.068317794 0.638842534087 -158.317948467 0.639050881886 -158.432419689 0.428359371645 -3.11679291471 0.000841518135274 108.991023522 0.627508739074 -43.7605900532 0.627975766656 136.068317794 0.000841518135405 108.991023505 0.460302629772 143.787634661
9.825 0.334626809695 -93.4662759308 0.292671978389 171.833980252 0.639686300889 -162.518097294 0.627032259369 -46.4431987263 0.29267197839 171.833980252 0.333350787207 -93.5469615939 0.639902712846 -162.63332304 0.627490948216 133.384350288 0.639686300889 -162.518097294 0.639902712846 -162.63332304 0.425821316474 -8.40561871289 0.000843121117032 104.750239748 0.627032259369 -46.4431987264 0.627490948216 133.384350288 0.000843121117142 104.750239732 0.461611248746 141.255506471
9.85 0.333492278857 -96.1996564804 0.29314102486 168.590601022 0.6405336395 -166.711627165 0.626552395438 -49.1213268318 0.29314102486 168.590601022 0.332212607727 -96.283100062 0.640758155337 -166.827642481 0.627002485696 130.704845981 0.6405336395 -166.711627165 0.640758155337 -166.827642481 0.423253829822 -13.6853293811 0.000844536423543 100.517963063 0.626552395438 -49.1213268318 0.627002485696 130.704845981 0.000844536423628 100.517963051 0.462924686764 138.726048174
9.875 0.332348810854 -98.9226750645 0.293609567846 165.351817148 0.64138532068 -170.898822457 0.626069139737 -51.7950508333 0.293609567846 165.351817148 0.33106580104 -99.0089630695 0.641617972218 -171.015662734 0.626510368939 128.029729465 0.64138532068 -170.898822457 0.641617972218 -171.015662734 0.420653955964 -18.9566725401 0.000845762052176 96.2946551432 0.626069139737 -51.7950508333 0.626510368939 128.029729465 0.000845762052235 96.294655134 0.464242904818 136.199202607
9.9 0.331196543767 -101.635020343 0.294075791925 162.117488273 0.642242041345 -175.079968851 0.625582483731 -54.4644460092 0.294075791925 162.117488273 0.329910525252 -101.724233819 0.642482852358 -175.197669808 0.62601458763 125.358926516 0.642242041345 -175.079968851 0.642482852358 -175.197669808 0.418018877058 -24.2204260293 0.000846796232292 92.0807888114 0.625582483731 -54.4644460092 0.62601458763 125.358926516 0.000846796232325 92.0807888059 0.4655658655 133.674913288
9.925 0.330035772229 -104.33637328 0.29453787493 158.887490871 0.643104424255 -179.255353267 0.625092417894 -57.1295864883 0.29453787493 158.887490871 0.328747094684 -104.428587582 0.643353410327 -179.373950931 0.625515131311 122.692364051 0.643104424255 -179.255353267 0.643353410327 -179.373950931 0.415345918746 -29.4773982381 0.000847637434306 87.8768493759 0.625092417894 -57.1295864883 0.625515131311 122.692364051 0.000847637434316 87.8768493743 0.466893532961 131.153124388
9.95 0.32886694943 -107.026408337 0.294993990223 155.661718091 0.6439730177 176.5747362 0.624598931713 -59.7905452858 0.294993990223 155.661718091 0.327575981894 -107.121692901 0.64423018609 176.455205516 0.625011989387 120.02997009 0.6439730177 176.5747362 0.64423018609 176.455205516 0.412632555499 -34.7284284383 0.0008482843808 83.6833359814 0.624598931713 -59.7905452858 0.625011989387 120.02997009 0.000848284380791 83.6833359836 0.468225872868 128.6337807
9.975 0.327690689112 -109.704794729 0.295442308963 152.440079632 0.644848295194 172.410010346 0.624102013694 -62.4473943371 0.295442308963 152.440079632 0.326397819677 -109.803212858 0.645113644707 172.289510064 0.624505151129 117.371673713 0.644848295194 172.410010346 0.645113644707 172.289510064 0.409876415754 -39.9743871341 0.000848736059706 79.5007629733 0.624102013694 -62.447394337 0.624505151129 117.371673713 0.000848736059682 79.5007629791 0.469562852365 126.116827624
10 0.326507767538 -112.371197748 0.295881002385 149.222501636 0.645730655157 168.250178921 0.623601651371 -65.100204531 0.295881002385 149.222501636 0.325213403064 -112.472806418 0.646004176021 168.128672215 0.623994605679 114.717405021 0.645730655157 168.250178921 0.646004176021 168.128672215 0.407075286957 -45.21617645 0.000848991739593 75.3296612677 0.623601651371 -65.100204531 0.623994605679 114.717405021 0.000848991739558 75.3296612769 0.470904440035 123.602211136
10.025 0.325319125454 -115.025280188 0.296308244097 146.008926608 0.646620420602 164.094950684 0.623097831314 -67.7490457427 0.296308244097 146.008926608 0.32402369131 -115.130129866 0.646902094354 163.972400504 0.623480342046 112.067095102 0.646620420602 164.094950684 0.646902094354 163.972400504 0.404227120594 -50.4547305765 0.000849050987091 71.1705797223 0.623097831314 -67.7490457427 0.623480342046 112.067095102 0.000849050987051 71.1705797342 0.472250605861 121.089877768
10.05 0.324125870015 -117.666703869 0.296722212409 142.799313367 0.647517838804 159.94403346 0.622590539147 -70.3939868649 0.296722212409 142.799313367 0.322829809845 -117.774838353 0.647807638186 159.820402551 0.622962349106 109.420675987 0.647517838804 159.94403346 0.647807638187 159.820402551 0.401330037354 -55.6910162965 0.000848913686475 67.0240865013 0.622590539147 -70.3939868649 0.622962349106 109.420675987 0.000848913686432 67.0240865154 0.473601321191 118.579774586
10.075 0.322929276658 -120.295131276 0.297121092708 139.593637043 0.648423080981 155.797134189 0.622079759556 -73.0350958388 0.297121092708 139.593637043 0.321633052198 -120.40658756 0.648720969837 155.67238511 0.622440615592 106.778080618 0.648423080981 155.797134189 0.648720969837 155.67238511 0.398382332533 -60.9260336133 0.000848580061455 62.8907704311 0.622079759556 -73.0350958388 0.622440615592 106.778080618 0.000848580061415 62.8907704466 0.474956558702 116.071849168
10.1 0.321730790906 -122.910227348 0.297503079902 136.391889097 0.649336241949 151.65395896 0.621565476309 -75.6724396842 0.297503079902 136.391889097 0.320434881831 -123.025035504 0.649642175137 151.528054105 0.62191513009 104.139242811 0.649336241949 151.65395896 0.649642175137 151.528054105 0.39538248184 -66.160816503 0.000848050699238 58.7712423379 0.621565476309 -75.6724396841 0.62191513009 104.139242811 0.000848050699202 58.7712423543 0.476316292365 113.566049584
10.125 0.320532030043 -125.511661408 0.297866380945 133.194077404 0.650257339787 147.514213048 0.62104767228 -78.3060845285 0.297866380945 133.194077404 0.319236933869 -125.629844506 0.650571263097 147.387114665 0.621385881024 101.504097221 0.650257339786 147.514213048 0.650571263097 147.387114665 0.392329147749 -71.3964338084 0.000847326576911 54.6661363625 0.62104767228 -78.3060845285 0.621385881024 101.504097221 0.000847326576882 54.6661363791 0.477680497409 111.062324378
10.15 0.319334784637 -128.099109277 0.29820921746 130.000226372 0.651186315489 143.377600927 0.620526329463 -80.9360956361 0.29820921746 130.000226372 0.31804101667 -128.220683326 0.651508165569 143.249271138 0.620852856644 98.8725793066 0.651186315489 143.377600927 0.651508165569 143.249271138 0.389221186549 -76.6339902936 0.000846409090265 50.5761112405 0.620526329463 -80.9360956361 0.620852856644 98.8725793066 0.000846409090244 50.5761112567 0.479049150287 108.560622544
10.175 0.318141019829 -130.672255561 0.298529828503 126.810377117 0.652123032619 139.243826287 0.620001429006 -83.5625374358 0.298529828503 126.810377117 0.316849113169 -130.797229493 0.652452736913 139.114227106 0.620316045009 96.244625297 0.652123032619 139.243826287 0.652452736913 139.114227106 0.386057656241 -81.8746278713 0.000845300085141 46.5018515373 0.620001429007 -83.5625374358 0.620316045009 96.244625297 0.000845300085127 46.5018515525 0.480422228643 106.060893513
10.2 0.316952876336 -133.23079616 0.298826473472 123.624587699 0.653067276956 135.112592023 0.619472951234 -86.185473549 0.298826473472 123.624587699 0.315663381936 -133.359171847 0.653404753652 134.981685371 0.619775433969 93.6201721586 0.653067276956 135.112592023 0.653404753652 134.981685371 0.382837825448 -87.1195270118 0.000844001891441 42.444068821 0.619472951234 -86.185473549 0.619775433969 93.6201721586 0.000844001891435 42.4440688348 0.481799711272 103.563087132
10.225 0.31577267108 -135.774440984 0.299097435209 120.44293341 0.654018756152 130.983600216 0.618940875678 -88.8049668162 0.299097435209 120.44293341 0.314486157859 -135.906213299 0.654363914139 130.851347946 0.619231011144 90.9991575623 0.654018756152 130.983600216 0.654363914139 130.851347946 0.379561183477 -92.3699083407 0.000842517359946 38.4035027553 0.618940875678 -88.8049668162 0.619231011144 90.9991575623 0.000842517359946 38.4035027674 0.483181578094 101.067153649
10.25 0.314602897345 -138.302916907 0.299341023316 117.265507134 0.654977099382 126.856552106 0.618405181113 -91.4210793246 0.299341023316 117.265507134 0.313319952359 -138.438073833 0.655329838222 126.722916012 0.618682763902 88.3815198519 0.654977099381 126.856552106 0.655329838222 126.722916012 0.376227451674 -97.62703442 0.000840849902068 34.3809220847 0.618405181113 -91.4210793245 0.618682763902 88.3815198518 0.000840849902073 34.3809220949 0.484567810109 98.5730436945
10.275 0.313446224377 -140.815970969 0.299555577733 114.092419766 0.655941857013 122.731148034 0.617865845593 -94.0338724333 0.299555577733 114.092419766 0.312167453036 -140.954493752 0.656302066923 122.59608987 0.618130679334 85.7671980119 0.655941857012 122.731148034 0.656302066923 122.59608987 0.372836596208 -102.892211708 0.000839003532728 30.3771254829 0.617865845593 -94.0338724333 0.618130679334 85.7671980118 0.000839003532734 30.3771254911 0.485958389365 96.0807082661
10.3 0.312305496289 -143.313373825 0.299739472612 110.92380071 0.656912500279 118.607087379 0.617322846485 -96.6434068006 0.299739472612 110.92380071 0.311031522627 -143.45523719 0.657280062127 118.470568875 0.617574744224 83.1561316374 0.656912500279 118.607087379 0.657280062127 118.470568875 0.369388842406 -108.166792681 0.000836982916468 26.3929422247 0.617322846485 -96.6434068006 0.617574744224 83.1561316374 0.000836982916476 26.3929422309 0.487353298923 93.5900987138
10.325 0.311183730168 -145.794923463 0.299891120533 107.759798445 0.657888420977 114.484068474 0.616776160518 -99.2497424088 0.299891120533 107.759798445 0.309915197156 -145.940095877 0.658263206293 114.346051345 0.617014945029 80.5482609033 0.657888420977 114.484068474 0.658263206293 114.346051345 0.365884690744 -113.452178092 0.000834793416972 22.4292326349 0.616776160518 -99.2497424088 0.617014945029 80.5482609033 0.000834793416979 22.4292326393 0.488752522813 91.1011667245
10.35 0.310084113245 -148.260449169 0.300008977119 104.60058117 0.658868931181 110.361788496 0.616225763821 -101.85293859 0.300008977119 104.60058117 0.308821683129 -148.408893178 0.659250802183 110.22223446 0.616451267842 77.9435265347 0.658868931181 110.361788496 0.659250802183 110.22223446 0.362324934589 -118.749819337 0.000832441150068 18.4868882593 0.616225763821 -101.85293859 0.616451267842 77.9435265347 0.000832441150074 18.486888262 0.490156045997 88.6138643079
10.375 0.309009998978 -150.709815765 0.300091546093 101.446337528 0.659853262995 106.239943346 0.615671631972 -104.453054054 0.300091546093 101.446337528 0.307754353652 -150.861488385 0.660242072631 106.098814132 0.615883698367 75.3418697774 0.659853262995 106.239943346 0.660242072631 106.098814132 0.358710679778 -124.061220874 0.000829933040304 14.5668316908 0.615671631973 -104.453054054 0.615883698367 75.3418697774 0.000829933040308 14.5668316921 0.491563854331 86.1281437823
10.4 0.307964901917 -153.142928078 0.30013738485 98.2972774155 0.660840568335 102.118227498 0.615113740049 -107.050146908 0.30013738485 98.2972774155 0.306716743298 -153.29778126 0.661236160342 101.975484856 0.615312221889 72.743232369 0.660840568335 102.118227498 0.661236160342 101.975484856 0.355043366085 -129.387942658 0.000827276881104 10.6700159754 0.615113740049 -107.050146908 0.615312221889 72.743232369 0.000827276881104 10.6700159757 0.492975934515 83.6439577615
10.425 0.306952491187 -155.559735652 0.300145110593 95.1536328708 0.661829918762 97.9963338327 0.614552062677 -109.64427469 0.300145110593 95.1536328708 0.305712541589 -155.717716816 0.662232127745 97.851939542 0.614736823239 70.147556511 0.661829918762 97.9963338327 0.662232127745 97.851939542 0.351324790629 -134.731602498 0.000824481398432 6.7974235092 0.614552062677 -109.64427469 0.614736823239 70.147556511 0.00082448139843 6.79742350867 0.494392274052 81.1612591413
10.45 0.305976582438 -157.960237662 0.300113407116 92.0156590554 0.662820305372 93.8739534368 0.613986574085 -112.235494387 0.300113407116 92.0156590554 0.304745584922 -158.121290301 0.663228956902 93.727869312 0.614157486768 67.5547848403 0.662820305372 93.8739534368 0.663228956902 93.727869312 0.347557133245 -140.093878274 0.000821556317836 2.95006432602 0.613986574085 -112.235494387 0.614157486768 67.5547848403 0.000821556317832 2.95006432503 0.495812861199 78.6800010876
10.475 0.3050411281 -160.344488011 0.300041032315 88.8836353193 0.663810638752 89.7507753845 0.613417248162 -114.823862467 0.300041032315 88.8836353193 0.30381984679 -160.508552369 0.664225549485 89.6029632798 0.613574196316 64.9648604021 0.663810638752 89.7507753845 0.664225549485 89.6029632798 0.343742983834 -145.476509897 0.000818512434583 -0.871026335715 0.613417248162 -114.823862467 0.613574196316 64.9648604021 0.000818512434579 -0.871026336897 0.497237684918 76.2001370237
10.5 0.304150205802 -162.712600565 0.299926826486 85.757866357 0.664799749011 85.6264864822 0.612844058515 -117.409434901 0.299926826486 85.757866357 0.30293942613 -162.879614383 0.66522072683 85.4769082934 0.612986935182 62.3777266229 0.664799749011 85.6264864822 0.66522072683 85.4769082934 0.339885371661 -150.881300895 0.00081536168652 -4.6647913128 0.612844058515 -117.409434901 0.612986935182 62.3777266229 0.000815361686517 -4.66479131395 0.498666734823 73.7216206184
10.525 0.303308004783 -165.064754479 0.299769721535 82.6386834543 0.665786385912 81.5007709822 0.612266978524 -119.992267188 0.299769721535 82.6386834543 0.302108533651 -165.234653816 0.666213230092 81.3493886465 0.612395686099 59.7933272838 0.665786385912 81.5007709822 0.666213230092 81.3493886465 0.335987796595 -156.310119493 0.000812117229101 -8.4301557796 0.612266978524 -119.992267188 0.612395686099 59.7933272838 0.000812117229098 -8.43015578055 0.500100001118 71.2444057748
10.55 0.302518810166 -167.401199572 0.299568751165 79.5264458236 0.666769219101 77.3733102586 0.61168598141 -122.572414389 0.299568751165 79.5264458236 0.301331475995 -167.573919683 0.667201720503 77.2200857518 0.611800431207 57.211606494 0.666769219101 77.3733102586 0.667201720503 77.2200857518 0.332054262207 -161.764898999 0.000808793511864 -12.1660326403 0.61168598141 -122.572414389 0.611800431207 57.211606494 0.000808793511864 -12.166032641 0.501537474545 68.7684466191
10.575 0.301786984945 -169.722261661 0.299323062184 76.4215420292 0.667746838464 73.2437824405 0.611101040294 -125.149931144 0.299323062184 76.4215420292 0.300612637586 -169.897737943 0.668184779753 73.0886777718 0.611201152033 54.632508665 0.667746838464 73.2437824405 0.668184779753 73.0886777718 0.328089310665 -167.247637319 0.00080540635547 -15.8713292071 0.611101040294 -125.149931144 0.611201152033 54.632508665 0.000805406355473 -15.8713292074 0.502979146315 66.2936974895
10.6 0.301116949566 -172.028347816 0.299031927019 73.3243914993 0.668717754621 69.1118619972 0.61051212826 -127.724871709 0.299031927019 73.3243914993 0.29995646004 -172.206516798 0.669160910513 68.9548392005 0.610597829472 52.055978485 0.668717754621 69.1118619972 0.669160910513 68.9548392005 0.324098059302 -172.760395366 0.00080197302816 -19.5449553269 0.61051212826 -127.724871709 0.610597829472 52.055978485 0.000801973028165 -19.544955327 0.504425008039 63.8201129254
10.625 0.300513158982 -174.319951426 0.298694757592 70.2354461219 0.669680399569 64.9772192669 0.609919218425 -130.297289975 0.298694757592 70.2354461219 0.299367419027 -174.500751813 0.670128537117 64.8182403894 0.609990443771 49.4819608934 0.669680399569 64.9772192669 0.670128537117 64.8182403894 0.320086238717 -178.305294101 0.000798512320291 -23.1858331211 0.609919218425 -130.297289975 0.609990443771 49.4819608934 0.000798512320299 -23.1858331209 0.505875051658 61.3476476574
10.65 0.299980077092 -176.597657021 0.298311120691 67.1551919198 0.670633127507 60.8395199223 0.609322283996 -132.867239503 0.298311120691 67.1551919198 0.298849998475 -176.781030762 0.671086006411 60.6785470094 0.60937897452 46.910401055 0.670633127507 60.8395199223 0.671086006411 60.6785470094 0.316060232214 176.115490095 0.000795044615349 -26.7929085013 0.609322283996 -132.867239503 0.60937897452 46.910401055 0.000795044615358 -26.792908501 0.507329269362 58.8762565968
10.675 0.299522148465 -178.862144734 0.297880755008 64.0841507983 0.671574215841 56.6984243609 0.608721298347 -135.434773552 0.297880755008 64.0841507983 0.298408662046 -179.048038111 0.672031588802 56.535419437 0.608763400648 44.3412443356 0.671574215841 56.6984243609 0.672031588802 56.535419437 0.312027116337 170.499732068 0.000791591955574 -30.3651646148 0.608721298347 -135.434773552 0.608763400648 44.3412443356 0.000791591955583 -30.3651646144 0.508787653506 56.4058948253
10.7 0.299143767296 178.885805663 0.297403590012 61.0228823558 0.672501866401 52.5535870089 0.608116235078 -137.999945103 0.297403590012 61.0228823558 0.298047821807 178.697440941 0.672963479513 52.3885120548 0.608143700427 41.7744362761 0.672501866401 52.5535870089 0.672963479513 52.3885120548 0.307994702188 164.845166946 0.000788178100062 -33.9016373565 0.608116235078 -137.999945103 0.608143700427 41.7744362761 0.00078817810007 -33.9016373562 0.510250196517 53.9365175853
10.725 0.298849243551 176.645311262 0.296879766867 57.9719857471 0.673414206883 48.4046555244 0.607507068083 -140.562806899 0.296879766867 57.9719857471 0.297771804057 176.454516975 0.673879800065 48.2374724496 0.607519851477 39.2099225673 0.673414206883 48.4046555244 0.673879800065 48.2374724496 0.30397157712 159.149502051 0.000784828572925 -37.4014330589 0.607507068083 -140.562806899 0.607519851477 39.2099225673 0.000784828572931 -37.4014330587 0.511716890803 51.4680802701
10.75 0.298642766251 174.415383128 0.296309661632 54.9321015803 0.674309292524 44.2512698831 0.606893771622 -143.123411465 0.296309661632 54.9321015803 0.297584812285 174.222193498 0.674778600003 44.0819404932 0.60689183079 36.6476490245 0.674309292524 44.2512698831 0.674778600003 44.0819404932 0.299967146292 153.410432162 0.000781570698823 -40.8637484307 0.606893771622 -143.123411465 0.60689183079 36.6476490245 0.000781570698826 -40.8637484307 0.513187728638 49.0005384134
10.775 0.298528363906 172.194924111 0.29569391099 51.9039138305 0.675185108035 40.0930613262 0.606276320378 -145.681811148 0.29569391099 51.9039138305 0.297490887236 171.999364801 0.675657858873 39.9215472854 0.606259614755 34.0875615614 0.675185108035 40.0930613262 0.675657858873 39.9215472854 0.295991673426 147.625658683 0.000778433622889 -44.2878927663 0.606276320378 -145.681811148 0.606259614755 34.0875615614 0.000778433622888 -44.2878927664 0.514662702058 46.5338476803
10.8 0.29850986208 169.982727428 0.295033440812 48.8881517402 0.676039569786 35.9296511495 0.605654689533 -148.238058145 0.295033440812 48.8881517402 0.297493864112 169.784814613 0.676515488471 35.7559139366 0.605623179194 31.5296061641 0.676039569786 35.9296511495 0.676515488471 35.7559139366 0.292056319927 141.792913298 0.000775448311851 -47.673312379 0.605654689533 -148.238058145 0.605623179194 31.5296061641 0.000775448311848 -47.6733123792 0.51614180273 44.0679638566
10.825 0.298590838117 167.777476071 0.294329497903 45.8855916753 0.676870528268 31.7606493055 0.605028854826 -150.792204537 0.294329497903 45.8855916753 0.297597326892 167.577215598 0.677349335355 31.5846501635 0.604982499416 28.9737288635 0.676870528268 31.7606493055 0.677349335355 31.5846501635 0.288173181295 135.909986751 0.00077264753289 -51.0196171283 0.605028854826 -150.792204537 0.604982499416 28.9737288635 0.000772647532887 -51.0196171286 0.517625021824 41.6028428392
10.85 0.298774573028 165.577743086 0.293583685306 42.8970588903 0.67767577081 27.5856527882 0.604398792618 -153.344302323 0.293583685306 42.8970588903 0.297804559832 165.375129741 0.678157183634 27.4073526668 0.604337550275 26.419875708 0.67767577081 27.5856527882 0.678157183634 27.4073526668 0.284355319505 129.974763388 0.00077006580663 -54.3266088117 0.604398792618 -153.344302323 0.604337550275 26.419875708 0.00077006580663 -54.3266088118 0.519112349871 39.138440626
10.875 0.299064000576 163.38199274 0.292798001648 39.9234291502 0.678453024558 23.4042437662 0.603764479957 -155.894403451 0.292798001648 39.9234291502 0.298118496131 163.17700965 0.678936758018 23.2236032562 0.603688306253 23.8679927343 0.678453024558 23.4042437662 0.678936758018 23.2236032562 0.280616789689 123.985262089 0.000767739330496 -57.5943110725 0.603764479957 -155.894403451 0.603688306253 23.8679927343 0.000767739330505 -57.5943110724 0.520603776601 36.6747133051
10.9 0.299461653571 161.188582576 0.291974885034 36.9656301367 0.679199959695 19.2159874224 0.603125894635 -158.442559859 0.291974885034 36.9656301367 0.298541663818 160.981200743 0.679685727114 19.032966681 0.603034741549 21.3180259374 0.679199959695 19.2159874224 0.679685727114 19.032966681 0.276972659109 117.939684152 0.000765705868678 -60.8230003459 0.603125894635 -158.442559859 0.603034741549 21.3180259374 0.000765705868701 -60.8230003455 0.522099290783 34.2116170451
10.925 0.299969607364 158.995766305 0.291117262117 34.0246425511 0.679914192861 15.020429453 0.60248301525 -160.988823504 0.291117262117 34.0246425511 0.299076128836 158.785944311 0.680401706937 14.8349881193 0.602376830189 18.7699212388 0.679914192861 15.020429453 0.680401706937 14.8349881193 0.273439015958 111.836468587 0.000764004604911 -64.013237219 0.60248301525 -160.988823504 0.602376830189 18.7699212388 0.000764004604954 -64.0132372183 0.523598880036 31.7491080833
10.95 0.300589420534 156.801697493 0.290228603071 31.1015008014 0.680593290753 10.8170931719 0.601835821263 -163.533246402 0.290228603071 31.1015008014 0.299723435324 156.589381365 0.681082264607 10.6291902713 0.601714546159 16.2236244534 0.680593290753 10.8170931719 0.681082264607 10.6291902713 0.270032965124 105.67435506 0.000762675954493 -67.1658974343 0.601835821263 -163.533246402 0.601714546159 16.2236244534 0.000762675954564 -67.1658974333 0.525102530638 29.2871427152
10.975 0.301322072699 154.60443391 0.289312983301 28.1972931336 0.681234773823 6.60547615822 0.601184293049 -166.075880664 0.289312983301 28.1972931336 0.300484543032 154.389557156 0.681724922153 6.41506999382 0.601047863553 13.6790812537 0.681234773822 6.60547615821 0.681724922153 6.41506999384 0.266772607573 99.4524544428 0.000761761332189 -70.282201615 0.601184293049 -166.075880664 0.601047863553 13.6790812537 0.000761761332292 -70.2822016139 0.526610227307 26.8256772828
11 0.302167899348 152.401942402 0.288375152897 25.3131610289 0.681836119996 2.3850463731 0.600528411955 -168.61677853 0.288375152897 25.3131610289 0.301359761769 152.184426227 0.682327160355 2.19209440352 0.600376756745 11.1362371318 0.681836119996 2.38504637309 0.682327160355 2.19209440354 0.263676999605 93.1703264953 0.000761302873049 -73.3637426599 0.600528411955 -168.61677853 0.600376756745 11.1362371318 0.000761302873187 -73.363742659 0.528121952972 24.3646681626
11.025 0.303126523521 150.192104096 0.287420614986 22.4502976456 0.682394768322 -1.84476233549 0.599868160346 -171.155992412 0.287420614986 22.4502976457 0.302348682702 149.971857787 0.682886422527 -2.04030363459 0.599701200592 8.59503735889 0.682394768322 -1.8447623355 0.682886422527 -2.04030363457 0.260766087923 86.8280636738 0.000761343103716 -76.4125096404 0.599868160346 -171.155992412 0.599701200592 8.59503735888 0.00076134310389 -76.41250964 0.529637688524 21.9040717533
11.05 0.304196784064 147.972719671 0.286455714363 19.6099450283 0.682908122393 -6.08455543816 0.59920352165 -173.693574927 0.286455714363 19.6099450284 0.303450106256 147.749641143 0.683400118093 -6.28273073051 0.599021170653 6.05542694101 0.682908122393 -6.08455543819 0.683400118093 -6.28273073049 0.258060616271 80.4263793472 0.000761924562373 -79.4309069608 0.59920352165 -173.693574927 0.599021170653 6.055426941 0.000761924562577 -79.4309069612 0.53115741254 19.4438444629
11.075 0.305376660087 145.741514394 0.285487738012 16.7933897362 0.683373553382 -10.3349837506 0.598534480409 -176.229578936 0.285487738012 16.7933897363 0.304661966212 145.515490881 0.683865625793 -10.5358390162 0.598336643448 3.51735057157 0.683373553382 -10.3349837507 0.683865625793 -10.5358390161 0.255581999499 73.9666979079 0.000763089366207 -82.4217675213 0.598534480409 -176.229578936 0.598336643448 3.51735057156 0.000763089366431 -82.4217675227 0.532681100992 16.9839426952
11.1 0.306663191071 143.496142529 0.284525029423 14.0019564602 0.683788402479 -14.5967504112 0.597861022313 -178.764057584 0.284525029423 14.0019564603 0.305981249471 143.267051397 0.684280296321 -14.8003331463 0.597647596744 0.980752579493 0.683788402479 -14.5967504112 0.684280296321 -14.8003331463 0.253352161329 67.4512433492 0.000764878726034 -85.3883586609 0.597861022313 -178.764057584 0.597647596744 0.980752579481 0.000764878726259 -85.3883586633 0.534208726923 14.5243228357
11.125 0.308052391875 141.234190633 0.283577118948 11.2369990902 0.684149982461 -18.8706189606 0.597183134241 178.702935663 0.283577118948 11.2369990903 0.307403910706 141.001900291 0.684641454116 -19.0769784047 0.596954009877 -1.55442312726 0.684149982461 -18.8706189606 0.684641454116 -19.0769784047 0.25139333293 60.8831219468 0.000767332408461 -88.3343797736 0.597183134241 178.702935663 0.596954009877 -1.55442312727 0.000767332408664 -88.3343797767 0.535740260107 12.0649412374
11.15 0.309539161574 138.953179157 0.282654872831 8.49988856837 0.684455578075 -23.1574226997 0.596500804295 176.171346981 0.282654872831 8.49988856846 0.308924780842 138.717550023 0.684946398008 -23.3666100924 0.596255864109 -4.0882331234 0.684455578075 -23.1574226997 0.684946398008 -23.3666100924 0.249727810787 54.2663938255 0.000770488146707 -91.2639506771 0.596500804295 176.171346981 0.596255864109 -4.08823312341 0.000770488146856 -91.2639506801 0.537275666671 9.60575420506
11.175 0.311117184673 136.650561599 0.281770664037 5.79199670515 0.684702444843 -27.4580755334 0.595814021831 173.641122147 0.281770664037 5.79199670519 0.310537467886 136.411447081 0.685192400317 -27.6701444063 0.595553143037 -6.62073453392 0.684702444843 -27.4580755334 0.685192400317 -27.6701444063 0.248377674248 47.6061275291 0.000774381001803 -94.1815900745 0.595814021831 173.641122147 0.595553143037 -6.62073453392 0.000774381001861 -94.181590076 0.53881490869 7.1467179794
11.2 0.31277882264 134.323720275 0.280938568523 3.11467494531 0.684887805796 -31.7735845419 0.595122777487 171.112206505 0.280938568523 3.11467494526 0.312234248021 134.080967715 0.685376703938 -31.98859105 0.594845833031 -9.15198510832 0.684887805796 -31.7735845419 0.685376703938 -31.98859105 0.247364465504 40.9084314114 0.000779042676388 -97.0921837716 0.595122777487 171.112206505 0.594845833031 -9.15198510832 0.000779042676316 -97.0921837694 0.540357943749 4.6877887207
11.225 0.314514992866 131.969957496 0.280174591264 0.469226841698 0.685008845564 -36.1050645683 0.594427063209 168.584544924 0.280174591264 0.469226841513 0.314005944063 131.723409018 0.685496516838 -36.3230678676 0.594133923735 -11.6820433021 0.685008845565 -36.1050645683 0.685496516838 -36.3230678677 0.246708837646 34.1804558777 0.000784500783655 -100.000942674 0.594427063209 168.584544924 0.594133923735 -11.6820433021 0.000784500783415 -100.000942666 0.541904724468 2.22892249142
11.25 0.316315030975 129.586480576 0.279496927086 -2.14312728143 0.685062701108 -40.4537551619 0.593726872268 166.058081768 0.279496927085 -2.14312728181 0.315841787139 129.335973764 0.68554900326 -40.6748178402 0.593417408614 -14.2109683662 0.685062701109 -40.4537551618 0.68554900326 -40.6748178403 0.246430179416 27.4303613603 0.000790778074225 -102.913350971 0.593726872268 166.058081768 0.593417408614 -14.2109683662 0.000790778073783 -102.913350953 0.54345519799 -0.229924761743
11.275 0.318166530606 127.170378571 0.278926262214 -4.72129532053 0.685046448204 -44.821040284 0.593022199283 163.532760852 0.278926262213 -4.72129532115 0.317729255665 126.91574689 0.685531270777 -45.0452288529 0.592696285562 -16.738820446 0.685046448205 -44.8210402839 0.685531270776 -45.045228853 0.246546228284 20.6672484783 0.000797891623934 -105.835105261 0.593022199283 163.532760852 0.592696285562 -16.738820446 0.000797891623265 -105.835105229 0.545009305426 -2.68879722643
11.3 0.320055152197 124.718587909 0.278486123453 -7.26437027035 0.684957082635 -49.2084712625 0.59231304023 161.008525414 0.278486123452 -7.26437027127 0.31965388306 124.459660771 0.685440352151 -49.4358567201 0.591970557574 -19.2656606894 0.684957082637 -49.2084712624 0.68544035215 -49.4358567202 0.247072685952 13.9010490849 0.000805851985822 -108.772045713 0.59231304023 161.008525414 0.591970557573 -19.2656606893 0.00080585198492 -108.772045664 0.546566981262 -5.14773924381
11.325 0.321964388393 122.227843005 0.278203283043 -9.77170166539 0.684791494775 -53.6177935785 0.591599392457 158.485318079 0.27820328304 -9.77170166666 0.321599021692 121.964445346 0.685273180717 -53.8484520559 0.591240233481 -21.7915513665 0.684791494778 -53.6177935782 0.685273180716 -53.8484520561 0.248022852179 7.14237967726 0.000814662310305 -111.730080555 0.591599392457 158.485318079 0.591240233481 -21.7915513664 0.000814662309184 -111.730080486 0.548128152707 -7.6067953284
11.35 0.323875267773 119.694606388 0.278108228495 -12.2429847789 0.684546435931 -58.0509781934 0.590881254693 155.963080824 0.278108228491 -12.2429847806 0.323545544566 119.426557606 0.685026557695 -58.2849916981 0.590505328774 -24.316556001 0.684546435935 -58.0509781931 0.685026557693 -58.2849916984 0.249407293352 0.402361687261 0.000824317438757 -114.715105364 0.590881254693 155.963080824 0.590505328773 -24.3165560009 0.000824317437459 -114.715105273 0.549692739004 -10.0660101884
11.375 0.32576596955 117.114970547 0.278235708121 -14.6783713572 0.684218474468 -62.5102582754 0.59015862705 153.441754951 0.278235708117 -14.6783713592 0.325471457143 116.842082593 0.684697109473 -62.7477155479 0.589765866494 -26.8407395153 0.684218474472 -62.510258275 0.68469710947 -62.7477155483 0.251233561502 -6.30758390776 0.000834802978034 -117.732918614 0.59015862705 153.441754951 0.589765866493 -26.8407395151 0.000834802976634 -117.732918503 0.551260650679 -12.5254287465
11.4 0.327611307773 114.48452017 0.278625364423 -17.0786063171 0.683803939185 -66.9981723731 0.589431511026 150.921281054 0.278625364417 -17.0786063194 0.327351377386 114.20659452 0.6842812324 -67.2391698778 0.589021878227 -29.3641683891 0.68380393919 -66.9981723726 0.684281232397 -67.2391698783 0.253505977302 -12.9759578009 0.000846094367017 -120.789134919 0.589431511026 150.921281054 0.589021878226 -29.364168389 0.000846094365618 -120.789134793 0.55283178874 -14.985096161
11.425 0.329382021183 111.798138004 0.279322468953 -19.4451955504 0.68329884682 -71.5176153255 0.588699909507 148.401598995 0.279322468946 -19.4451955527 0.329155819584 111.514961168 0.683775022023 -71.7622584001 0.58827340519 -31.8869108354 0.683298846825 -71.5176153251 0.68377502202 -71.7622584006 0.256225487215 -19.5914080026 0.00085815595148 -123.889097207 0.588699909507 148.401598995 0.58827340519 -31.8869108353 0.000858155950214 -123.889097077 0.554406043805 -17.4450578474
11.45 0.331043768613 109.049728997 0.280378773507 -21.7806107438 0.682698809701 -76.0718984977 0.587963826765 145.882647877 0.280378773499 -21.7806107459 0.330850180852 108.761066058 0.683174182864 -76.3203026895 0.587520499431 -34.4090369926 0.682698809705 -76.0718984973 0.683174182861 -76.3203026899 0.259389600645 -26.142948095 0.000870940090735 -127.037788917 0.587963826765 145.882647877 0.58752049943 -34.4090369925 0.000870940089751 -127.0377888 0.55598329518 -19.9053594995
11.475 0.332555669582 106.231823449 0.28185349315 -24.0885379432 0.681998918498 -80.664821312 0.587223268449 143.364366021 0.281853493145 -24.0885379447 0.332393268421 105.937408949 0.682473913791 -80.917113939 0.586763225143 -36.9306191364 0.681998918501 -80.6648213117 0.682473913789 -80.9171139393 0.262992408315 -32.6201570224 0.000884386328577 -130.23974706 0.587223268449 143.364366021 0.586763225143 -36.9306191363 0.000884386328024 -130.239746984 0.557563409857 -22.3660471115
11.5 0.333868126831 103.334996802 0.283814435985 -26.3741774434 0.6811935936 -85.3007565355 0.586478241583 140.846690947 0.283814435985 -26.3741774434 0.333735101967 103.034521977 0.681668762656 -85.5570785149 0.586001660118 -39.4517319123 0.6811935936 -85.3007565355 0.681668762656 -85.5570785149 0.267024678443 -39.0133511575 0.000898420671975 -133.498976894 0.586478241583 140.846690947 0.586001660118 -39.4517319123 0.000898420671975 -133.498976894 0.559146241451 -24.8271669989
