! Generated from PyAEDT SolutionData; AEDT ExportNetworkData workaround
# GHz S MA R 50
9 0.443657164288 44.4783773524 0.208019473379 -133.526680163 0.687475991226 -73.017487157 0.535978526397 36.6839678084 0.208019473379 -133.526680163 0.444129144415 44.4405831661 0.6867501541 -72.9240125086 0.536517872601 -143.149747823 0.687475991226 -73.017487157 0.6867501541 -72.9240125086 0.236113786864 -8.62694549948 0.00112560374805 8.26835542132 0.535978526397 36.6839678084 0.536517872601 -143.149747823 0.00112560374806 8.26835542131 0.651823844791 -151.567631178
9.025 0.446798034536 41.6577942561 0.205196436079 -137.333372036 0.686467874346 -77.935359823 0.535751198228 33.9044016473 0.205196436077 -137.333372034 0.447247624609 41.6221894861 0.6857483847 -77.8415973122 0.536297453691 -145.930300469 0.686467874346 -77.9353598234 0.6857483847 -77.8415973119 0.241822562075 -16.5397331042 0.00111934138587 3.82616066502 0.535751198227 33.9044016476 0.536297453691 -145.930300469 0.00111934138804 3.82616071876 0.65219200025 -153.990088054
9.05 0.449939067282 38.8313876739 0.202419483674 -141.121931953 0.685420489983 -82.8346338863 0.535520002331 31.1322216926 0.202419483671 -141.121931949 0.450366236935 38.7979285156 0.684707720078 -82.7406000917 0.536072843698 -148.703438558 0.685420489983 -82.8346338869 0.684707720077 -82.7406000911 0.247633233519 -24.3290180662 0.0011132687777 -0.584710069506 0.535520002329 31.1322216932 0.536072843698 -148.703438558 0.0011132687815 -0.584709982285 0.652566424075 -156.407543343
9.075 0.453079199923 35.9998200121 0.199686683031 -144.893469424 0.684335841364 -87.7157524006 0.535285091777 28.367297516 0.199686683027 -144.893469419 0.453483924304 35.968454086 0.683630148618 -87.6214652126 0.535844250611 -151.469295433 0.684335841365 -87.7157524014 0.683630148617 -87.6214652118 0.253521537084 -32.0027010655 0.00110742497135 -4.96485213127 0.535285091775 28.3672975167 0.535844250611 -151.469295434 0.00110742497628 -4.96485202635 0.652946796873 -158.820092329
9.1 0.456217705487 33.1637199331 0.19699584884 -148.649043703 0.683215612985 -92.579165874 0.535046617677 25.609501294 0.196995848836 -148.649043697 0.456599965379 33.1343867212 0.682517339617 -92.4846445037 0.535611872851 -154.228001736 0.683215612986 -92.5791658749 0.682517339616 -92.4846445028 0.259467660135 -39.5684881913 0.00110184453091 -9.31504186187 0.535046617675 25.6095012948 0.535611872851 -154.228001737 0.00110184453656 -9.31504175117 0.653332810555 -161.22782841
9.125 0.459354177951 30.3236785023 0.194344590936 -152.389661501 0.6820611889 -97.4253272587 0.534804728888 22.8587077598 0.194344590933 -152.389661495 0.459713960163 30.2963098026 0.68137066156 -97.3305922386 0.535375899912 -156.979685473 0.682061188901 -97.4253272596 0.681370661559 -97.3305922377 0.265455736672 -47.0337413186 0.00109655777169 -13.6362102943 0.534804728886 22.8587077606 0.535375899912 -156.979685474 0.00109655777773 -13.6362101864 0.653724167881 -163.630843142
9.15 0.462488512696 27.4802459192 0.191730356328 -156.11627527 0.680873672514 -102.254687542 0.534559571777 20.114794151 0.191730356324 -156.116275264 0.462825810716 27.4547663098 0.680191201904 -102.159760721 0.535136512944 -159.724472077 0.680873672515 -102.254687543 0.680191201903 -102.15976072 0.271473342226 -54.4053839395 0.0010915910341 -17.9294190078 0.534559571775 20.1147941518 0.535136512944 -159.724472078 0.00109159104024 -17.9294189086 0.654120582028 -166.029226287
9.175 0.46562088268 24.633928874 0.189150466437 -159.829781966 0.679653907448 -107.067691907 0.534311290034 17.377640156 0.189150466434 -159.82978196 0.465935697606 24.6102561788 0.678979787928 -106.972596438 0.534893885279 -162.462484481 0.679653907449 -107.067691908 0.678979787927 -106.972596437 0.27751100713 -61.6898484238 0.00108696698072 -22.1958382362 0.534311290033 17.3776401567 0.53489388528 -162.462484482 0.00108696698674 -22.1958381493 0.654521776175 -168.423065857
9.2 0.46875171101 21.7851885564 0.186602150038 -163.531022199 0.678402499145 -111.864776432 0.534060024536 14.647127857 0.186602150036 -163.531022194 0.469044052724 21.7632343038 0.677737008325 -111.769536752 0.534648182925 -165.193843179 0.678402499145 -111.864776433 0.677737008324 -111.769536751 0.283561760101 -68.8930533967 0.0010827049035 -26.4367272387 0.534060024535 14.6471278577 0.534648182925 -165.193843179 0.00108270490924 -26.4367271659 0.654927483116 -170.812448165
9.225 0.471881640605 18.9344393226 0.184082572354 -167.220779711 0.677119836893 -116.646365281 0.53380591324 11.9231416732 0.184082572352 -167.220779706 0.472151529174 18.9141091915 0.676463235216 -116.551007088 0.534399564991 -167.918666299 0.677119836893 -116.646365281 0.676463235216 -116.551007087 0.289620709066 -76.0204024026 0.00107882103051 -30.6534168756 0.533805913239 11.9231416738 0.534399564992 -167.9186663 0.00107882103584 -30.6534168171 0.65533744488 -173.197457867
9.25 0.475011501712 16.0820480152 0.18158886073 -170.899781107 0.675806116018 -121.41286836 0.533549091127 9.20556830108 0.181588860728 -170.899781102 0.475258968994 16.0632422632 0.675158646336 -121.317418586 0.534148184098 -170.637069673 0.675806116019 -121.41286836 0.675158646335 -121.317418586 0.295684662561 -83.0767971337 0.00107532882361 -34.8472942766 0.533549091126 9.20556830162 0.534148184098 -170.637069673 0.00107532882845 -34.847294232 0.655751412372 -175.578178017
9.275 0.478142278023 13.228333914 0.179118127287 -174.5686958 0.674461360022 -126.1646794 0.533289690165 6.4942966547 0.179118127285 -174.568695796 0.478367369432 13.2109477838 0.673823247158 -126.069166174 0.533894186726 -173.349166899 0.674461360023 -126.1646794 0.673823247157 -126.069166173 0.301751792573 -90.066660214 0.00107223926074 -39.0197894543 0.533289690164 6.49429665517 0.533894186727 -173.349166899 0.00107223926505 -39.0197894222 0.656169145036 -177.954690108
9.3 0.481275072106 10.3735692832 0.176667488893 -178.228136121 0.673085442475 -130.902174422 0.533027839311 3.78921780496 0.176667488892 -178.228136117 0.481477848511 10.3574933841 0.672456892788 -130.806627029 0.533637713549 -176.055069414 0.673085442476 -130.902174422 0.672456892788 -130.806627029 0.30782133795 -96.9939638746 0.00106956109805 -43.1723636844 0.533027839311 3.78921780536 0.533637713549 -176.055069415 0.0010695611018 -43.172363663 0.656590410521 179.672925875
9.325 0.484411070853 7.51798047024 0.174234084784 178.12134244 0.671678108511 -135.625710557 0.532763664534 1.09022491847 0.174234084783 178.121342443 0.48459161056 7.50310113476 0.671059309459 -135.530159399 0.533378899718 -178.75488656 0.671678108512 -135.625710557 0.671059309459 -135.530159398 0.313893346443 -103.862261886 0.00106730110868 -47.3064994608 0.532763664534 1.0902249188 0.533378899718 -178.754886561 0.00106730111188 -47.3064994481 0.657014984371 177.304591414
9.35 0.487551511558 4.66174950291 0.171815092093 174.479240892 0.670238995794 -140.335625184 0.532497288856 -1.60278680382 0.171815092092 174.479240895 0.48770991235 4.64794911632 0.669630115498 -140.240101727 0.533117875135 178.551274352 0.670238995795 -140.335625184 0.669630115497 -140.240101727 0.319968452778 -110.674722886 0.00106546429618 -51.4236918183 0.532497288856 -1.60278680355 0.533117875135 178.551274352 0.00106546429886 -51.4236918125 0.657442649723 174.940229404
9.375 0.4906976492 1.80501612462 0.169407739556 170.845116336 0.668767654843 -145.032235355 0.532228832417 -4.28992018804 0.169407739555 170.845116338 0.490834030385 1.79217342979 0.668168841659 -144.936772084 0.532854764686 175.863307979 0.668767654843 -145.032235356 0.668168841659 -144.936772083 0.326047689784 -117.434163816 0.00106405408166 -55.5254408159 0.532228832417 -4.28992018782 0.532854764686 175.863307978 0.00106405408385 -55.525440815 0.657873197019 172.579764116
9.4 0.493850725392 -1.0521197957 0.167009319589 167.218581492 0.667263568627 -149.715837476 0.531958412554 -6.9712761487 0.167009319588 167.218581494 0.493965229839 -1.06412941771 0.66667495073 -149.620467832 0.532589688459 173.18111088 0.667263568627 -149.715837476 0.66667495073 -149.620467832 0.332132329478 -124.143082587 0.00106307246462 -59.6132449692 0.531958412554 -6.97127614853 0.532589688459 173.18111088 0.00106307246637 -59.6132449715 0.658306423725 170.223121143
9.425 0.497011939423 -3.9095955453 0.164617198926 163.599304212 0.665726171353 -154.386707208 0.531686143889 -9.64695374979 0.164617198926 163.599304214 0.497104735534 -3.92089981615 0.665147856335 -154.291465539 0.532322761938 170.504581459 0.665726171353 -154.386707208 0.665147856335 -154.291465539 0.338223750989 -130.803689415 0.00106252015822 -63.6885954305 0.531686143889 -9.64695374965 0.532322761938 170.504581459 0.00106252015959 -63.6885954345 0.658742134068 167.870227363
9.45 0.500182421676 -6.76738260663 0.162228827981 159.987006972 0.664154866386 -159.045099581 0.531412138435 -12.3170502654 0.16222882798 159.987006973 0.500253705292 -6.77811211079 0.663586940874 -158.950021075 0.532054096186 167.833619902 0.664154866387 -159.045099581 0.663586940874 -158.950021075 0.34432333233 -137.417936463 0.00106239670033 -67.7529707221 0.531412138435 -12.3170502653 0.532054096186 167.833619902 0.00106239670137 -67.7529707269 0.659180138778 165.52101089
9.475 0.503363209692 -9.62548351846 0.159841749047 156.381466368 0.662549043247 -163.691249274 0.531136505701 -14.98166124 0.159841749046 156.381466369 0.503413205879 -9.63577147908 0.661991572539 -163.596369899 0.531783798001 165.168128124 0.662549043248 -163.691249274 0.661991572539 -163.596369898 0.350432363137 -143.987545592 0.0010627005423 -71.8078318457 0.531136505701 -14.9816612399 0.531783798001 165.168128124 0.00106270054306 -71.8078318503 0.659620254835 163.175401034
9.5 0.506555227007 -12.4839286203 0.157453603471 152.782512645 0.660908093643 -168.32537105 0.530859352812 -17.6408805479 0.157453603471 152.782512646 0.50658419173 -12.4939106879 0.660361121377 -168.230727484 0.531511970073 162.508009707 0.660908093643 -168.32537105 0.660361121377 -168.230727484 0.356551975744 -150.514034115 0.00106342911793 -75.8546176092 0.530859352813 -17.6408805478 0.531511970073 162.508009707 0.00106342911846 -75.8546176132 0.660062305236 160.833328262
9.525 0.509759264873 -15.3427727378 0.155062137874 149.190029259 0.659231426499 -172.947660324 0.530580784625 -20.2948004525 0.155062137874 149.190029259 0.509767486526 -15.3525867886 0.658694974353 -172.853289892 0.531238711115 159.853169854 0.659231426499 -172.947660324 0.658694974353 -172.853289892 0.362683092135 -156.998738552 0.00106457889547 -79.8947400405 0.530580784625 -20.2948004525 0.531238711116 159.853169854 0.00106457889583 -79.8947400437 0.660506118758 158.494724152
9.55 0.512975966879 -18.2020918621 0.152665209497 145.603952497 0.657518481964 -177.558293848 0.530300903851 -22.9435116646 0.152665209497 145.603952497 0.51296376766 -18.2118778018 0.656992549382 -177.464234448 0.530964115999 157.203515332 0.657518481964 -177.558293849 0.656992549382 -177.464234448 0.368826384547 -163.442836391 0.00106614541586 -83.9295797866 0.530300903851 -22.9435116646 0.530964115999 157.203515332 0.00106614541608 -83.9295797888 0.660951529735 156.159521358
9.575 0.516205816447 -21.061979869 0.150260790749 142.02427119 0.655768744358 177.842569516 0.530019811179 -25.5871033995 0.150260790749 142.02427119 0.516173553571 -21.0718794406 0.655253308324 177.936279484 0.530688275872 154.558954423 0.655768744358 177.842569516 0.655253308324 177.936279484 0.37498224773 -169.84736594 0.00106812332066 -87.960481433 0.530019811179 -25.5871033995 0.530688275872 154.558954423 0.00106812332078 -87.9604814343 0.661398377842 153.82765357
9.6 0.51944912712 -23.9225453217 0.147846972988 138.451026517 0.653981754057 173.254787939 0.529737605398 -28.2256634344 0.147846972988 138.451026517 0.519397193878 -23.9327019125 0.653476768899 173.348109646 0.530411278276 151.919396877 0.653981754057 173.254787939 0.653476768899 173.348109646 0.38115078106 -176.21324434 0.00107050637325 -91.9887487173 0.529737605398 -28.2256634344 0.530411278276 151.919396877 0.0010705063733 -91.9887487178 0.66184650788 151.499055477
9.625 0.522706035551 -26.7839083899 0.145421969599 134.884311945 0.652157118286 168.678235696 0.529454383517 -30.8592781638 0.145421969599 134.884311945 0.522634862183 -26.7944668368 0.651662515535 168.771129959 0.530133207255 149.284753862 0.652157118286 168.678235696 0.651662515535 168.771129959 0.38733177893 177.458716154 0.00107328747684 -96.0156396499 0.529454383517 -30.8592781638 0.530133207255 149.284753862 0.00107328747684 -96.0156396499 0.662295769573 149.173662732
9.65 0.525976497029 -29.6461979175 0.142984118385 131.324273329 0.650294520829 164.112802193 0.529170240881 -33.4880326553 0.142984118385 131.324273329 0.525886551443 -29.6573043068 0.649810209115 164.205229553 0.529854143469 146.654937924 0.650294520829 164.112802193 0.649810209115 164.205229553 0.393524728012 171.16779352 0.00107645869271 -100.042361596 0.529170240881 -33.4880326553 0.529854143469 146.654937924 0.00107645869268 -100.042361596 0.662746017367 146.851411916
9.675 0.529260283393 -32.5095486609 0.140531883312 127.771109205 0.648393730644 159.558390945 0.528885271288 -36.112010703 0.140531883312 127.771109205 0.52915207171 -32.521350122 0.647919595642 159.650311744 0.529574164293 144.02986294 0.648393730644 159.558390945 0.647919595642 159.650311744 0.399728810181 164.91334283 0.00108001126173 -104.070066408 0.528885271287 -36.112010703 0.529574164293 144.02986294 0.00108001126169 -104.070066407 0.663197110238 144.532240504
9.7 0.532556983158 -35.3740987187 0.138063855642 124.225071316 0.646454609378 155.014918529 0.528599567093 -38.731294882 0.138063855642 124.225071316 0.532431050099 -35.3867432087 0.645990513807 155.106292987 0.529293343927 141.409444077 0.646454609378 155.014918529 0.645990513807 155.106292987 0.405942910036 158.694784519 0.00108393563179 -108.099845717 0.528599567093 -38.731294882 0.529293343926 141.409444077 0.00108393563175 -108.099845716 0.663648911498 142.216086833
9.725 0.535866003655 -38.2399871651 0.13557875446 120.686465425 0.644477117805 150.482313503 0.528313219321 -41.3459666002 0.13557875446 120.686465425 0.535722932768 -38.2536232444 0.644022901476 150.573101802 0.529011753499 138.79359775 0.644477117805 150.482313503 0.644022901476 150.573101802 0.412165626127 152.511593945 0.00108822149303 -112.13272654 0.528313219321 -41.3459666002 0.529011753499 138.79359775 0.00108822149298 -112.132726539 0.664101288612 139.902890071
9.75 0.539186575008 -41.1073518976 0.133075426639 117.155652455 0.642461321175 145.960515325 0.528026317754 -43.9561061505 0.133075426639 117.155652455 0.539026988741 -41.1221284941 0.642016801094 146.050677685 0.528729461172 136.182241586 0.642461321175 145.960515325 0.642016801094 146.050677685 0.418395285093 146.363292142 0.0010928578222 -116.169667325 0.528026317754 -43.9561061505 0.528729461172 136.182241586 0.00109285782216 -116.169667325 0.664554113019 137.592590185
9.775 0.542517755737 -43.9763277039 0.13055284626 113.633050027 0.640407393515 141.449473249 0.527738951034 -46.5617927614 0.13055284626 113.633050026 0.542342315372 -43.9923938666 0.639972364037 141.538970014 0.528446532249 133.575294382 0.640407393515 141.449473249 0.639972364037 141.538970014 0.424629958084 140.249437655 0.0010978329367 -120.211554596 0.527738951034 -46.5617927614 0.528446532249 133.575294382 0.00109783293666 -120.211554596 0.66500725995 135.285127914
9.8 0.54585843982 -46.8470445503 0.128010113524 110.119134476 0.638315620875 136.949145232 0.527451206744 -49.1631046479 0.128010113524 110.119134476 0.545667845259 -46.8645491909 0.637889853914 137.037936949 0.528163029285 130.97267607 0.638315620875 136.949145232 0.637889853914 137.037936948 0.430867478892 134.169619368 0.00110313455782 -124.259200305 0.527451206744 -49.1631046479 0.528163029285 130.97267607 0.0011031345578 -124.259200305 0.665460608261 132.980444739
9.825 0.549207365001 -49.7196260907 0.125446453174 106.614443419 0.636186403564 132.459496841 0.527163171489 -51.76011906 0.125446453174 106.614443419 0.549002354429 -49.7387177138 0.635769648858 132.547544343 0.527879012196 128.374307679 0.636186403564 132.459496841 0.635769648858 132.547544343 0.437105463355 128.123450217 0.00110874988257 -128.313340015 0.527163171489 -51.76011906 0.527879012196 128.374307679 0.00110874988255 -128.313340015 0.665914040257 130.678482856
9.85 0.552563122188 -52.5941883923 0.12286121248 103.119578987 0.634020257402 127.980500168 0.526874930971 -54.3529123317 0.12286121248 103.119578987 0.552344471607 -52.6150148137 0.633612242827 128.067764657 0.527594538374 125.780111301 0.634020257402 127.980500168 0.633612242827 128.067764657 0.443341329638 122.110561727 0.00111466566219 -132.374631957 0.526874930971 -54.3529123317 0.527594538374 125.780111301 0.00111466566218 -132.374631957 0.666367441532 128.379185149
9.875 0.555924165759 -55.4708388728 0.120253858814 99.6352118328 0.631817814009 123.512132759 0.526586570052 -56.941559929 0.120253858814 99.6352118328 0.555692688407 -55.4935469274 0.631418245955 123.598575893 0.527309662806 123.190010055 0.631817814009 123.512132759 0.631418245955 123.598575893 0.449572319098 116.130599265 0.00112086828579 -136.443657008 0.526586570052 -56.941559929 0.527309662806 123.190010055 0.00112086828579 -136.443657008 0.666820700801 126.082495169
9.9 0.55928882461 -58.3496754412 0.117623976881 96.1620860758 0.62957982019 119.054376566 0.526298172819 -59.5261364968 0.117623976881 96.1620860757 0.559045370272 -58.3744106797 0.629188383982 119.139960536 0.527024438193 120.603928054 0.62957982019 119.054376566 0.629188383982 119.139960536 0.45579551745 110.183217948 0.00112734386662 -140.520919558 0.526298172819 -59.5261364968 0.527024438193 120.603928054 0.00112734386662 -140.520919558 0.667273709744 123.788357102
9.925 0.562655313797 -61.2307858334 0.114971265633 92.7010253347 0.627307136449 114.607216913 0.526009822638 -62.1067159055 0.114971265633 92.7010253347 0.562400768008 -61.2576922097 0.626923496823 114.691904534 0.526738915073 118.021790367 0.627307136449 114.607216913 0.626923496823 114.691904534 0.462007876048 104.268079141 0.00113407832899 -144.606849239 0.526009822638 -62.1067159055 0.526738915073 118.021790367 0.00113407832899 -144.60684924 0.667726362845 121.496715754
9.95 0.56602174662 -64.1142471327 0.112295534957 89.2529400745 0.625000734676 110.170641492 0.525721602199 -64.6833712965 0.112295534957 89.2529400745 0.565757029784 -64.1434666827 0.624624536303 110.254396281 0.526453141952 115.443522989 0.625000734676 110.170641492 0.624624536303 110.254396281 0.468206233087 98.3848474638 0.00114105749362 -148.70180341 0.525721602199 -64.6833712965 0.526453141952 115.443522989 0.00114105749363 -148.70180341 0.66817855724 119.207516524
9.975 0.56938614702 -67.0001254651 0.109596702187 85.8188365086 0.622661695073 105.744639382 0.525433593561 -67.2561751279 0.109596702187 85.8188365086 0.56911221343 -67.0317979769 0.622292563132 105.827425646 0.52616716543 112.869052809 0.622661695073 105.744639382 0.622292563132 105.827425646 0.474387334584 92.5331882665 0.00114826715963 -152.806070303 0.525433593562 -67.2561751279 0.526167165431 112.869052809 0.00114826715964 -152.806070303 0.668630192564 116.920705382
10 0.572746462149 -69.8884758564 0.106874788531 82.3998273654 0.620291202358 101.329200102 0.52514587819 -69.8251992187 0.106874788531 82.3998273655 0.572464298935 -69.9227385347 0.619928743153 101.410983017 0.525881030341 110.29830757 0.620291202358 101.329200102 0.619928743153 101.410983017 0.480547855021 86.7127655102 0.00115569318167 -156.919872715 0.52514587819 -69.8251992187 0.525881030341 110.29830757 0.00115569318168 -156.919872715 0.669081170804 114.636228851
10.025 0.576100575004 -72.7793422407 0.104129915503 78.9971448936 0.617890541321 96.9243126873 0.524858536989 -72.3905147927 0.104129915503 78.9971448936 0.575811201002 -72.8163293652 0.617534342945 97.0050583872 0.525594779882 107.731215839 0.617890541321 96.9243126873 0.617534342945 97.0050583872 0.486684417523 80.9232400061 0.00116332154118 -161.043372095 0.524858536989 -72.3905147927 0.525594779882 107.731215839 0.00116332154118 -161.043372094 0.669531396147 112.354033985
10.05 0.579446317006 -75.6727576086 0.101362301465 75.6121565651 0.615461091781 92.5299648104 0.524571650328 -74.9521925224 0.101362301465 75.6121565651 0.579150781567 -75.7126001882 0.615110724817 92.6096404644 0.525308455761 105.167706977 0.615461091781 92.5299648104 0.615110724817 92.6096404644 0.492793613492 75.1642679713 0.00117113841103 -165.17667292 0.524571650328 -74.9521925224 0.525308455761 105.167706977 0.00117113841104 -165.17667292 0.669980774837 110.074068352
10.075 0.582781480424 -78.5687442811 0.0985722584093 72.2463840493 0.613004323022 88.1461419248 0.524285298065 -77.510302572 0.0985722584093 72.2463840494 0.582480862156 -78.6115697051 0.612659341282 88.2247158221 0.525022098333 102.607711096 0.613004323022 88.1461419248 0.612659341282 88.2247158221 0.498872021602 69.4354998599 0.00117913021347 -169.319827232 0.524285298065 -77.510302572 0.525022098333 102.607711096 0.00117913021348 -169.319827232 0.670429215033 107.796280013
10.1 0.586103830546 -81.4673142999 0.095760189113 68.9015261681 0.610521787753 83.7728264522 0.52399955957 -80.0649146397 0.0957601891131 68.9015261681 0.585799236009 -81.5132459876 0.610181729055 83.8502680826 0.52473574675 100.051159033 0.610521787753 83.7728264522 0.610181729055 83.8502680826 0.504916226065 63.7365794359 0.00118728367119 -173.472839228 0.52399955957 -80.0649146397 0.52473574675 100.051159033 0.0011872836712 -173.472839228 0.670876626666 105.520617507
10.125 0.589411117508 -84.3684699201 0.0929265848554 65.5794867275 0.608015115681 79.4099970027 0.523714513737 -82.6160980002 0.0929265848554 65.5794867275 0.58910367986 -84.4176269697 0.607679502656 79.4862771377 0.524449439103 97.4979823089 0.608015115681 79.4099970027 0.607679502656 79.4862771377 0.510922834101 58.0671430555 0.00119558585218 -177.635669827 0.523714513737 -82.6160980002 0.524449439103 97.4979823089 0.00119558585219 -177.635669827 0.671322921298 103.247029834
10.15 0.592701087699 -87.2722041951 0.0900720238908 62.2824083564 0.605486006747 75.0576276345 0.523430239004 -85.1639215466 0.0900720238908 62.2824083564 0.592391965306 -87.3247010338 0.605154347672 75.132718406 0.524163212575 94.9481130965 0.605486006747 75.0576276345 0.605154347672 75.132718406 0.51688849254 52.4268191308 0.00120402420856 178.191758868 0.523430239004 -85.1639215466 0.524163212575 94.9481130965 0.00120402420857 178.191758869 0.671768011984 100.975466437
10.175 0.595971494675 -90.1785016418 0.0871971709385 59.0127137901 0.602936224101 70.7156871499 0.523146813362 -87.7084538319 0.0871971709385 59.0127137901 0.595661869683 -90.2344476779 0.602608013761 70.7895621288 0.523877103587 92.4014841821 0.602936224101 70.7156871499 0.602608013761 70.7895621288 0.522809903477 46.8152277508 0.00121258661022 174.009559256 0.523146813362 -87.7084538319 0.523877103587 92.4014841821 0.00121258661022 174.009559256 0.672211813138 98.7058771895
10.2 0.599220109505 -93.0873389758 0.0843027780015 55.7731564448 0.600367586875 66.3841384304 0.522864314367 -90.2497631107 0.0843027780015 55.7731564448 0.598911186389 -93.1468382541 0.600042307447 66.4567727039 0.523591147951 89.858028929 0.600367586875 66.3841384304 0.600042307447 66.4567727039 0.528683838917 41.2319804375 0.00122126137382 169.817874103 0.522864314367 -90.2497631107 0.523591147951 89.858028929 0.00122126137382 169.817874103 0.672654240392 96.4382123784
10.225 0.602444730502 -95.9986859063 0.0813896869117 52.5668826666 0.597781962823 62.0629378095 0.522582819152 -92.7879173799 0.0813896869117 52.5668826666 0.602137734594 -96.0618367684 0.597459084777 62.1343080565 0.523305381023 87.3176812394 0.597781962823 62.0629378095 0.597459084777 62.1343080565 0.534507154368 35.6766800174 0.00123003728775 165.616872617 0.522582819152 -92.7879173799 0.523305381023 87.3176812394 0.00123003728775 165.616872617 0.673095210463 94.1724226915
10.25 0.605643192276 -98.9125059803 0.0784588341083 49.3975087559 0.595181260895 57.7520344839 0.522302404436 -95.3229844208 0.0784588341083 49.3975087559 0.605339368278 -98.9794007305 0.594860243906 57.822119049 0.523019837849 84.7803755153 0.595181260895 57.7520344839 0.594860243906 57.822119049 0.540276801295 30.1489205935 0.00123890363353 161.40674674 0.522302404436 -95.3229844208 0.523019837849 84.7803755153 0.00123890363352 161.40674674 0.67353464102 91.9084592042
10.275 0.608813374077 -101.828757468 0.075511258309 46.2692168394 0.592567423785 53.4513699615 0.522023146537 -97.8550318393 0.075511258309 46.2692168394 0.608513984565 -101.899482046 0.592247717668 53.5201489275 0.522734553324 82.2460466185 0.592567423785 53.4513699615 0.592247717668 53.5201489275 0.545989838431 24.6482876005 0.0012478502042 157.18770764 0.522023146537 -97.8550318393 0.522734553324 82.2460466185 0.0012478502042 157.18770764 0.673972450548 89.6462733662
10.3 0.611953207386 -104.747394278 0.0725481119414 43.1868749739 0.589942420539 49.1608775465 0.521745121383 -100.384127108 0.0725481119414 43.1868749739 0.611659531313 -104.822027941 0.589623466181 49.2283328048 0.522449562336 79.7146298292 0.589942420539 49.1608775465 0.589623466181 49.2283328048 0.551643441869 19.1743579322 0.00125686731992 152.959982427 0.521745121383 -100.384127108 0.522449562336 79.7146298292 0.00125686731992 152.959982427 0.674408558216 87.3858169905
10.325 0.615060682727 -107.668366902 0.0695706774964 40.1561886687 0.587308239251 44.8804818597 0.521468404524 -102.910337606 0.0695706774964 40.1561886687 0.614774013925 -107.746981912 0.586989469557 44.946597179 0.522164899919 77.1860608036 0.587308239251 44.8804818597 0.586989469557 44.946597179 0.557234913939 13.7267001302 0.00126594584093 148.723811059 0.521468404524 -102.910337606 0.522164899919 77.1860608036 0.00126594584093 148.723811059 0.674842883743 85.1270422416
10.35 0.618133855681 -110.591623369 0.0665803903732 37.1838934966 0.58466687991 40.6100983933 0.521193071154 -105.433730662 0.0665803903732 37.1838934966 0.617855501375 -110.674284697 0.584347720746 40.674859486 0.521880601405 74.6602755304 0.58466687991 40.6100983933 0.584347720746 40.674859486 0.562761690839 8.30487462233 0.00127507717823 144.47944344 0.521193071154 -105.433730662 0.521880601405 74.6602755304 0.00127507717823 144.47944344 0.675275347264 82.8699016251
10.375 0.621170852089 -113.517110217 0.0635788703738 34.2780019327 0.582020347434 36.3496330979 0.520919196125 -107.954373598 0.0635788703738 34.2780019327 0.620902131419 -113.603875247 0.581700218573 36.4130276845 0.521596702564 72.1372102852 0.582020347434 36.3496330979 0.581700218573 36.4130276845 0.568221349023 2.90843400463 0.00128425330178 140.227136704 0.520919196125 -107.954373598 0.521596702564 72.1372102852 0.00128425330179 140.227136704 0.675705869198 80.6143479779
10.4 0.624169872438 -116.444773463 0.0605679648454 31.4481224243 0.579370644947 32.0989820005 0.520646853974 -110.472333767 0.0605679648454 31.4481224243 0.623912115004 -116.535691721 0.579048961011 32.1609998714 0.521313239756 69.6168015845 0.579370644947 32.0989820005 0.579048961011 32.1609998714 0.573611610355 -2.46307664252 0.00129346674642 135.967152662 0.520646853974 -110.472333767 0.521313239756 69.6168015845 0.00129346674642 135.967152662 0.676134370111 78.3603344592
10.425 0.62712919544 -119.374559578 0.0575498076978 28.7058755954 0.576719767311 27.8580308502 0.520376118946 -112.9876786 0.0575498076978 28.7058755954 0.626883739859 -119.469672464 0.576395938709 27.9186639253 0.521030250069 67.0989861375 0.576719767311 27.8580308502 0.576395938709 27.9186639253 0.578930346053 -7.81011940916 0.00130271061531 131.699755417 0.520376118946 -112.9876786 0.521030250069 67.0989861375 0.00130271061531 131.699755417 0.676560770583 76.1078145416
10.45 0.630047180794 -122.306416456 0.0545269003321 26.0654423254 0.574069694969 23.6266547898 0.520107065032 -115.500475646 0.0545269003321 26.0654423254 0.629815373294 -122.40575699 0.573743128825 23.6858971752 0.520747771465 64.583700796 0.574069694969 23.6266547898 0.573743128825 23.6858971752 0.584175579462 -13.133163188 0.00131197858112 127.425209137 0.520107065032 -115.500475646 0.520747771465 64.583700796 0.00131197858113 127.425209137 0.676984991073 73.8567420038
10.475 0.632922271172 -125.240294377 0.0515022232254 23.5442925552 0.571422388101 19.4047180491 0.519839766001 -118.010792622 0.0515022232254 23.5442925552 0.632705464213 -125.343886961 0.571092489177 19.4625660915 0.520465842915 62.0708825036 0.571422388101 19.4047180491 0.571092489177 19.4625660915 0.589345487696 -18.4326832889 0.00132126488478 123.143775982 0.519839766001 -118.010792622 0.520465842915 62.0708825036 0.00132126488479 123.143775982 0.677406951774 71.6070709237
10.5 0.635752993434 -128.176146957 0.0484793910057 21.1641639528 0.568779781139 15.1920736582 0.519574295447 -120.518697454 0.0484793910058 21.1641639528 0.635552544358 -128.28400715 0.56844595274 15.2485259964 0.520184504533 59.5604682421 0.568779781139 15.1920736582 0.56844595274 15.2485259964 0.594438402227 -23.7091610404 0.00133056433195 118.855714179 0.519574295447 -120.518697454 0.520184504533 59.5604682421 0.00133056433196 118.855714179 0.677826572481 69.3587556716
10.525 0.638537959102 -131.113932093 0.0454628701301 18.9523886234 0.566143777631 10.9885631749 0.51931072684 -123.024258324 0.0454628701301 18.9523886234 0.638355228825 -131.226066402 0.565805422501 11.0436207883 0.519903797712 57.052394977 0.566143777631 10.9885631749 0.565805422501 11.0436207883 0.599452808479 -28.9630833821 0.00133987228728 114.561276247 0.51931072684 -123.024258324 0.519903797712 57.052394977 0.00133987228729 114.561276247 0.678243772445 67.1117509056
10.55 0.641275864127 -134.053612895 0.0424582879918 16.9437070994 0.56351624548 6.79401642347 0.519049133582 -125.52754372 0.0424582879918 16.9437070994 0.641112215879 -134.170018573 0.563172766688 6.8476826775 0.519623765254 54.5465996 0.56351624548 6.79401642347 0.563172766688 6.8476826775 0.604387344518 -34.1949424523 0.0013491846667 110.260707363 0.519049133582 -125.52754372 0.519623765254 54.5465996 0.00134918466671 110.260707363 0.678658470229 64.8660115663
10.575 0.643965487988 -136.995158603 0.0394728774713 15.1827649353 0.560899012568 2.60825123833 0.518789589072 -128.028622486 0.0394728774713 15.1827649352 0.643822286089 -137.115823476 0.560549814367 2.66053192718 0.519344451492 52.0430188702 0.560899012568 2.60825123833 0.560549814367 2.66053192718 0.609240798922 -39.4052351729 0.00135849792797 105.954243878 0.518789589072 -128.028622486 0.519344451492 52.0430188702 0.00135849792797 105.954243878 0.67907058356 62.6214928735
10.6 0.646605692158 -139.938545509 0.0365161247271 13.7275580508 0.558293862746 -1.56892679062 0.518532166784 -130.527563869 0.0365161247271 13.7275580508 0.646484300852 -140.063447802 0.557938351428 -1.51802340484 0.519065902416 49.541589353 0.558293862746 -1.56892679062 0.557938351428 -1.51802340484 0.614012107946 -44.5944628364 0.00136780905968 101.642111957 0.518532166784 -130.527563869 0.519065902416 49.541589353 0.00136780905968 101.642111957 0.67948002918 60.3781503234
10.625 0.649195417972 -142.883757857 0.0336007250084 12.65416507 0.555702532209 -5.7377245788 0.518276940344 -133.02443758 0.0336007250084 12.65416507 0.649097200312 -143.012866048 0.555340116936 -5.68818773003 0.518788165796 47.0422473564 0.555702532209 -5.7377245788 0.555340116936 -5.68818773003 0.618700352057 -49.7631306965 0.00137711556936 97.3245263629 0.518276940344 -133.02443758 0.518788165796 47.0422473564 0.00137711556935 97.3245263628 0.679886722687 58.1359396865
10.65 0.651733683958 -145.83078876 0.0307440071034 12.0631239241 0.553126706239 -9.8983618192 0.518023983632 -135.519313841 0.0307440071034 12.0631239241 0.65166000075 -145.964061438 0.552756799856 -9.85017820479 0.518511291293 44.5449288654 0.553126706239 -9.8983618192 0.552756799856 -9.85017820479 0.623304751973 -54.9117475648 0.00138641547081 93.0016893559 0.518023983632 -135.519313841 0.518511291293 44.5449288654 0.0013864154708 93.0016893558 0.68029057838 55.8948170066
10.675 0.654219582648 -148.779641104 0.0279700649204 12.0876067604 0.550568016297 -14.0510712734 0.517773370878 -138.012263451 0.0279700649204 12.0876067604 0.654171791463 -148.917026855 0.55019003613 -14.0042250251 0.51823533058 42.049569473 0.550568016297 -14.0510712734 0.55019003613 -14.0042250251 0.627824664299 -60.0408254161 0.0013957072714 88.6737897057 0.517773370878 -138.012263451 0.51823533058 42.049569473 0.00139570727138 88.6737897055 0.68069150909 53.6547386014
10.7 0.656652276935 -151.730328477 0.0253129209384 12.9026558593 0.54802803746 -18.1960990894 0.517525176781 -140.503357841 0.0253129209384 12.9026558593 0.656631731182 -151.871765769 0.547641406098 -18.1505717475 0.517960337449 39.5561043095 0.54802803746 -18.1960990894 0.547641406098 -18.1505717475 0.63225957686 -65.1508790037 0.00140498995965 84.3410018048 0.517525176781 -140.503357841 0.517960337449 39.5561043095 0.00140498995963 84.3410018045 0.681089426016 51.415661063
10.725 0.659030995991 -154.682876109 0.0228210631187 14.7320188639 0.545508286189 -22.3337051536 0.517279476634 -142.992669143 0.0228210631187 14.7320188639 0.659039044075 -154.828293205 0.54511243224 -22.2894756457 0.517686367921 37.0644679683 0.545508286189 -22.3337051536 0.54511243224 -22.2894756457 0.636609103854 -70.2424254859 0.00141426299375 80.0034848641 0.517279476634 -142.992669143 0.517686367921 37.0644679683 0.00141426299373 80.0034848639 0.681484238542 49.177541261
10.75 0.661355030802 -157.637321837 0.0205633748219 17.8422491669 0.543010218381 -26.4641634878 0.517036346466 -145.480270257 0.0205633748219 17.8422491669 0.66139301535 -157.786636717 0.542604577221 -26.4212081102 0.517413480354 34.5745944285 0.543010218381 -26.4641634878 0.542604577221 -26.4212081102 0.640872980898 -75.3159840647 0.00142352629144 75.6613821738 0.517036346466 -145.480270257 0.517413480354 34.5745944285 0.00142352629142 75.6613821736 0.68187585406 46.9403363453
10.775 0.663623729331 -160.593717117 0.0186351098771 22.5001444966 0.540535227713 -30.5877626989 0.516795863194 -147.966234918 0.0186351098771 22.5001444966 0.663692986515 -160.74683741 0.54011924221 -30.5460551031 0.517141735544 32.0864169749 0.540535227713 -30.5877626989 0.54011924221 -30.5460551031 0.645051060084 -80.3720756362 0.00143278022176 71.3148204078 0.516795863194 -147.966234918 0.517141735544 32.0864169749 0.00143278022173 71.3148204077 0.682264177774 44.7040037512
10.8 0.665836491346 -163.552128076 0.0171589838342 28.8552573983 0.538084644229 -34.7048064949 0.51655810479 -150.450637781 0.0171589838342 28.8552573983 0.665938350294 -163.708951013 0.537657765453 -34.6643176774 0.516871196834 29.5998681138 0.538084644229 -34.7048064949 0.537657765453 -34.6643176774 0.649143305098 -85.4112224537 0.00144202559912 66.9639089503 0.51655810479 -150.450637781 0.516871196834 29.5998681138 0.00144202559909 66.9639089502 0.682649112503 42.4685012054
10.825 0.667992762913 -166.512636634 0.0162710825006 36.7342197616 0.535659733143 -38.815614276 0.516323150466 -152.933554495 0.0162710825006 36.7342197615 0.668128545228 -166.673049004 0.535221421063 -38.7763125726 0.516601930206 27.1148794852 0.535659733143 -38.815614276 0.535221421063 -38.7763125726 0.653149786508 -90.433947801 0.00145126368013 62.6087392177 0.516323150466 -152.933554495 0.516601930206 27.1148794852 0.00145126368011 62.6087392177 0.683030558472 40.2337867336
10.85 0.670092030578 -169.475341694 0.0160826169607 45.4676624553 0.533261693834 -42.9205218162 0.516091080872 -155.415061791 0.0160826169607 45.4676624553 0.67026304996 -169.639219823 0.532811417998 -42.8823729008 0.516334004386 24.6313817717 0.533261693834 -42.9205218162 0.532811417998 -42.8823729008 0.657070677257 -95.4407756756 0.00146049616337 58.2493839511 0.516091080872 -155.415061791 0.516334004386 24.6313817717 0.00146049616336 58.2493839511 0.683408413092 37.9998186691
10.875 0.672133815204 -172.440360437 0.0166313015257 54.0153791211 0.530891659001 -47.0198820479 0.515861978316 -157.895237576 0.0166313015257 54.0153791211 0.672341377201 -172.607570169 0.530428899199 -46.9828489357 0.516067490943 22.1493046019 0.530891659001 -47.0198820479 0.530428899199 -46.9828489357 0.660906248424 -100.432230478 0.00146972519241 53.8858964504 0.515861978316 -157.895237576 0.516067490943 22.1493046019 0.00146972519242 53.8858964505 0.683782570725 35.766555664
10.9 0.67411766547 -175.407829723 0.0178632698988 61.4255306433 0.52855069392 -51.1140659655 0.515635926998 -160.374161031 0.0178632698988 61.4255306433 0.674363067353 -175.578226417 0.528074940845 -51.0781090211 0.515802464384 19.6685764501 0.52855069392 -51.1140659655 0.528074940845 -51.0781090211 0.664656865284 -105.408836704 0.00147895336218 49.5183097241 0.515635926998 -160.374161031 0.515802464384 19.6685764501 0.00147895336219 49.5183097242 0.684152922442 33.5339567007
10.925 0.676043150963 -178.377907623 0.0196642531687 67.2074830126 0.526239795803 -55.2034636641 0.515413013269 -162.851912718 0.0196642531687 67.2074830126 0.676327681753 -178.551336156 0.52575055169 -55.1685406144 0.515539002253 17.1891245307 0.526239795803 -55.2034636641 0.52575055169 -55.1685406144 0.668322983698 -110.37111864 0.00148818372852 45.1466355243 0.515413013269 -162.851912718 0.515539002253 17.1891245307 0.00148818372856 45.1466355244 0.684519355758 31.3019811065
10.95 0.677909854837 178.649224884 0.0219078772407 71.3260703986 0.523959893179 -59.2884855323 0.515193325907 -165.328574689 0.0219078772407 71.3260703987 0.678234795479 178.472930102 0.523456672449 -59.2545514846 0.515277185229 14.7108746871 0.523959893179 -59.2884855323 0.523456672449 -59.2545514846 0.671905146837 -115.319600048 0.00149741982104 40.7708632422 0.515193325907 -165.328574689 0.515277185229 14.7108746871 0.0014974198211 40.7708632422 0.684881754361 29.0705885694
10.975 0.679717365931 175.673362044 0.0244861049018 73.9908536999 0.521711845295 -63.3695636184 0.514976956423 -167.804230614 0.0244861049018 73.9908537 0.680083989645 175.494377052 0.521194175179 -63.336571084 0.515017097223 12.2337512748 0.521711845295 -63.3695636184 0.521194175179 -63.336571084 0.675403982236 -120.254803841 0.00150666565865 36.3909586358 0.514976956423 -167.804230614 0.515017097223 12.2337512748 0.00150666565873 36.3909586357 0.68523999781 26.8397391569
11 0.681465270259 172.694271239 0.027317618571 75.4769617808 0.519496441461 -67.447153192 0.514763999388 -170.27896591 0.027317618571 75.4769617809 0.681874843079 172.512782501 0.51896386263 -67.4150521155 0.514758825475 9.75767703861 0.519496441461 -67.447153192 0.51896386263 -67.4150521155 0.678820199169 -125.177251744 0.00151592576754 32.0068623676 0.514763999388 -170.27896591 0.514758825475 9.75767703862 0.00151592576763 32.0068623674 0.685593961219 24.6093933358
11.025 0.683153141731 169.71169067 0.0303448873498 76.0380576225 0.517314400314 -71.5217345255 0.514554552788 -172.752867882 0.0303448873498 76.0380576227 0.683606923243 169.527895044 0.516766467507 -71.4904723201 0.514502460658 7.28257298232 0.517314400314 -71.5217345255 0.516766467507 -71.4904723201 0.682154586304 -130.087463926 0.00152520520088 27.6184883275 0.514554552789 -172.752867882 0.514502460658 7.28257298233 0.00152520520099 27.6184883272 0.685943514919 22.3795119965
11.05 0.684780531929 166.725326753 0.0335283680355 75.8803236866 0.515166368951 -75.5938149211 0.514348718415 -175.226025875 0.0335283680355 75.8803236868 0.685279776239 166.539431458 0.514602651605 -75.5633365104 0.514248096973 4.80835823165 0.515166368951 -75.5938149211 0.514602651605 -75.5633365104 0.685408009598 -134.985958594 0.00153450955952 23.2257217248 0.514348718415 -175.226025875 0.514248096974 4.80835823166 0.00153450955964 23.2257217243 0.686288524091 20.1500564788
11.075 0.686346958734 163.734851205 0.0368412957523 75.1628523812 0.513052921869 -79.6639310137 0.514146602279 -177.698531441 0.0368412957523 75.1628523813 0.686892915682 163.547073791 0.512473004759 -79.6341788801 0.513995832254 2.33494988889 0.513052921869 -79.6639310137 0.512473004759 -79.6341788801 0.688581410388 -139.873251558 0.00154384501268 18.8284169308 0.514146602279 -177.698531441 0.513995832254 2.3349498889 0.00154384501281 18.8284169302 0.68662884837 17.9209886022
11.1 0.687851893545 160.739897763 0.0402658290837 74.0060126974 0.510974559676 -83.7326513804 0.513948315073 179.829521484 0.0402658290838 74.0060126976 0.688445810187 160.550466082 0.510378043564 -83.7035656209 0.513745768066 -0.137737121045 0.510974559676 -83.7326513804 0.510378043564 -83.7035656209 0.691675803599 -144.749855725 0.00155321831753 14.4263950618 0.513948315073 179.829521484 0.513745768066 -0.137737121036 0.00155321831765 14.4263950611 0.686964341422 15.6922706997
11.125 0.689294746764 157.740058502 0.0437904001469 72.5005101122 0.508931707494 -87.8005794938 0.513753972663 177.358036389 0.043790400147 72.5005101124 0.689937869157 157.549210683 0.5083182098 -87.7720978836 0.513498009814 -2.60979021401 0.508931707494 -87.8005794938 0.5083182098 -87.7720978836 0.694692275993 -149.616280542 0.00156263683641 10.0194412935 0.513753972663 177.358036389 0.513498009814 -2.609790214 0.00156263683651 10.0194412928 0.687294850484 13.4638656561
11.15 0.690674851176 154.734879683 0.0474079453928 70.7149487558 0.506924713012 -91.8683570576 0.51356369663 174.886913978 0.0474079453929 70.714948756 0.691368426488 154.542864111 0.506293868509 -91.8404151221 0.513252666845 -5.08129932016 0.506924713012 -91.8683570576 0.506293868509 -91.8404151221 0.697631984394 -154.473031361 0.00157210855012 5.60730190529 0.51356369663 174.886913978 0.513252666845 -5.08129932015 0.0015721085502 5.60730190478 0.687620215874 11.2357369527
11.175 0.691991442752 151.723857064 0.051114737496 68.7015974187 0.504953844095 -95.9366677698 0.513377614856 172.416051946 0.051114737496 68.7015974187 0.692736721736 151.53093238 0.504305305642 -95.9091988659 0.513009852549 -7.55235706861 0.504953844095 -95.9366677698 0.504305305642 -95.9091988659 0.700496153773 -159.320608714 0.00158164206581 1.1896810548 0.513377614856 172.416051946 0.513009852549 -7.55235706861 0.00158164206584 1.18968105461 0.687940270459 9.0078487171
11.2 0.693243638318 148.706430622 0.0549096188733 66.5006288294 0.503019285895 -100.006241562 0.513195862166 169.945344737 0.0549096188732 66.5006288294 0.694041878191 148.512865726 0.502352725205 -99.9791769691 0.512769684468 -10.0230589842 0.503019285895 -100.006241562 0.502352725205 -99.9791769691 0.703286075126 -164.15950749 0.00159124661739 -3.23376270808 0.513195862166 169.945344737 0.512769684468 -10.0230589842 0.00159124661735 -3.23376270775 0.688254839095 6.78016578176
11.225 0.694430409417 145.681978577 0.058793504103 64.1431955928 0.501121137357 -104.077859369 0.51301858103 167.474683278 0.0587935041029 64.1431955926 0.695282877179 145.488052659 0.500436245828 -104.051128393 0.512532284398 -12.493503697 0.501121137357 -104.077859369 0.500436245828 -104.051128393 0.706003103015 -168.990216007 0.0016009320567 -7.66342017533 0.51301858103 167.474683278 0.512532284398 -12.493503697 0.00160093205659 -7.66342017423 0.688563738032 4.55265375133
11.25 0.695550551546 142.649810648 0.0627690653735 61.6536577456 0.499259407028 -108.152358498 0.512845922323 165.003954695 0.0627690653733 61.6536577452 0.696458527802 142.45581324 0.498555896643 -108.125888581 0.512297778489 -14.9637931666 0.499259407028 -108.152358498 0.498555896643 -108.125888581 0.708648652701 -173.813214952 0.00161070883311 -12.0997354428 0.512845922323 165.003954695 0.512297778489 -14.9637931666 0.00161070883291 -12.0997354407 0.688866774295 2.32527908077
11.275 0.696602647789 139.609160419 0.0668405460957 59.0512020532 0.497434008058 -112.230638649 0.512678046166 162.533042004 0.0668405460954 59.0512020527 0.697567431113 139.415391472 0.496711612365 -112.204355507 0.512066297344 -17.4340329213 0.497434008057 -112.230638649 0.496711612365 -112.204355506 0.711224196745 -178.628976192 0.0016205879591 -16.5432100742 0.512678046165 162.533042004 0.512066297343 -17.4340329214 0.0016205879588 -16.5432100708 0.689163745054 0.09800916643
11.3 0.697585025657 136.559176692 0.0710136679801 56.3510269144 0.495644752251 -116.313668697 0.51251512284 160.061823775 0.0710136679796 56.3510269137 0.698607937577 136.365946696 0.494903227455 -116.287496452 0.51183797611 -19.9043323145 0.495644752251 -116.313668697 0.494903227455 -116.287496452 0.713731260993 176.562038566 0.0016305809593 -20.9944074331 0.51251512284 160.061823775 0.51183797611 -19.9043323145 0.00163058095888 -20.9944074282 0.689454437006 -2.12918754773
11.325 0.698495705686 133.498913691 0.0752956100603 53.5652160904 0.493891343029 -120.402494282 0.512357333799 157.590173769 0.0752956100596 53.5652160895 0.699578096355 133.306543836 0.493130469205 -120.376355634 0.511612954568 -22.3748047986 0.493891343028 -120.402494283 0.493130469205 -120.376355634 0.716171419847 171.75937927 0.0016406998 -25.4539571423 0.512357333798 157.590173769 0.511612954567 -22.3748047986 0.00164069979947 -25.4539571357 0.689738625794 -4.35634144648
11.35 0.699332340058 130.427319957 0.0796950469566 50.7033879356 0.49217336711 -124.498246359 0.51220487277 155.117960546 0.0796950469557 50.7033879344 0.700475594694 130.23614234 0.491392949575 -124.47206276 0.511391377202 -24.8455682198 0.492173367109 -124.498246359 0.491392949576 -124.47206276 0.718546290725 166.962609192 0.0016509567961 -29.9225596202 0.512204872769 155.117960546 0.511391377201 -24.8455682199 0.00165095679547 -29.922559612 0.69001607551 -6.58348159973
11.375 0.700092139103 127.34322573 0.0842222398096 47.7731810901 0.490490284709 -128.60215077 0.512057946978 152.645047034 0.0842222398084 47.7731810888 0.701297685298 127.153583626 0.489690155584 -128.575842637 0.511173393267 -27.3167451338 0.490490284708 -128.60215077 0.489690155585 -128.575842637 0.720857527644 162.17130676 0.00166136449199 -34.4009906355 0.512057946976 152.645047034 0.511173393266 -27.3167451339 0.00166136449128 -34.4009906258 0.690286538349 -8.81063559699
11.4 0.700771783093 124.245328609 0.0888891778669 44.7806196432 0.488841418003 -132.715539021 0.511916778484 150.17129007 0.0888891778655 44.7806196417 0.702041099094 124.057576815 0.488021437996 -132.68902596 0.510959156835 -29.7884631446 0.488841418002 -132.715539021 0.488021437997 -132.689025959 0.723106813844 157.385067594 0.00167193551261 -38.8901058099 0.511916778482 150.17129007 0.510959156834 -29.7884631447 0.00167193551186 -38.8901057991 0.690549754479 -11.0378293587
11.425 0.701367316148 121.13217725 0.0937097723993 41.7303882451 0.487225937571 -136.839860369 0.511781605673 147.696539896 0.0937097723978 41.7303882436 0.702701940234 120.946682502 0.486385998037 -136.813061445 0.510748826818 -32.2608552698 0.487225937571 -136.839860369 0.486385998037 -136.813061445 0.725295853402 152.603506713 0.00168268238072 -43.3908449864 0.511781605671 147.696539896 0.510748826817 -32.2608552699 0.00168268237999 -43.3908449755 0.690805452256 -13.2650869244
11.45 0.701874018352 118.002152781 0.0987001079599 38.6260388406 0.485642846465 -140.97669543 0.511652684892 145.22063961 0.0987001079585 38.6260388393 0.70327555946 117.819294278 0.484782871786 -140.949529465 0.510542566969 -34.7340603326 0.485642846464 -140.97669543 0.484782871786 -140.949529464 0.727426361792 147.826260947 0.00169361729573 -47.9042363674 0.511652684891 145.22063961 0.510542566968 -34.7340603327 0.00169361729512 -47.9042363577 0.691053348891 -15.4924302213
11.475 0.702286251307 114.853447627 0.103878759375 35.4701444434 0.484090961487 -145.127771473 0.511530292267 142.743424581 0.103878759374 35.4701444426 0.703756401052 114.673617655 0.483210911852 -145.100157391 0.51034054585 -37.2082233845 0.484090961487 -145.127771473 0.483210911852 -145.100157391 0.729500055362 143.052991539 0.0017047518694 -52.4314003087 0.511530292266 142.743424581 0.510340545849 -37.2082233846 0.00170475186901 -52.4314003023 0.691293151721 -17.7198788186
11.5 0.702597271202 111.684041335 0.10926718661 32.2644108535 0.482568891197 -149.29497965 0.511414725715 140.264721798 0.10926718661 32.2644108535 0.704137817488 111.507646026 0.481668765842 -149.266836878 0.510142936759 -39.6834961608 0.482568891197 -149.29497965 0.481668765842 -149.266836878 0.73151863973 138.283386932 0.001716096813 -56.9735526375 0.511414725715 140.264721798 0.510142936759 -39.6834961608 0.00171609681299 -56.9735526374 0.691524560235 -19.9474496804
