! Generated from PyAEDT SolutionData; AEDT ExportNetworkData workaround
# GHz S MA R 50
9 0.245052692088 124.860590719 0.468801089767 175.257422422 0.535109467166 -105.949857659 0.658659680323 45.9995679893 0.468801089767 175.257422422 0.245632150666 124.710373984 0.535989330297 -105.902492227 0.657727772411 -134.022167825 0.535109467166 -105.949857659 0.535989330297 -105.902492227 0.652972006363 169.73675293 0.000924588359643 -84.561589544 0.658659680323 45.9995679893 0.657727772411 -134.022167825 0.000924588359643 -84.5615895441 0.365459639431 -114.464803303
9.025 0.241478427514 121.443137116 0.466721071922 172.484690204 0.539026242086 -110.68314544 0.658263004552 43.0919163889 0.466721071924 172.484690204 0.242065554501 121.288700186 0.539914098271 -110.635530339 0.657319051241 -136.929585469 0.539026242085 -110.68314544 0.539914098271 -110.635530339 0.646485060123 163.122190278 0.000935276811032 -89.4251157352 0.658263004552 43.0919163889 0.65731905124 -136.929585469 0.000935276810742 -89.4251157376 0.366906851356 -117.18313271
9.05 0.237883343597 118.018764456 0.46461648122 169.726408491 0.54291742593 -115.414792714 0.657862855166 40.1922384437 0.464616481222 169.726408491 0.238478590205 117.86004877 0.543813312398 -115.366916016 0.656906685121 -139.82900357 0.54291742593 -115.414792714 0.543813312399 -115.366916016 0.63992755251 156.49656 0.000945963865993 -94.2901485149 0.657862855166 40.1922384436 0.65690668512 -139.82900357 0.00094596386561 -94.2901485176 0.368360169781 -119.896553772
9.075 0.234267067942 114.586472705 0.462487152843 166.982654294 0.546783134732 -120.144871384 0.657459220764 37.3003831116 0.462487152845 166.982654294 0.234870892067 114.423422282 0.547687093958 -120.09672133 0.656490663327 -142.720572084 0.546783134731 -120.144871384 0.547687093958 -120.09672133 0.633298115347 149.859565869 0.000956644782754 -99.1565741611 0.657459220765 37.3003831115 0.656490663326 -142.720572084 0.000956644782401 -99.1565741631 0.369819551965 -122.605162104
9.1 0.230629116349 111.145198142 0.460332849676 164.253534358 0.550623580973 -124.873475809 0.657052087969 34.4162029223 0.460332849676 164.253534358 0.231241982021 110.977759975 0.551535660887 -124.825040822 0.65607097348 -145.604437342 0.550623580973 -124.873475809 0.551535660887 -124.825040822 0.626595089964 143.210807742 0.000967314969973 -104.024292968 0.657052087969 34.4162029222 0.656070973479 -145.604437341 0.000967314969715 -104.024292969 0.371284957514 -125.30905132
9.125 0.226968890597 107.693808969 0.458153274834 161.539188096 0.554439053403 -129.600723813 0.656641441678 31.5395538643 0.458153274835 161.539188095 0.227591267232 107.5219334 0.555359307561 -129.551992513 0.65564760187 -148.480742156 0.554439053403 -129.600723813 0.555359307561 -129.551992513 0.619816545579 136.549775732 0.000977969970387 -108.893219836 0.656641441678 31.5395538643 0.65564760187 -148.480742156 0.000977969970248 -108.893219836 0.372756348251 -128.0083131
9.15 0.223285677095 104.23110067 0.45594808725 158.839790744 0.558229894864 -134.326757547 0.656227265268 28.6702952746 0.455948087251 158.839790744 0.223918038561 104.054741753 0.559158382583 -134.277718767 0.655220533742 -151.34962593 0.558229894864 -134.326757547 0.559158382583 -134.277718767 0.612960302923 129.875843546 0.000988605440856 -113.763284825 0.656227265268 28.6702952746 0.655220533742 -151.34962593 0.00098860544083 -113.763284825 0.37423368808 -130.703037261
9.175 0.219578646678 100.755791021 0.453716920599 156.155556705 0.561996478201 -139.051744185 0.65580954076 25.8082897289 0.453716920599 156.155556705 0.220221470172 100.574906908 0.562933264645 -139.002386991 0.65478975354 -154.211224764 0.561996478201 -139.051744185 0.562933264645 -139.002386991 0.60602396354 123.188260984 0.000999217128752 -118.634433645 0.65580954076 25.808289729 0.65478975354 -154.211224764 0.000999217128816 -118.634433644 0.375716942872 -133.393311821
9.2 0.215846855765 97.2665146644 0.451459405839 153.486743012 0.565739180313 -143.77587645 0.655388248936 22.953402936 0.451459405838 153.486743013 0.216500620523 97.0810680124 0.566684336528 -143.726190158 0.654355245123 -157.065671559 0.565739180314 -143.77587645 0.566684336528 -143.726190158 0.599004945259 116.486145586 0.00100980084468 -123.50662807 0.655388248936 22.953402936 0.654355245123 -157.065671559 0.0010098008448 -123.50662807 0.377206080346 -136.079223066
9.225 0.212089249099 93.7618171093 0.449175197548 150.833652874 0.569458354437 -148.499372957 0.654963369429 20.1055036331 0.449175197548 150.833652874 0.212754434946 93.5717755345 0.570411957331 -148.449347151 0.653916991951 -159.913096119 0.569458354437 -148.499372957 0.570411957331 -148.449347151 0.591900524382 109.768473412 0.00102035243153 -128.379846255 0.654963369429 20.1055036331 0.653916991951 -159.913096119 0.00102035243167 -128.379846255 0.378701069966 -138.760855606
9.25 0.208304664275 90.2401480227 0.44686400423 148.196639236 0.573154300747 -153.222478359 0.654534880781 17.2644634856 0.44686400423 148.196639236 0.208981750025 90.0454846153 0.574116433005 -153.172102909 0.653474977246 -162.753625254 0.573154300747 -153.222478359 0.574116433005 -153.172102909 0.584707885248 103.034068952 0.00103086772996 -133.254082929 0.654534880781 17.2644634856 0.653474977246 -162.753625254 0.00103086773009 -133.254082929 0.380201882834 -141.438292435
9.275 0.204491838222 86.6998536346 0.444525622704 145.5761083 0.576827235372 -157.945463292 0.654102760475 14.4301569891 0.444525622704 145.5761083 0.205181299957 86.5005475576 0.577797985311 -157.894728379 0.653029184135 -165.587382876 0.576827235372 -157.945463292 0.577797985311 -157.894728379 0.577424177884 96.2815941292 0.00104134254032 -138.129349461 0.654102760474 14.4301569891 0.653029184135 -165.587382876 0.00104134254041 -138.129349461 0.381708491596 -144.111614988
9.3 0.200649415849 83.1391680645 0.442159976705 142.972522947 0.580477257949 -162.668624112 0.653666984944 11.6024613754 0.442159976705 142.972522947 0.20135172507 82.9352052554 0.581456719288 -162.617520243 0.652579595773 -168.414490097 0.580477257949 -162.668624112 0.581456719288 -162.617520243 0.570046584575 89.509536383 0.00105177258127 -143.005673764 0.653666984944 11.6024613754 0.652579595773 -168.414490097 0.0010517725813 -143.005673764 0.383220870352 -146.780903196
9.325 0.196775961014 79.5562033341 0.439767159768 140.386405966 0.584104317805 -167.392282412 0.653227529568 8.78125652144 0.439767159768 140.386405966 0.197491582692 79.3475773393 0.585092589376 -167.340800438 0.652126195452 -171.23506532 0.584104317805 -167.392282412 0.585092589376 -167.340800438 0.562572396287 82.7161957956 0.00106215344514 -147.88310004 0.653227529568 8.78125652144 0.652126195452 -171.23506532 0.00106215344511 -147.883100039 0.384738994571 -149.446235532
9.35 0.192869970028 75.9489377979 0.437347482498 137.818343044 0.587708178939 -172.116784302 0.652784368643 5.96642486216 0.437347482498 137.818343044 0.193599360557 75.73565077 0.588705364302 -172.064915443 0.6516689667 -174.049224333 0.587708178938 -172.116784302 0.588705364302 -172.064915443 0.554999099991 75.8996712346 0.0010724805504 -152.761688331 0.652784368643 5.96642486215 0.6516689667 -174.049224333 0.00107248055029 -152.76168833 0.386262841006 -152.10768907
9.375 0.188929887909 72.3152026722 0.434901524274 135.268985389 0.591288383903 -176.842499471 0.652337475352 3.157851307 0.434901524273 135.268985389 0.189673492977 72.0972665695 0.592294590887 -176.790235328 0.651207893366 -176.857080397 0.591288383903 -176.842499471 0.592294590887 -176.790235328 0.547324478099 69.0578454796 0.00108274909135 -157.641513879 0.652337475352 3.15785130698 0.651207893366 -176.857080397 0.00108274909118 -157.641513878 0.387792387621 -154.765339522
9.4 0.184954127642 68.652666285 0.432430189439 132.739051912 0.594844216788 178.430180011 0.65188682172 0.355423159894 0.432430189439 132.739051912 0.185712380011 68.430104322 0.595859556939 178.482847434 0.650742959701 -179.65874433 0.594844216788 178.430180011 0.595859556939 178.482847434 0.539546721323 62.1883693094 0.00109295398557 -162.522666267 0.65188682172 0.355423159859 0.650742959701 -179.65874433 0.00109295398534 -162.522666265 0.389327613519 -157.419261294
9.425 0.180941092717 64.9588155996 0.429934768011 130.229330819 0.598374665462 173.700841133 0.651432378562 -2.44096995699 0.42993476801 130.229330819 0.181714409939 64.7316640071 0.599399253398 173.75391941 0.650274150427 177.545675406 0.598374665461 173.700841133 0.599399253399 173.75391941 0.531664556491 55.2886445427 0.00110308981928 -167.405248336 0.651432378562 -2.44096995703 0.650274150427 177.545675406 0.00110308981901 -167.405248333 0.390868498869 -160.069527525
9.45 0.176889203318 61.2309344756 0.42741700086 127.740680485 0.601878383283 168.969051643 0.650974115428 -5.23143617585 0.427417000859 127.740680485 0.17767798537 60.9992446473 0.60291233596 169.022547913 0.649801450808 174.756072624 0.601878383282 168.969051643 0.602912335961 169.022547913 0.523677390958 48.3558060493 0.00111315079133 -172.289374868 0.650974115428 -5.23143617589 0.649801450808 174.756072624 0.00111315079103 -172.289374865 0.392415024847 -162.71621013
9.475 0.172796926559 57.4660780259 0.424879149301 125.274029425 0.605353650522 164.234362017 0.650512000548 -8.01608145231 0.424879149301 125.274029425 0.173601553406 57.229919144 0.606397086394 164.288282966 0.649324846706 171.972343332 0.605353650522 164.234362017 0.606397086394 164.288282966 0.515585475472 41.3867027951 0.00112313065609 -177.175171019 0.650512000548 -8.01608145235 0.649324846705 171.972343332 0.0011231306558 -177.175171016 0.393967173572 -165.359379843
9.5 0.16866281128 53.6610422928 0.42232406891 122.830375181 0.608798335765 159.496307706 0.650046000776 -10.7950096309 0.422324068909 122.83037518 0.169483640361 53.4205045523 0.609851373843 159.55065955 0.64884432464 169.194385657 0.608798335765 159.496307706 0.609851373844 159.55065955 0.507390087498 34.3778780475 0.00113302266607 177.937229506 0.650046000776 -10.7950096309 0.64884432464 169.194385657 0.00113302266579 177.93722951 0.39552492805 -167.999106253
9.525 0.164485528013 49.8123283058 0.419755287271 120.410781875 0.612209857599 154.754411659 0.649576081533 -13.568322507 0.419755287271 120.410781875 0.16532289164 49.5675268893 0.613272616412 154.809200131 0.648359871841 166.422099764 0.612209857599 154.754411659 0.613272616412 154.809200131 0.499093737151 27.3255489648 0.00114281951472 173.047686545 0.649576081533 -13.568322507 0.648359871841 166.422099764 0.00114281951447 173.047686548 0.397088272116 -170.635457845
9.55 0.160263914874 45.9160993815 0.417177085236 118.016376183 0.615585146949 150.008187138 0.649102206761 -16.3361198855 0.417177085236 118.016376183 0.161118117523 45.6671793754 0.616657743396 150.063417477 0.647871476293 163.655387786 0.615585146949 150.008187138 0.616657743396 150.063417477 0.490700398035 20.22558593 0.00115251328045 168.156055836 0.649102206762 -16.3361198855 0.647871476293 163.655387786 0.00115251328026 168.156055839 0.39865719039 -173.268502037
9.575 0.155997030278 41.9681302797 0.414594581025 115.64834141 0.61892061048 145.257140838 0.648624338879 -19.0984996362 0.414594581025 115.64834141 0.156868345754 41.7152727775 0.620003158575 145.312817772 0.647379126779 160.894153751 0.61892061048 145.257140838 0.620003158575 145.312817772 0.482215765301 13.0734921801 0.00116209537255 163.262191664 0.648624338879 -19.0984996362 0.647379126779 160.894153751 0.00116209537242 163.262191667 0.400231668223 -175.898305212
9.6 0.151684213628 37.963746525 0.412013816307 113.307909357 0.62221209553 140.500776298 0.648142438743 -21.8555577458 0.412013816306 113.307909357 0.152572882046 37.7071762325 0.623304705036 140.556904034 0.646882812915 158.138303507 0.62221209553 140.500776298 0.623304705036 140.556904034 0.473647543223 5.86438454174 0.00117155648002 158.365949776 0.648142438743 -21.8555577459 0.646882812915 158.138303507 0.00117155647995 158.365949777 0.401811691654 -178.524932753
9.625 0.147325155354 33.8977518368 0.409441843061 110.996349586 0.62545485711 135.738597624 0.647656465627 -24.6073883673 0.409441843061 110.996349586 0.148231379887 33.6377465804 0.626557632076 135.795179842 0.646382525177 155.387744653 0.62545485711 135.738597624 0.626557632076 135.795179842 0.465005764385 -1.40702356486 0.00118088652449 153.467190583 0.647656465627 -24.6073883673 0.646382525177 155.387744653 0.00118088652449 153.467190583 0.403397247368 178.851550925
9.65 0.142919978043 29.7643411589 0.406886809696 108.714955723 0.628643527599 130.970113524 0.647166377204 -27.3540838657 0.406886809696 108.714955723 0.143843921318 29.5012438188 0.629756564783 131.027153362 0.645878254921 152.642386472 0.628643527599 130.970113524 0.629756564783 131.027153362 0.456303142149 -8.74643522793 0.00119007461834 148.565782645 0.647166377204 -27.3540838657 0.645878254921 152.642386472 0.0011900746184 148.565782644 0.404988322657 176.23108234
9.675 0.138469330811 25.5569962464 0.404358044453 106.465028366 0.631772089794 126.194841639 0.646672129547 -30.0957348618 0.404358044454 106.465028366 0.139411110826 25.2912297832 0.632895476988 126.25234169 0.645369994387 149.902139859 0.631772089794 126.194841639 0.632895476988 126.25234169 0.447555457323 -16.1599770224 0.00119910902943 143.661606425 0.646672129547 -30.0957348618 0.645369994387 149.902139859 0.00119910902955 143.661606422 0.40658490538 173.613598921
9.7 0.133974499642 21.2683601381 0.401866133682 104.247854221 0.6348338541 121.412313192 0.646173677142 -32.8324302729 0.401866133682 104.247854221 0.13493418497 21.0004465794 0.635967668354 121.470275497 0.644857736701 147.166917257 0.6348338541 121.412313192 0.635967668354 121.470275497 0.438781978742 -23.6541968638 0.00120797715377 138.754558303 0.646173677142 -32.8324302729 0.644857736701 147.166917257 0.00120797715394 138.754558299 0.408186983928 170.99903897
9.725 0.1294375371 16.8900861185 0.399422992034 102.064681074 0.637821440676 116.622077918 0.645670972922 -35.5642573513 0.399422992035 102.064681074 0.130415141085 16.6206706282 0.638965746434 116.68050396 0.644341475846 144.43663259 0.637821440676 116.622077918 0.638965746434 116.68050396 0.430005915625 -31.2360487751 0.00121666549778 133.844554853 0.645670972922 -35.5642573513 0.644341475846 144.43663259 0.00121666549799 133.844554848 0.409794547198 168.387341644
9.75 0.124861415758 12.4126559978 0.397041921076 99.9166882992 0.640726767466 111.823709283 0.645163968308 -38.2913017206 0.397041921076 99.9166882992 0.125856889241 12.142537474 0.641881614617 111.882599985 0.643821206634 141.711201195 0.640726767467 111.823709283 0.641881614617 111.882599985 0.421254896869 -38.9128594389 0.00122515967174 128.931537333 0.645163968308 -38.2913017205 0.643821206634 141.711201195 0.00122515967197 128.931537327 0.411407584554 165.778446919
9.775 0.120250210823 7.82516175799 0.394737652226 97.8049526741 0.643541045076 107.016809956 0.64465261329 -41.0136474097 0.394737652226 97.8049526741 0.121263432763 7.55533182635 0.644706466929 107.076165682 0.643296924643 138.990539762 0.643541045076 107.016809956 0.644706466929 107.076165682 0.412561468623 -46.692270051 0.00123344439614 124.01547639 0.64465261329 -41.0136474097 0.643296924643 138.990539762 0.00123344439637 124.015476383 0.413026085802 163.172295572
9.8 0.115609318947 3.11504399693 0.392526369398 95.7304094556 0.64625477952 102.201017516 0.644136856505 -43.731376886 0.392526369398 95.7304094557 0.116640084013 2.84673678612 0.647430790724 102.260838068 0.642768626143 136.274566268 0.64625477952 102.201017516 0.647430790723 102.260838068 0.40396359623 -54.5821455052 0.00124150352273 119.096376929 0.644136856505 -43.7313768859 0.642768626143 136.274566268 0.00124150352295 119.096376922 0.414650041166 160.568829154
9.825 0.110945722044 -1.73221956507 0.390425706209 93.6938088562 0.648857783907 97.3760103565 0.643616645363 -46.4445710861 0.390425706209 93.6938088562 0.111993723878 -1.99746384754 0.650044378322 97.4362949781 0.642236307995 133.563199917 0.648857783907 97.3760103565 0.650044378322 97.4362949781 0.395505149657 -62.59044145 0.00124932007202 114.174283108 0.643616645363 -46.444571086 0.642236307995 133.563199916 0.00124932007222 114.174283102 0.416279441259 157.967989965
9.85 0.10626830721 -6.73348142182 0.388454712258 91.6956683553 0.651339200123 92.5415137324 0.643091926175 -49.1533094464 0.388454712259 91.6956683553 0.107333115514 -6.99373537047 0.652536348668 92.6022611139 0.641699967522 130.856361077 0.651339200123 92.5415137324 0.652536348668 92.6022611139 0.387236342614 -70.7250185259 0.0012568762891 109.249283411 0.643091926175 -49.1533094464 0.641699967522 130.856361077 0.00125687628927 109.249283405 0.417914277066 155.369721034
9.875 0.101588256471 -11.9083505474 0.386633782797 89.7362216223 0.653687531563 87.6973059097 0.642562644322 -51.8576699328 0.386633782797 89.7362216223 0.102669285345 -12.1611964094 0.654895180056 87.7585141928 0.641159602362 128.153971227 0.653687531563 87.6973059097 0.654895180056 87.7585141928 0.379214084577 -78.9933925193 0.00126415371926 104.321515727 0.642562644322 -51.8576699328 0.641159602362 128.153971227 0.00126415371939 104.321515723 0.419554539915 152.773966098
9.9 0.0969195229264 -17.279674143 0.38498454621 87.8153652429 0.655890687892 82.8432243372 0.642028744438 -54.5577290697 0.38498454621 87.8153652429 0.0980159868831 -17.5220735726 0.657108754912 82.9048911234 0.64061521028 125.455952894 0.655890687892 82.8432243372 0.657108754912 82.9048911234 0.371502192208 -87.4024098885 0.00127113330507 99.3911723857 0.642028744438 -54.5577290697 0.64061521028 125.455952894 0.00127113330514 99.3911723828 0.421200221464 150.180669577
9.925 0.0922794123226 -22.8740582257 0.383529704207 85.9326049065 0.657936042734 77.9791717716 0.641490170631 -57.2535619694 0.383529704207 85.9326049065 0.0933902651134 -23.1021898664 0.65916441753 78.0412941325 0.640066788968 122.762229603 0.657936042734 77.9791717716 0.65916441753 78.0412941325 0.364171393128 -95.9578409571 0.00127779550613 94.4585050367 0.641490170631 -57.2535619694 0.640066788968 122.762229603 0.00127779550615 94.4585050356 0.422851313678 147.589776561
9.95 0.0876892900655 -28.7223857561 0.382292820526 84.0870032014 0.659810505008 73.1051222631 0.640946866714 -59.9452423629 0.382292820526 84.0870032014 0.0888131398989 -28.93144695 0.661049045483 73.1676967525 0.639514335803 120.072725825 0.659810505008 73.1051222631 0.661049045483 73.1676967525 0.357299042382 -104.663889056 0.00128412044247 89.5238293083 0.640946866714 -59.9452423629 0.639514335803 120.072725825 0.00128412044244 89.5238293092 0.424507808815 145.001232783
9.975 0.0831754307335 -34.8602473996 0.381298055419 82.2771316453 0.661500604445 68.2211269037 0.64039877647 -62.6328426302 0.381298055419 82.2771316453 0.0843104237484 -35.0442205969 0.662749135257 68.2841495719 0.638957847593 117.387366928 0.661500604445 68.2211269037 0.662749135257 68.2841495719 0.350968463347 -113.522624004 0.00129008806205 84.5875291245 0.64039877647 -62.6328426302 0.638957847593 117.387366928 0.00129008806198 84.5875291275 0.426169699408 142.414984609
10 0.0787700157134 -41.3281268153 0.380569845211 80.5010299841 0.662992591548 63.3273192275 0.639845843935 -65.3164338342 0.380569845211 80.5010299842 0.0799136782525 -41.4795210859 0.664250902345 63.390785638 0.638397320285 114.706079133 0.662992591548 63.3273192275 0.664250902345 63.390785638 0.345267824668 -122.533363191 0.00129567833246 79.6500605763 0.639845843935 -65.3164338342 0.638397320285 114.706079133 0.00129567833235 79.6500605814 0.427836978252 139.830979015
10.025 0.0745122567156 -48.1710668735 0.380132528818 78.7561760709 0.664272551913 58.4239201455 0.639288013699 -67.9960857546 0.380132528817 78.7561760709 0.0756612871327 -48.2806644707 0.665540395766 58.4878253942 0.637832748667 112.028789475 0.664272551913 58.4239201455 0.665540395766 58.4878253942 0.340288478478 -131.692042707 0.00130087145601 74.7119552254 0.639288013699 -67.9960857546 0.637832748667 112.028789475 0.00130087145587 74.7119552324 0.429509638385 137.249163572
10.05 0.0704495658368 -55.4373765296 0.380009926209 77.0394697052 0.665326534486 53.5112422902 0.638725231219 -70.6718669265 0.380009926208 77.0394697052 0.0715995706398 -55.4940492861 0.666603626532 53.5755810264 0.637264126044 109.355425768 0.665326534486 53.5112422902 0.666603626533 53.5755810264 0.336122718251 -140.990642475 0.00130564810715 69.7738227147 0.638725231219 -70.6718669265 0.637264126044 109.355425768 0.001305648107 69.7738227234 0.43118767308 134.669486431
10.075 0.0666385891633 -63.1757323617 0.380224877248 75.3472336125 0.666140692862 48.5896936401 0.638157443145 -73.3438446801 0.380224877248 75.3472336125 0.0677837703544 -63.1664475621 0.667426709213 48.6544600905 0.636691443912 106.685916568 0.666140692861 48.5896936401 0.667426709213 48.6544600905 0.332860970775 -150.416748628 0.00130998968976 64.8363525602 0.638157443145 -73.3438446801 0.636691443912 106.685916568 0.00130998968959 64.8363525702 0.432871075829 132.091896304
10.1 0.0631457541887 -71.4298548678 0.380798752915 73.6752342143 0.666701438263 43.6597802973 0.637584597641 -76.0120851853 0.380798752915 73.6752342143 0.064278580622 -71.3400620211 0.667996015208 43.7249682922 0.636114691623 104.020191154 0.666701438263 43.6597802973 0.667996015208 43.7249682922 0.330588514893 -159.953346916 0.0013138786115 59.9003149941 0.637584597641 -76.0120851853 0.636114691623 104.020191154 0.00131387861133 59.900315005 0.434559840328 129.516342455
10.125 0.0600467550726 -80.2299876987 0.381750954294 72.0187239685 0.666995602362 38.7221082902 0.63700664471 -78.6766534992 0.381750954294 72.0187239686 0.0611576958542 -80.0446398628 0.668298335905 38.7877112923 0.635533856059 101.358179506 0.666995602361 38.7221082902 0.668298335905 38.7877112923 0.329381911393 -169.578935055 0.00131729857131 54.9665607406 0.63700664471 -78.6766534992 0.635533856059 101.358179506 0.00131729857115 54.966560752 0.436253960469 126.94277468
10.15 0.0574241786227 -89.5810335838 0.383098417545 70.372505864 0.667010607548 33.7773842854 0.636423536501 -81.3376136176 0.383098417544 70.372505864 0.058501638197 -89.2864785489 0.668321053312 33.8433954212 0.634948921318 98.6998122861 0.667010607548 33.7773842854 0.668321053312 33.8433954212 0.329305416682 -179.268013867 0.00132023485522 50.0360196105 0.6364235365 -81.3376136176 0.634948921319 98.6998122861 0.00132023485507 50.036019622 0.437953430324 124.371143296
10.175 0.0553624390229 -99.4488186886 0.384855144995 68.7310192116 0.666734641814 28.8264151032 0.63583522759 -83.9950285305 0.384855144995 68.7310192117 0.0563930862705 -99.0355795389 0.668052315335 28.892827197 0.634359868426 96.0450208335 0.666734641814 28.8264151033 0.668052315335 28.892827197 0.33040771423 171.008033435 0.00132267463484 45.1096978181 0.63583522759 -83.9950285305 0.634359868426 96.0450208335 0.0013226746347 45.1096978292 0.439658244132 121.801399127
10.2 0.0539396427171 -109.748556329 0.387031783166 67.0884443111 0.666156834904 23.8701059501 0.635241675244 -86.6489602819 0.387031783166 67.0884443111 0.054909310944 -109.21452385 0.667481212347 23.9369115606 0.633766675074 93.393737157 0.666156834904 23.8701059501 0.667481212347 23.9369115606 0.33271930897 161.279729626 0.00132460726224 40.1886739423 0.635241675243 -86.6489602819 0.633766675074 93.393737157 0.00132460726213 40.1886739526 0.441368396286 119.233493492
10.225 0.05321718196 -120.341888179 0.389635267748 65.4388220487 0.665267432057 18.909457304 0.634642839627 -89.2994700321 0.389635267748 65.4388220487 0.0541123624292 -119.694812899 0.666597951359 18.9766487636 0.633169315406 90.7458939366 0.665267432057 18.909457304 0.666597951359 18.9766487636 0.336250877137 151.578079386 0.00132602455425 35.2740934819 0.634642839627 -89.2994700321 0.633169315406 90.7458939366 0.00132602455416 35.274093491 0.443083881318 116.667378192
10.25 0.0532294891473 -131.048191859 0.392668553232 63.7761831861 0.664057961332 13.9455604158 0.634038683977 -91.9466181244 0.392668553232 63.7761831862 0.0540391488431 -130.306099374 0.66539402379 14.0131298731 0.632567759848 88.1014245274 0.664057961332 13.9455604159 0.66539402379 14.0131298731 0.340992751208 141.933096945 0.0013269210587 30.36716198 0.634038683977 -91.9466181244 0.632567759848 88.1014245275 0.00132692105863 30.3671619878 0.444804693885 114.103005496
10.275 0.0539774147926 -141.670213101 0.396130441136 62.0946811904 0.662521390374 8.97959142302 0.633429174708 -94.5904641536 0.396130441136 62.0946811905 0.0546945972781 -140.859022671 0.663862362664 9.04753088718 0.631961975005 85.4602629678 0.662521390374 8.97959142302 0.663862362664 9.04753088718 0.346915569463 132.372459838 0.00132729429521 25.4691367334 0.633429174708 -94.5904641536 0.631961975005 85.4602629678 0.00132729429517 25.4691367398 0.446530828751 111.540328132
10.3 0.0554279004181 -152.02597508 0.400015515859 60.3887220672 0.660652268435 4.01280410297 0.632814281465 -97.2310670365 0.400015515859 60.3887220672 0.0560505582489 -151.175008806 0.661997485066 4.08110549199 0.631351923613 82.8223439899 0.660652268435 4.01280410297 0.661997485066 4.08110549199 0.353971967704 122.920435794 0.0013271449631 20.5813171333 0.632814281465 -97.2310670365 0.631351923613 82.82234399 0.00132714496307 20.5813171381 0.448262280769 108.979299275
10.325 0.0575200459859 -161.974848287 0.404314191593 58.6530848401 0.658446849641 -0.953478665984 0.632193977103 -99.8684850832 0.404314191593 58.6530848401 0.0580508757667 -161.112013026 0.659795615812 -0.884823474962 0.63073756457 80.1876030322 0.658446849641 -0.953478665983 0.659795615812 -0.884823474963 0.36209907174 113.597174032 0.00132647710931 15.7050337287 0.632193977103 -99.8684850832 0.63073756457 80.1876030322 0.00132647710929 15.705033732 0.44999904486 106.419872535
10.35 0.0601750391504 -171.429460298 0.409012867892 56.883027055 0.655903193772 -5.91787463454 0.631568237596 -102.502776069 0.409012867892 56.883027055 0.0606205212059 -170.577780834 0.657254788606 -5.84887375166 0.630118853031 77.555976252 0.655903193772 -5.91787463454 0.657254788606 -5.84887375166 0.371221486091 104.418385398 0.00132529825027 10.8416361408 0.631568237596 -102.502776069 0.630118853031 77.555976252 0.00132529825026 10.8416361429 0.451741115993 103.862001942
10.375 0.063306496813 179.646794981 0.414094186004 55.0743708764 0.653021241342 -10.8789529647 0.630937041882 -105.133997302 0.414094186004 55.0743708764 0.0636755821949 -179.529360427 0.654374921454 -10.809614431 0.62949574058 74.9274005376 0.653021241342 -10.8789529647 0.654374921454 -10.809614431 0.381254470922 95.3953760315 0.00132361944235 5.99247999558 0.630937041882 -105.133997302 0.62949574058 74.9274005376 0.00132361944235 5.99247999651 0.453488489158 101.305641945
10.4 0.0668287100763 171.251082306 0.419537373384 53.2235668356 0.649802860371 -15.8352458939 0.63030037163 -107.762205695 0.419537373384 53.2235668356 0.0671315626091 172.036564121 0.651157863727 -15.7655776218 0.628868175472 72.3018135189 0.649802860371 -15.8352458939 0.651157863727 -15.7655776218 0.392107043475 86.5353588676 0.00132145529704 1.15891307762 0.63030037163 -107.762205695 0.628868175472 72.3018135189 0.00132145529704 1.1589130777 0.45524115934 98.7507473897
10.425 0.070661900558 163.354858255 0.425318660233 51.3277339036 0.64625186305 -20.785261081 0.629658210952 -110.387457825 0.425318660233 51.3277339036 0.0709089191734 164.096498509 0.647607413055 -20.7152707921 0.628236102943 69.6791535747 0.64625186305 -20.785261081 0.647607413055 -20.7152707921 0.403684811406 77.8419501541 0.00131882393852 -3.65773905994 0.629658210952 -110.387457825 0.628236102943 69.6791535747 0.00131882393853 -3.65773906045 0.456999121486 96.1972735156
10.45 0.0747348016201 155.915834756 0.431411749635 49.3846761197 0.642373991328 -25.7274944153 0.629010546055 -113.009809997 0.431411749635 49.3846761197 0.0749359732848 156.611848217 0.643729301085 -25.6571895748 0.627599465571 67.0593598357 0.642373991328 -25.7274944153 0.643729301085 -25.6571895748 0.415892422697 69.315760909 0.00131574690287 -8.45618777233 0.629010546055 -113.009809997 0.627599465571 67.0593598357 0.00131574690287 -8.45618777315 0.458762370474 93.645175942
10.475 0.0789853659449 148.886617235 0.437788321988 47.3928773597 0.638176871424 -30.6604430489 0.628357364844 -115.629318295 0.437788321988 47.3928773597 0.0791498998026 149.537682515 0.639531148094 -30.5898307973 0.626958203698 64.4423721833 0.638176871424 -30.6604430489 0.639531148094 -30.5898307973 0.42863558487 60.9550088587 0.00131224898008 -13.2351960108 0.628357364844 -115.629318295 0.626958203698 64.4423721833 0.00131224898008 -13.2351960117 0.460530901068 91.0944106577
10.5 0.0833603883108 142.220122555 0.444418554735 45.351476878 0.633669938179 -35.5826184131 0.627698656497 -118.246038633 0.444418554735 45.351476878 0.0834965503498 142.828422088 0.635022387376 -35.5117054944 0.626312255882 61.828131242 0.633669938179 -35.5826184131 0.635022387376 -35.5117054944 0.441822657282 52.7560974339 0.0013083580017 -17.9935927381 0.627698656497 -118.246038633 0.626312255882 61.828131242 0.0013083580017 -17.9935927389 0.462304707882 88.5449340103
10.525 0.0878146208868 135.872538437 0.451271639777 43.2602289542 0.628864331096 -40.4925589729 0.627034411009 -120.860026794 0.451271639777 43.2602289542 0.087929694758 136.441075819 0.630214161253 -40.4213516599 0.625661559383 59.2165783658 0.628864331096 -40.4925589729 0.630214161253 -40.4213516599 0.45536585279 44.7141291986 0.00130410457872 -22.7302867895 0.627034411009 -120.860026794 0.625661559383 59.2165783657 0.00130410457872 -22.73028679 0.464083785327 85.9967026951
10.55 0.0923097343652 129.804648576 0.458316283059 41.1194503185 0.62377276474 -45.3888424897 0.626364618729 -123.471338469 0.458316283059 41.1194503185 0.0924100530445 130.336794706 0.625119191371 -45.3173465064 0.62500605066 56.6076556176 0.62377276474 -45.3888424897 0.625119191371 -45.3173465064 0.469182101633 36.823338383 0.00129952179557 -27.4442799068 0.626364618729 -123.471338469 0.62500605066 56.6076556176 0.00129952179557 -27.444279907 0.465868127557 83.4496737443
10.575 0.0968133108675 123.982177772 0.46552117345 38.9299590668 0.618409376895 -50.2700975758 0.625689269909 -126.08002928 0.46552117345 38.9299590668 0.0969043228535 124.481385779 0.6197516267 -50.198318016 0.624345665868 54.0013057427 0.618409376895 -50.2700975758 0.6197516267 -50.198318016 0.483193635121 29.0774397612 0.00129464486776 -32.1346786927 0.625689269909 -126.08002928 0.624345665868 54.0013057427 0.00129464486777 -32.1346786926 0.467657728411 80.9038045153
10.6 0.101297949611 118.37560501 0.472855410901 36.6930085559 0.612789558426 -55.1350143489 0.625008354257 -128.68615481 0.472855410901 36.6930085559 0.101384297901 118.845241453 0.614126873176 -55.0629555918 0.62368034135 51.397472134 0.612789558426 -55.1350143489 0.614126873176 -55.0629555918 0.49732834408 21.4698991477 0.00128951077122 -36.8007052588 0.625008354257 -128.68615481 0.62368034135 51.397472134 0.00128951077122 -36.8007052585 0.469452581344 78.3590526797
10.625 0.105740508258 112.959723759 0.480288886675 34.410219381 0.606929769218 -59.9823540254 0.624321860532 -131.289770608 0.480288886675 34.410219381 0.105826110124 113.402976211 0.608261409373 -59.910019648 0.623010014105 48.7960987928 0.606929769218 -59.9823540254 0.608261409373 -59.910019648 0.511519960389 13.9941351237 0.0012841578522 -41.4417063757 0.624321860532 -131.289770608 0.623010014105 48.7960987928 0.00128415785221 -41.4417063751 0.471252679357 75.815376211
10.65 0.110121474455 107.713111399 0.487792611209 32.0835120394 0.600847344726 -64.8109573246 0.623629776172 -133.890932208 0.487792611209 32.0835120394 0.110209596079 108.132944314 0.602172592744 -64.7383500105 0.622334622218 46.1971302826 0.600847344726 -64.8109573246 0.602172592744 -64.7383500105 0.525708101986 6.64366328858 0.00127862542697 -46.0571609698 0.623629776172 -133.890932208 0.622334622218 46.1971302826 0.00127862542697 -46.0571609692 0.473058014909 73.2727333731
10.675 0.114424450462 102.617595026 0.495338987545 29.7150423479 0.59456029775 -69.6197515911 0.622932086972 -136.489695132 0.495338987545 29.7150423479 0.114517774013 103.01673504 0.595878461061 -69.5468730359 0.621654105259 43.6005116774 0.59456029775 -69.6197515911 0.595878461061 -69.5468730359 0.539838213845 -0.587805696286 0.00127295338004 -50.6466858581 0.622932086972 -136.489695132 0.621654105259 43.6005116774 0.00127295338004 -50.6466858575 0.47486857983 70.7310827072
10.7 0.118635730876 97.6577563565 0.502902030379 27.3071411492 0.588087119859 -74.4077565802 0.622228776826 -139.086114891 0.502902030379 27.3071411492 0.118736413505 98.0386947539 0.58939753347 -74.3346073938 0.620968404626 41.0061885071 0.588087119859 -74.4077565802 0.58939753347 -74.3346073938 0.55386143048 -7.70630399074 0.00126718176976 -55.2100396507 0.622228776826 -139.086114891 0.620968404626 41.0061885071 0.00126718176976 -55.2100396504 0.476684365219 68.1903830197
10.725 0.122743954641 92.8204931313 0.510457532495 24.8622593551 0.581446586627 -79.1740888885 0.621519827515 -141.680246985 0.510457532495 24.8622593551 0.122853679813 93.1854977348 0.582748615354 -79.100668493 0.620277463845 38.4141066977 0.581446586627 -79.1740888885 0.582748615354 -79.100668493 0.567734379868 -14.7175715478 0.00126135044893 -59.7471248016 0.621519827515 -141.680246985 0.620277463845 38.4141066977 0.00126135044893 -59.7471248014 0.478505361337 65.6505933682
10.75 0.126739815233 88.0946408867 0.517983181662 22.3829189463 0.574657570386 -83.9179650417 0.620805218574 -144.272146902 0.517983181662 22.3829189463 0.126859837243 88.4457725631 0.575950610704 -83.8442715664 0.619581228813 35.8242125098 0.574657570386 -83.9179650417 0.575950610704 -83.8442715664 0.581418944165 -21.6270408853 0.00125549870751 -64.2579878236 0.620805218574 -144.272146902 0.619581228813 35.8242125098 0.0012554987075 -64.2579878238 0.480331557479 63.1116730478
10.775 0.130615815995 83.4706521689 0.525458632067 19.8716701955 0.567738863709 -88.6387032874 0.620084927216 -146.861870114 0.525458632067 19.8716701955 0.130746998631 83.8097830699 0.569022345227 -88.5647334598 0.618879647985 33.2364524749 0.567738863709 -88.6387032874 0.569022345227 -88.5647334598 0.594881989247 -28.439835843 0.00124966494314 -68.7428177304 0.620084927216 -146.861870114 0.618879647985 33.2364524749 0.00124966494313 -68.7428177308 0.482162941848 60.5735815772
10.8 0.134366060471 78.9403273196 0.532865535029 17.3310551001 0.560709016252 -93.3357241618 0.619358928314 -149.449472073 0.532865535029 17.3310551001 0.13450891073 79.2691591764 0.561982402821 -93.2614731945 0.618172672514 30.650773331 0.560709016252 -93.3357241618 0.561982402821 -93.2614731945 0.608095072539 -35.1607798151 0.00124388636427 -73.2019427966 0.619358928314 -149.449472073 0.618172672514 30.650773331 0.00124388636426 -73.2019427972 0.483999501403 58.0362786829
10.825 0.137986069968 74.4965900376 0.540187534064 14.7635767997 0.553586186967 -98.0085499249 0.618627194457 -152.035008214 0.540187534064 14.7635767997 0.138140767674 74.8166715855 0.554848977437 -97.9340113987 0.617460256344 28.0671219574 0.553586186967 -98.0085499249 0.554848977437 -97.9340113987 0.621034136799 -41.7944100432 0.00123819872917 -77.6358257657 0.618627194457 -152.035008214 0.617460256344 28.0671219574 0.00123819872916 -77.6358257663 0.485841221699 55.4997242841
10.85 0.141472622583 70.1333010455 0.547410229554 12.1716746046 0.546388013089 -102.656802971 0.61788969605 -154.618533952 0.547410229554 12.1716746046 0.141639046612 70.4460441144 0.547639741748 -102.581968715 0.616742356257 25.4854453101 0.546388013089 -102.656802971 0.547639741748 -102.581968715 0.633679196072 -48.3449954481 0.00123263612317 -82.0450576527 0.61788969605 -154.618533952 0.616742356257 25.4854453101 0.00123263612316 -82.0450576532 0.487688086715 52.963878476
10.875 0.14482360944 65.8451037719 0.554521118192 9.55770416518 0.539131496739 -107.280203339 0.617146401474 -157.200104684 0.554521118192 9.55770416518 0.145001361143 66.1517978573 0.540371733443 -107.205063302 0.616018931885 22.9056903583 0.539131496739 -107.280203339 0.540371733443 -107.205063302 0.646014019062 -54.8165561837 0.00122723077506 -86.4303503149 0.617146401474 -157.200104684 0.616018931885 22.9056903583 0.00122723077506 -86.4303503151 0.489540078657 50.4287015124
10.9 0.148037905071 61.6272967268 0.561509512152 6.92392225851 0.531832909406 -111.878565442 0.616397277292 -159.779775801 0.561509512152 6.92392225851 0.148226329378 61.9291220151 0.533061259455 -111.803107566 0.615289945694 20.3278040219 0.531832909406 -111.878565442 0.533061259455 -111.803107566 0.658025814256 -61.2128836438 0.00122201291279 -90.7925279733 0.616397277292 -159.779775801 0.615289945694 20.3278040219 0.00122201291281 -90.792527973 0.491397177754 47.8941537878
10.925 0.15111524971 57.4757280169 0.568366442612 4.27247564517 0.524507714157 -116.451794154 0.615642288497 -162.357602692 0.568366442612 4.27247564517 0.151313454321 57.7737669311 0.525723817922 -116.37600424 0.61455536294 17.7517331099 0.524507714157 -116.451794154 0.525723817922 -116.37600424 0.669704920516 -67.5375600663 0.0012170106575 -95.1325178786 0.615642288497 -162.357602692 0.614555362941 17.7517331099 0.00121701065752 -95.1325178776 0.493259362024 45.360195818
10.95 0.154056141941 53.3867081742 0.575084551883 1.6053934567 0.517170504944 -120.999880376 0.614881398799 -164.933640765 0.575084551883 1.6053934567 0.154263014903 53.6819555491 0.518374037296 -120.923741943 0.613815151623 15.1774242615 0.517170504944 -120.999880376 0.518374037296 -120.923741943 0.6810445062 -73.7939771891 0.00121224995419 -99.4513403168 0.614881398799 -164.933640765 0.613815151623 15.1774242615 0.00121224995424 -99.451340315 0.495126607027 42.8267882199
10.975 0.156861740557 49.356938103 0.581657977879 -1.07541740631 0.509834962124 -125.522896207 0.614114570941 -167.507945459 0.581657977879 -1.07541740631 0.157075966493 49.6503101195 0.511025631695 -125.446390347 0.613069282415 12.6048238876 0.509834962124 -125.522896207 0.511025631695 -125.446390347 0.692040279371 -79.9853536367 0.00120775453693 -103.750098149 0.614114570941 -167.507945459 0.613069282415 12.6048238876 0.00120775453701 -103.750098146 0.496998885593 40.2938916906
11 0.15953377481 45.3834494971 0.588082234264 -3.76817435066 0.502513823 -130.020989826 0.613341767051 -170.080572271 0.588082234264 -3.76817435066 0.159753849994 45.6757915089 0.5036913713 -129.944095056 0.612317728607 10.033878115 0.502513823 -130.020989826 0.5036913713 -129.944095056 0.702690211119 -86.1147508777 0.00120354592562 -108.029966073 0.613341767051 -170.080572271 0.612317728607 10.033878115 0.00120354592572 -108.02996607 0.498876167528 37.7614669843
11.025 0.162074462439 41.4635555377 0.594354089071 -6.47121908529 0.495218866041 -134.494380211 0.612562949009 -172.651576787 0.594354089071 -6.47121908528 0.162298708888 41.7556489192 0.496383066473 -134.417072316 0.611560466053 7.46453273009 0.495218866041 -134.494380211 0.496383066473 -134.417072316 0.712994273589 -92.1850877062 0.00119964345142 -112.292179793 0.612562949009 -172.651576787 0.611560466053 7.46453273009 0.00119964345154 -112.292179788 0.500758419288 35.2294748885
11.05 0.164486434975 37.5948100671 0.600471444149 -9.18301593319 0.487960907317 -138.943351764 0.611778078845 -175.221014707 0.600471444149 -9.18301593319 0.16471301368 37.887378201 0.489111564105 -138.865603636 0.610797473128 4.89673312533 0.487960907317 -138.943351764 0.489111564105 -138.865603636 0.722954193857 -98.1991532734 0.00119606430755 -116.538025245 0.611778078845 -175.221014707 0.610797473128 4.89673312534 0.00119606430769 -116.53802524 0.502645603631 32.6978761988
11.075 0.166772669934 33.7749737476 0.606433217375 -11.9021488132 0.480749807623 -143.368248951 0.610987119154 -177.788941891 0.606433217375 -11.9021488132 0.166999593343 34.0686872612 0.481886754701 -143.29003042 0.610028730709 2.33042424463 0.480749807623 -143.368248951 0.481886754701 -143.29003042 0.732573224406 -104.159618746 0.00119282362222 -120.768828065 0.610987119153 -177.788941891 0.61002873071 2.33042424464 0.00119282362237 -120.768828059 0.504537679236 30.1666316918
11.1 0.168936429515 30.0019859803 0.612239229113 -14.6273171988 0.47359448879 -147.769471009 0.61019003352 179.644585603 0.612239229113 -14.6273171988 0.169161573355 30.2974673265 0.474717588652 -147.690748666 0.609254222182 -0.234449470408 0.47359448879 -147.769471009 0.474717588652 -147.690748666 0.741855930605 -110.069047691 0.00118993455015 -124.985943396 0.61019003352 179.644585603 0.609254222182 -0.234449470395 0.00118993455031 -124.98594339 0.506434600284 27.6357020965
11.125 0.170981205462 26.2739415716 0.617890094098 -17.3573313186 0.466502957687 -152.147466795 0.60938678697 177.079511466 0.617890094098 -17.3573313186 0.171202319969 26.5717690396 0.467612100234 -152.068203814 0.60847393347 -2.79794413504 0.466502957687 -152.147466795 0.467612100234 -152.068203814 0.750807995277 -115.929905316 0.00118740837991 -129.19074619 0.60938678697 177.079511466 0.60847393347 -2.79794413503 0.00118740838006 -129.190746184 0.508336316012 25.1050480636
11.15 0.172910669751 22.5890713141 0.623387119551 -20.0911068222 0.459482336502 -156.502729826 0.608577346436 174.515779091 0.623387119551 -20.0911068222 0.173125390377 22.8897825455 0.460577437909 -156.422885764 0.607687853107 -5.36011647702 0.459482336502 -156.502729826 0.460577437909 -156.422885764 0.759436040152 -121.744566664 0.00118525465363 -133.384622082 0.608577346436 174.515779091 0.607687853107 -5.360116477 0.00118525465375 -133.384622075 0.510242770216 22.5746301329
11.175 0.174728630756 18.9457257951 0.628732210082 -22.8276591003 0.452538897997 -160.835793531 0.607761681227 171.953331508 0.628732210082 -22.8276591002 0.174934488394 19.2498208703 0.453619899606 -160.755324136 0.606895972343 -7.92102389381 0.452538897997 -160.835793531 0.453619899606 -160.755324136 0.767747463803 -127.515323906 0.00118348129652 -137.568958932 0.607761681227 171.953331508 0.606895972342 -7.92102389379 0.0011834812966 -137.568958926 0.512153900715 20.0444086988
11.2 0.176438994545 15.3423618659 0.633927779691 -25.5660974125 0.445678104522 -165.147226779 0.606939763534 169.392111322 0.633927779691 -25.5660974125 0.176633425334 15.6503060179 0.446744971785 -165.066083776 0.606098285282 -10.4807245122 0.445678104522 -165.147226779 0.446744971785 -165.066083776 0.775750295427 -133.244392832 0.00118209475361 -141.745139101 0.606939763534 169.392111322 0.606098285282 -10.4807245122 0.00118209475364 -141.745139096 0.514069638771 17.514343973
11.225 0.178045730965 11.7775313049 0.638976670987 -28.3056189515 0.438904649705 -169.437629672 0.606111568931 166.832060644 0.638976670987 -28.3056189515 0.178226085701 12.0897573096 0.439957371182 -169.35576054 0.605294789081 -13.0392772508 0.438904649705 -169.437629672 0.439957371181 -169.35576054 0.783453063736 -138.933918634 0.00118110013125 -145.91453251 0.606111568931 166.832060644 0.605294789081 -13.0392772508 0.00118110013124 -145.914532504 0.515989908449 14.9843959445
11.25 0.179552844158 8.24987128847 0.643882081575 -31.0455029422 0.432222501857 -173.707629636 0.605277076912 164.27312101 0.643882081575 -31.0455029422 0.17971639735 8.56678157588 0.433261088284 -173.624977379 0.604485484173 -15.5967418861 0.432222501857 -173.707629636 0.433261088284 -173.624977379 0.790864680046 -144.585981096 0.00118050134148 -150.078490505 0.605277076912 164.27312101 0.604485484172 -15.5967418861 0.00118050134141 -150.078490501 0.517914625918 12.4545243379
11.275 0.180964347159 4.75809635367 0.648647497438 -33.7851048573 0.425634948256 -177.957877812 0.604436271431 161.715233308 0.648647497439 -33.7851048573 0.181108305764 5.08006487641 0.426659431696 -177.874380714 0.603670374549 -18.1531791225 0.425634948256 -177.957877812 0.426659431696 -177.874380714 0.797994334631 -150.20259924 0.00118030124725 -154.238340579 0.604436271431 161.715233308 0.603670374549 -18.1531791225 0.00118030124712 -154.238340575 0.519843698699 9.92468856708
11.3 0.182284240231 1.30099158921 0.653276633064 -36.523850808 0.419144639592 177.810954247 0.60358914148 159.158337677 0.653276633064 -36.523850808 0.182405752098 1.6283654817 0.420155072666 177.895362883 0.602849468088 -20.7086506679 0.419144639592 177.810954247 0.420155072666 177.895362883 0.804851405307 -155.785735529 0.00118050180713 -158.39538191 0.60358914148 159.158337677 0.602849468088 -20.7086506679 0.00118050180695 -158.395381907 0.521777024826 7.39484768713
11.325 0.183516492618 -2.12259315916 0.657773377948 -39.2612321573 0.412753633975 173.598177581 0.602735681671 156.602373423 0.657773377949 -39.2612321573 0.183612654655 -1.78949210226 0.413750089188 173.683569706 0.602022776926 -23.2632193139 0.412753633975 173.598177581 0.413750089187 173.683569706 0.811445377205 -161.337299658 0.00118110421798 -162.550881759 0.602735681671 156.602373423 0.602022776926 -23.2632193139 0.00118110421778 -162.550881757 0.523714491942 4.86496034209
11.35 0.184665027365 -5.51374824696 0.662141749122 -41.9968003852 0.406463440007 169.403088533 0.601875892857 154.047278908 0.662141749122 -41.9968003851 0.18473289347 -5.17462224792 0.407446009167 169.489541644 0.601190317885 -25.8169490229 0.406463440007 169.403088533 0.407446009167 169.489541644 0.81778577269 -166.859151995 0.00118210905453 -166.706072674 0.601875892857 154.047278908 0.601190317885 -25.8169490229 0.00118210905433 -166.706072673 0.525655976297 2.33498470921
11.375 0.185733708923 -8.87350849838 0.666385849249 -44.7301622293 0.40027505852 165.224971173 0.601009782774 151.492991443 0.66638584925 -44.7301622293 0.185770297678 -8.52808260706 0.401243852261 165.31256862 0.600352112947 -28.3699050219 0.40027505852 165.224971173 0.401243852261 165.31256862 0.823882090368 -172.353106704 0.0011835164048 -170.862150491 0.601009782774 151.492991443 0.600352112947 -28.3699050219 0.00118351640464 -170.862150491 0.527601341652 -0.195121560721
11.4 0.186726333238 -12.2028569023 0.670509829882 -47.4609751118 0.394189022667 161.063099443 0.600137366705 148.939447172 0.670509829882 -47.4609751118 0.186728635397 -11.8508779208 0.395144170069 161.15193076 0.599508189781 -30.9221539034 0.394189022667 161.063099443 0.395144170069 161.15193076 0.829743752174 -177.820934582 0.00118532600063 -175.020273106 0.600137366705 148.939447172 0.599508189781 -30.9221539034 0.00118532600052 -175.020273108 0.529550438081 -2.72540140713
11.425 0.187646620043 -15.5027278353 0.674517859424 -50.1889428581 0.38820543613 156.916739047 0.599258668186 146.386580938 0.674517859425 -50.1889428581 0.187611605825 -15.1439633388 0.389147084451 157.006900303 0.59865858232 -33.473763735 0.38820543613 156.916739047 0.389147084451 157.006900303 0.835380057553 176.73563437 0.00118753734243 -179.181559962 0.599258668187 146.386580938 0.59865858232 -33.473763735 0.0011875373424 -179.181559966 0.531503100636 -5.2558984278
11.45 0.188498207113 -18.7740098909 0.67841409537 -52.9138117071 0.382324009279 152.785149088 0.598373719736 143.834326155 0.67841409537 -52.9138117071 0.188422833308 -18.4082473302 0.383252323787 152.876743262 0.597803331394 -36.0248041777 0.382324009279 152.785149088 0.383252323787 152.876743262 0.840800143793 171.314908638 0.00119014981775 176.652907775 0.598373719736 143.834326155 0.597803331394 -36.0248041778 0.00119014981779 176.65290777 0.533459147893 -7.78665695156
11.475 0.18928464623 -22.0175483822 0.682202660392 -55.6353666079 0.376544093173 148.667583471 0.597482563622 141.282614657 0.682202660392 -55.6353666079 0.189165863139 -21.6445942521 0.37745925709 148.760720858 0.596942485413 -38.575346614 0.376544093173 148.667583471 0.37745925709 148.760720858 0.846012951611 165.915233121 0.0011931628129 172.48208641 0.597482563622 141.282614657 0.596942485413 -38.575346614 0.00119316281297 172.482086406 0.53541838033 -10.3177221157
11.5 0.190009400664 -25.2341475689 0.685887621882 -58.3534277949 0.37086471133 144.563292097 0.596585252666 138.731376544 0.685887621882 -58.3534277949 0.189844158868 -24.8538266318 0.371766925888 144.658090732 0.596076101105 -41.1254642853 0.37086471133 144.563292097 0.371766925888 144.658090732 0.851027195166 160.534987309 0.00119657581725 168.304968323 0.596585252666 138.731376544 0.596076101105 -41.1254642853 0.00119657581725 168.304968323 0.537380578547 -12.849139948
