! Generated from PyAEDT SolutionData; AEDT ExportNetworkData workaround
# GHz S MA R 50
9 0.687136436037 26.9350386435 0.264289139131 -85.1724938427 0.544418955016 -2.2678756672 0.401998470926 33.6551360998 0.264289139131 -85.1724938427 0.689060773616 26.8346687445 0.544844608166 -2.21668961816 0.398109098305 -146.03841008 0.544418955016 -2.2678756672 0.544844608166 -2.21668961816 0.637768296303 171.217300204 0.00198861846058 49.2992565267 0.401998470926 33.6551360998 0.398109098305 -146.03841008 0.00198861846058 49.2992565268 0.824561956809 -156.550753661
9.025 0.68512727393 23.8935846635 0.264453669091 -88.7006017049 0.546802900889 -6.79011857706 0.402081889936 30.9545950234 0.264453669091 -88.700601705 0.687080637186 23.7944580654 0.54722234511 -6.73795078602 0.398158989236 -148.734074055 0.54680290089 -6.79011857705 0.54722234511 -6.73795078603 0.633692952082 165.302476513 0.00201607374078 44.8563437469 0.402081889936 30.9545950235 0.398158989237 -148.734074055 0.00201607374042 44.8563437327 0.824497143521 -158.856743945
9.05 0.683150534989 20.8620938424 0.264618632583 -92.2128152617 0.5491294237 -11.2991180189 0.402164908882 28.261474594 0.264618632583 -92.2128152619 0.685133195723 20.7643085326 0.549542503587 -11.2459282844 0.398208474776 -151.422304996 0.549129423701 -11.2991180189 0.549542503587 -11.2459282844 0.62966761038 159.401260313 0.00204347581975 40.4257652314 0.402164908883 28.261474594 0.398208474778 -151.422304996 0.00204347581917 40.4257652091 0.824432695208 -161.157236278
9.075 0.681205044137 17.8402379989 0.264785168046 -95.7093811982 0.551400227296 -15.7949111889 0.402247726587 25.5756412723 0.264785168046 -95.7093811985 0.683217273776 17.7438902037 0.551806800584 -15.7406598961 0.398257746062 -154.103236274 0.551400227296 -15.7949111888 0.551806800583 -15.7406598961 0.625693201214 153.514376439 0.00207082885716 36.0075432515 0.402247726588 25.5756412724 0.398257746063 -154.103236274 0.00207082885648 36.0075432256 0.824368425307 -163.452336802
9.1 0.679289474409 14.8277034637 0.264954434491 -99.190569962 0.553617143922 -20.2775524701 0.402330535131 22.896964079 0.264954434491 -99.1905699622 0.681331543804 14.7328876308 0.554017081073 -20.2222005293 0.398306987314 -156.776998375 0.553617143922 -20.2775524701 0.554017081072 -20.2222005293 0.62177000718 147.642451866 0.00209813788464 31.6016857458 0.402330535132 22.8969640791 0.398306987315 -156.776998375 0.00209813788394 31.6016857196 0.824304153151 -165.742149502
9.125 0.67740236705 11.8241913983 0.265127595855 -102.656674015 0.555782115165 -24.7471124937 0.40241351998 20.225314554 0.265127595855 -102.656674015 0.679474546301 11.7310001842 0.556175298944 -24.6906212865 0.398356376249 -159.44371899 0.555782115166 -24.7471124937 0.556175298943 -24.6906212865 0.617897725486 141.786022869 0.00212540874729 27.2081859844 0.402413519981 20.2253145541 0.39835637625 -159.44371899 0.00212540874662 27.20818596 0.824239703809 -168.026776273
9.15 0.675542150243 8.82941802809 0.265305806969 -106.108006096 0.55789717392 -29.2036772477 0.402496860116 17.5605667143 0.265305806969 -106.108006096 0.677644708559 8.73794229187 0.558283498965 -29.1460085816 0.398406084454 -162.103523106 0.557897173921 -29.2036772477 0.558283498964 -29.1460085816 0.6140755288 135.945541821 0.00215264804527 22.8270223641 0.402496860117 17.5605667144 0.398406084456 -162.103523106 0.00215264804467 22.8270223428 0.824174907929 -170.306316989
9.175 0.673707156564 5.84311479882 0.265490201072 -109.544897497 0.559964427404 -33.6473472341 0.402580728178 14.9025970091 0.265490201072 -109.544897497 0.67584036214 5.75344360057 0.560343799795 -33.5884633028 0.398456277731 -164.756533091 0.559964427405 -33.6473472341 0.560343799795 -33.5884633028 0.610302124024 130.121383558 0.00217986307586 18.4581583232 0.402580728179 14.9025970092 0.398456277732 -164.756533091 0.00217986307535 18.4581583056 0.824109601581 -172.580869572
9.2 0.671895639213 2.86502846534 0.265681878812 -112.967696365 0.561986041243 -38.0782366687 0.402665290613 12.2512842733 0.265681878812 -112.967696365 0.674059759129 2.77724906871 0.562358378068 -38.0181000184 0.398507116402 -167.402868783 0.561986041244 -38.0782366686 0.562358378068 -38.0181000184 0.606575808297 124.313851266 0.0022070617763 14.1015423667 0.402665290614 12.2512842733 0.398507116403 -167.402868783 0.0022070617759 14.101542353 0.824043626098 -174.850530056
9.225 0.670105787104 -0.10507888073 0.265881898644 -116.376766033 0.563964224617 -42.4964727215 0.402750707828 9.60650967943 0.265881898644 -116.376766033 0.672301087243 -0.190881001697 0.564329453538 -42.4350462219 0.398558755595 -170.042647569 0.563964224617 -42.4964727215 0.564329453538 -42.4350462219 0.602894521751 118.52318188 0.00223425266776 9.75710819107 0.402750707828 9.60650967946 0.398558755596 -170.042647569 0.00223425266746 9.75710818121 0.823976827917 -177.115392646
9.25 0.668335738886 -3.06742983665 0.266091268533 -119.772483387 0.565901216447 -46.9021947955 0.402837134352 6.96815668907 0.266091268533 -119.772483387 0.670562483865 -3.15117098733 0.566259275277 -46.8394416143 0.398611345503 -172.675984472 0.565901216447 -46.9021947955 0.566259275277 -46.8394416143 0.599255896674 112.749550971 0.00226144480053 5.42477489894 0.402837134352 6.96815668909 0.398611345503 -172.675984472 0.00226144480033 5.42477489254 0.823909058422 -179.375549787
9.275 0.666583595953 -6.02223176171 0.266310938888 -123.155237275 0.567799272621 -51.2955538391 0.402924719 4.33611100316 0.266310938888 -123.155237275 0.668842049064 -6.10383001363 0.568150108896 -51.2314374202 0.398665031618 -175.302992226 0.567799272621 -51.2955538391 0.568150108896 -51.2314374202 0.595657302927 106.993077132 0.00228864770084 1.10444729332 0.402924719 4.33611100317 0.398665031618 -175.302992226 0.00228864770073 1.1044472899 0.823840173791 178.368907784
9.3 0.664847434521 -8.96967689194 0.2665417966 -126.525426962 0.569660654192 -55.6767116909 0.403013605037 1.71026051214 0.2665417966 -126.525426962 0.667137857684 -9.04905206692 0.57000422476 -55.6111957344 0.398719954944 -177.923781351 0.569660654192 -55.6767116909 0.57000422476 -55.6111957344 0.59209588954 101.253825882 0.00231587131932 -3.20398375698 0.403013605037 1.71026051215 0.398719954944 -177.923781351 0.00231587131929 -3.20398375797 0.823770034835 176.117890976
9.325 0.663125316832 -11.9099424913 0.266784660122 -129.883460636 0.571487616544 -60.0458404529 0.403103930348 -0.909504753941 0.266784660122 -129.883460636 0.665447970553 -11.9870161435 0.57182388716 -59.9788888971 0.398776252199 179.461539769 0.571487616544 -60.0458404529 0.57182388716 -59.9788888971 0.588568622535 95.5318130959 0.00234312598126 -7.50064089048 0.403103930348 -0.909504753944 0.398776252199 179.461539769 0.00234312598129 -7.50064088959 0.823698506853 173.871312289
9.35 0.661415301536 -14.8431910345 0.267040275466 -133.229753968 0.573282399456 -64.4031218898 0.403195827607 -3.52329267535 0.267040275466 -133.229753968 0.663770444868 -14.9178864306 0.573611344392 -64.3346988946 0.398834055989 176.852864816 0.573282399456 -64.4031218898 0.573611344392 -64.3346988946 0.585072319095 89.8270080116 0.00237042233876 -11.7856597727 0.403195827607 -3.52329267536 0.398834055989 176.852864816 0.00237042233884 -11.7856597705 0.823625459475 171.629085756
9.375 0.659715453331 -17.7695704172 0.267309313044 -136.564728728 0.575047218036 -68.748746852 0.403289424448 -6.13120909211 0.267309313044 -136.564728728 0.662103343835 -17.841812516 0.575368819698 -68.6788167832 0.398893494976 174.250089471 0.575047218036 -68.748746852 0.575368819699 -68.6788167832 0.581603678261 84.1393358304 0.00239777132486 -16.0591885706 0.403289424448 -6.13120909212 0.398893494976 174.250089471 0.00239777132497 -16.0591885675 0.823550766515 169.391126897
9.4 0.658023851885 -20.6892141902 0.26759236526 -139.888811457 0.576784254466 -73.0829147196 0.403384843635 -8.73335785303 0.26759236526 -139.888811457 0.660444745597 -20.7589296203 0.577098503032 -73.011442133 0.398954694034 171.653111347 0.576784254466 -73.0829147196 0.577098503032 -73.011442133 0.578159308372 78.4686799607 0.00242518410963 -20.3213873883 0.403384843635 -8.73335785304 0.398954694034 171.653111347 0.00242518410976 -20.3213873848 0.823474305827 167.157352662
9.425 0.65633860012 -23.602241813 0.267889944759 -143.202432206 0.578495650506 -77.4058328651 0.403482203231 -11.3298408641 0.267889944759 -143.202432206 0.658792751511 -23.6693588512 0.578802543576 -77.3327824913 0.399017774384 169.061829924 0.578495650506 -77.4058328651 0.578802543576 -77.3327824913 0.574735751496 72.8148839391 0.00245267205825 -24.5724276725 0.403482203231 -11.3298408641 0.399017774384 169.061829924 0.00245267205838 -24.5724276689 0.823395959158 164.927681379
9.45 0.65465783189 -26.5087589248 0.268202483262 -146.506023324 0.580183500716 -81.7177161332 0.403581616769 -13.9207581359 0.268202483262 -146.506023324 0.657145493819 -26.573207474 0.580483042983 -81.6430528616 0.399082853729 166.476146485 0.580183500716 -81.7177161332 0.580483042983 -81.6430528616 0.571329505123 67.1777530717 0.00248024669109 -28.8124915915 0.403581616769 -13.9207581359 0.399082853729 166.476146485 0.00248024669122 -28.812491588 0.823315612004 162.702032714
9.475 0.6529797191 -29.4088576292 0.268530330917 -149.80001832 0.58184984634 -86.0187863352 0.40368319342 -16.5062078308 0.268530330917 -149.80001832 0.655501142769 -29.4705691974 0.582142049281 -85.9424751984 0.399150046376 163.895964063 0.58184984634 -86.0187863352 0.582142049281 -85.9424751984 0.567937041391 61.5570558325 0.00250791964576 -33.0417713955 0.40368319342 -16.5062078308 0.399150046376 163.895964063 0.00250791964587 -33.0417713924 0.823233153477 160.480327615
9.5 0.651302478318 -32.3026167907 0.268873756078 -153.08485077 0.583496669804 -90.3092717577 0.403787038159 -19.086286308 0.268873756078 -153.08485077 0.65385791321 -32.3615244704 0.583781551388 -90.231277914 0.399219463347 161.321187379 0.583496669804 -90.3092717577 0.583781551388 -90.231277914 0.564554824103 55.9525250582 0.00253570264102 -37.2604687625 0.403787038159 -19.086286308 0.399219463347 161.32118738 0.00253570264112 -37.2604687599 0.823148476161 158.262488269
9.525 0.649624376903 -35.1901023402 0.269232945477 -156.3609533 0.585125889778 -94.5894066819 0.403893251935 -21.6610881693 0.269232945477 -156.3609533 0.652214070718 -35.2461407894 0.585403474202 -94.5096953986 0.399291212491 158.751722789 0.585125889778 -94.5894066819 0.585403474202 -94.5096953986 0.561179323815 50.363858974 0.00256360744264 -41.468794134 0.403893251935 -21.6610881693 0.399291212491 158.751722789 0.00256360744272 -41.4687941319 0.823061475983 156.048438062
9.55 0.647943738708 -38.0713675878 0.269608004707 -159.628756614 0.586739356772 -98.8594309154 0.404001931829 -24.2307063019 0.269608004707 -159.628756614 0.650567937285 -38.1244730131 0.587009674211 -98.7779675502 0.399365398578 156.187478227 0.586739356772 -98.8594309154 0.587009674211 -98.7779675502 0.55780703123 44.7907220803 0.00259164583104 -45.6669660452 0.404001931829 -24.2307063019 0.399365398578 156.187478227 0.0025916458311 -45.6669660437 0.822972052075 153.838101528
9.575 0.646258949378 -40.9464535411 0.269998958974 -162.888688588 0.588338849197 -103.119589332 0.404113171225 -26.7952319217 0.269998958974 -162.888688588 0.648917896603 -40.9965636829 0.588601935589 -103.036339315 0.399442123404 153.628363163 0.588338849197 -103.119589332 0.588601935589 -103.036339315 0.554434469144 39.2327459317 0.00261982957062 -49.8552104537 0.404113171225 -26.7952319217 0.399442123404 153.628363163 0.00261982957066 -49.8552104527 0.82288010665 151.631404314
9.6 0.644568461281 -43.8153892272 0.270405754084 -166.141173416 0.589926069875 -107.370131424 0.404227059965 -29.3547546147 0.270405754084 -166.141173416 0.647262398981 -43.8624433475 0.590181966728 -107.285060235 0.399521485872 151.074288544 0.589926069875 -107.370131424 0.590181966728 -107.285060235 0.55105820314 33.6895298299 0.00264817038093 -54.0337600685 0.404227059965 -29.3547546147 0.399521485872 151.074288544 0.00264817038095 -54.0337600681 0.822785544869 149.428273137
9.625 0.642870798105 -46.6781920175 0.270828257602 -169.386630814 0.591502642955 -111.611310857 0.404343684513 -31.9093623776 0.270828257602 -169.386630814 0.64559996593 -46.7221308913 0.591751397175 -111.52438401 0.399603582088 148.525166755 0.591502642955 -111.611310857 0.591751397175 -111.52438401 0.547674851261 28.1606414527 0.0026766799093 -58.2028536841 0.404343684513 -31.9093623776 0.399603582088 148.525166755 0.0026766799093 -58.2028536841 0.82268827472 147.228635741
9.65 0.641164559151 -49.5348679543 0.271266260162 -172.625475276 0.593070111183 -115.843385039 0.404463128109 -34.4591416572 0.271266260162 -172.625475276 0.643929194434 -49.5756338635 0.593311774936 -115.754568057 0.399688505436 145.980911568 0.593070111183 -115.843385039 0.593311774936 -115.754568057 0.5442810928 22.6456174348 0.00270536970518 -62.3627355202 0.404463128109 -34.4591416572 0.399688505436 145.980911568 0.00270536970517 -62.3627355205 0.822588206891 145.032420865
9.675 0.639448423344 -52.3854120776 0.2717194769 -175.858115378 0.594629933522 -120.066614695 0.404585470934 -37.004177389 0.2717194769 -175.858115378 0.642248760947 -52.4229488101 0.594864564122 -119.975873091 0.399776346663 143.441438101 0.594629933522 -120.066614695 0.594864564122 -119.975873091 0.540873676398 17.143963914 0.00273425119587 -66.5136545707 0.404585470934 -37.004177389 0.399776346663 143.441438101 0.00273425119584 -66.5136545713 0.822485254651 142.839558201
9.7 0.637721153002 -55.2298087524 0.272187548971 -179.084953138 0.596183483067 -124.281263446 0.404710790258 -39.5445530342 0.272187548971 -179.084953138 0.640557425141 -55.2640616041 0.596411142894 -124.188562701 0.399867193956 140.906662773 0.596183483067 -124.281263446 0.596411142894 -124.188562701 0.537449427569 11.6551570519 0.00276333566377 -70.6558639634 0.404710790258 -39.5445530342 0.399867193956 140.906662773 0.00276333566373 -70.6558639642 0.822379333729 140.649978359
9.725 0.63598159737 -58.0680319959 0.272670045139 177.693616583 0.597732045246 -128.487597402 0.404839160598 -42.0803506166 0.272670045139 177.693616583 0.638854033415 -58.0989477783 0.597952801689 -128.392902942 0.399961133012 138.376503269 0.597732045246 -128.487597402 0.597952801689 -128.392902942 0.534005255784 6.1786435334 0.00279263422501 -74.789620331 0.404839160598 -42.0803506166 0.399961133012 138.376503269 0.00279263422496 -74.7896203318 0.822270362198 138.463612834
9.75 0.634228695956 -60.9000458037 0.27316646341 174.477206629 0.599276816274 -132.685884757 0.404970653871 -44.6116507579 0.27316646341 174.477206629 0.637137522221 -60.9275728558 0.599490741706 -132.589161933 0.400058247114 135.850878492 0.599276816274 -132.685884757 0.599490741706 -132.589161933 0.530538161216 0.713841050001 0.00282215780941 -78.915183196 0.404970653871 -44.6116507579 0.400058247114 135.850878492 0.00282215780937 -78.9151831969 0.822158260359 136.280393967
9.775 0.63246148169 -63.7258044762 0.273676232706 171.265438051 0.600818901833 -136.876395394 0.405105339548 -47.1385327123 0.273676232706 171.265438051 0.635406921188 -63.7498926817 0.60102607362 -136.777609457 0.400158617198 133.329708533 0.600818901833 -136.876395394 0.60102607362 -136.777609457 0.527045241237 -4.73986123474 0.00285191714178 -83.0328143704 0.405105339548 -47.1385327123 0.400158617198 133.329708533 0.00285191714173 -83.0328143713 0.822042950624 134.100254918
9.8 0.630679083921 -66.5452529445 0.274198714555 168.057940579 0.602359315978 -141.059400499 0.405243284802 -49.6610744005 0.274198714555 168.057940579 0.633661356098 -66.5658537545 0.602559816508 -140.958516583 0.400262321924 130.812914629 0.602359315979 -141.059400499 0.602559816508 -140.958516583 0.523523696749 -10.1831022397 0.00288192272442 -87.1427773704 0.405243284802 -49.6610744005 0.400262321924 130.812914629 0.00288192272438 -87.1427773712 0.821924357408 131.923129629
9.825 0.62888073127 -69.3583270972 0.274733204794 164.854353034 0.603898980225 -145.235172183 0.405384554663 -52.1793524426 0.274733204794 164.854353034 0.631900051723 -69.3753935583 0.604092896976 -145.132155278 0.400369437736 128.300419129 0.603898980225 -145.235172183 0.604092896975 -145.132155278 0.519970838405 -15.6165485448 0.00291218482098 -91.2453368471 0.405384554663 -52.1793524426 0.400369437736 128.300419129 0.00291218482094 -91.2453368477 0.821802407015 129.748952791
9.85 0.627065754367 -72.1649541079 0.275278935271 161.654323719 0.605438722826 -149.403983108 0.405529212166 -54.6934421904 0.275278935271 161.654323719 0.630122334529 -72.1784408966 0.605626148459 -149.298798045 0.400480038929 125.792145458 0.605438722826 -149.403983108 0.605626148459 -149.298798045 0.516384092791 -21.0408940004 0.00294271344141 -95.3407580342 0.405529212166 -54.6934421904 0.400480038929 125.792145458 0.00294271344138 -95.3407580347 0.821677027528 127.577659821
9.875 0.625233588482 -74.9650527649 0.275835075545 158.457510763 0.606979278209 -153.566106131 0.405677318502 -57.2034177595 0.275835075545 158.457510763 0.628327635282 -74.9749162275 0.607160310693 -153.458717559 0.400594197709 123.288018085 0.606979278209 -153.566106131 0.607160310693 -153.458717559 0.512761008604 -26.4568593736 0.00297351832823 -99.4293062133 0.405677318502 -57.2034177595 0.400594197709 123.288018085 0.00297351832821 -99.4293062136 0.8215481487 125.409186823
9.9 0.62338377606 -77.7585338051 0.276400734581 155.263582431 0.608521286572 -157.72181395 0.405828933166 -59.7093520601 0.276400734581 155.263582431 0.626515491563 -77.7647320038 0.608696029333 -157.612186317 0.400711984256 120.787962491 0.608521286572 -157.72181395 0.608696029333 -157.612186317 0.509099262879 -31.8651920416 0.00300460894391 -103.511246196 0.405828933166 -59.7093520601 0.400711984256 120.787962491 0.0030046089439 -103.511246196 0.821415701849 123.243470566
9.925 0.621515969184 -80.5453002515 0.276974962428 152.072217402 0.610065293619 -161.87137876 0.405984114109 -62.211316828 0.276974962428 152.072217402 0.624685550199 -80.5477930167 0.610233855725 -161.759476298 0.400833466775 118.291905132 0.610065293619 -161.87137876 0.610233855725 -161.759476298 0.505396667291 -37.2666657387 0.00303599445949 -107.586841825 0.405984114109 -62.211316828 0.400833466775 118.291905132 0.00303599445949 -107.586841825 0.821279619749 121.080448453
9.95 0.619629931968 -83.325247758 0.277556751886 148.883105015 0.611611750433 -166.015071923 0.406142917887 -64.7093826547 0.277556751886 148.883105015 0.622837569633 -83.3239967466 0.611774246797 -165.900858629 0.40095871156 115.799773414 0.611611750433 -166.015071923 0.611774246797 -165.900858629 0.501651174577 -42.662080368 0.0030676837444 -111.656355492 0.406142917887 -64.7093826547 0.40095871156 115.799773414 0.0030676837444 -111.656355492 0.821139836524 118.92005849
9.975 0.617725542894 -86.0982649631 0.278145040166 145.695945484 0.613161013474 -170.153163647 0.406305399808 -67.2036190177 0.278145040166 145.695945484 0.620971422239 -86.0932337226 0.613317565092 -170.036603266 0.401087783041 113.31149566 0.613161013474 -170.153163647 0.613317565092 -170.036603266 0.497860885105 -48.0522618851 0.00309968535746 -115.720047673 0.406305399808 -67.2036190177 0.401087783041 113.31149566 0.00309968535747 -115.720047673 0.820996287545 116.762239266
10 0.615802797102 -88.8642338527 0.27873871052 142.510450084 0.614713344698 -174.285922669 0.406471614086 -69.6940943097 0.27873871052 142.510450084 0.61908709658 -88.8553878917 0.614864078909 -174.166978684 0.401220743841 110.82700108 0.614713344698 -174.285922669 0.614864078909 -174.166978684 0.494024053614 -53.4380622633 0.00313200753915 -119.778176487 0.406471614086 -69.6940943097 0.401220743841 110.82700108 0.00313200753917 -119.778176487 0.820848909326 114.606929921
10.025 0.613861808634 -91.6230301378 0.279336593879 139.32634131 0.616268911793 -178.413615959 0.406641613986 -72.1808758685 0.279336593879 139.32634131 0.617184699634 -91.6103370016 0.616413962562 -178.292251578 0.401357654825 108.346219743 0.616268911793 -178.413615959 0.616413962562 -178.292251578 0.490139096171 -58.8203595482 0.00316465820511 -123.830997267 0.406641613986 -72.1808758685 0.401357654825 108.346219743 0.00316465820513 -123.830997267 0.820697639418 112.454070123
10.05 0.611902812642 -94.3745236466 0.279937470461 136.143353011 0.617827788522 177.46349157 0.406815451982 -74.6640300064 0.279937470461 136.143353011 0.615264458974 -94.3579529983 0.617967296753 177.587313428 0.401498575146 105.86908255 0.617827788522 177.46349157 0.617967296753 177.587313428 0.486204597359 -64.2000580082 0.00319764494092 -127.878762152 0.406815451982 -74.6640300064 0.401498575146 105.86908255 0.00319764494094 -127.878762152 0.820542416308 110.303600043
10.075 0.609926167549 -97.1185787354 0.280540071374 132.961230504 0.619389955177 173.345137346 0.406993179898 -77.1436220391 0.280540071374 132.961230504 0.613326724912 -97.0981024424 0.619524069041 173.471454058 0.401643562295 103.395521205 0.619389955177 173.345137346 0.619524069041 173.471454058 0.482219317746 -69.5780883879 0.0032309749982 -131.921719699 0.406993179898 -77.1436220391 0.401643562295 103.395521205 0.00323097499823 -131.921719699 0.820383179316 108.155460328
10.1 0.607932357182 -99.8550547213 0.281143080219 129.779730661 0.620955299138 169.231061402 0.407174849069 -79.6197163155 0.281143080219 129.779730661 0.611371972605 -99.8306469458 0.621084174425 169.359910648 0.401792672145 100.925468187 0.620955299138 169.231061402 0.621084174425 169.359910648 0.478182201659 -74.9554082689 0.00326465529211 -135.96011451 0.407174849069 -79.6197163155 0.401792672145 100.925468187 0.00326465529213 -135.96011451 0.820219868495 106.009592081
10.125 0.605921992848 -102.58380634 0.281745134673 126.598621983 0.622523615529 165.121006635 0.407360510485 -82.0923762468 0.281745134673 126.598621983 0.609400804119 -102.555443633 0.622647416017 165.252426403 0.401945958992 98.4588567283 0.622523615529 165.121006635 0.622647416017 165.252426403 0.474092385309 -80.3330025405 0.00329869240015 -139.994186883 0.407360510485 -82.0923762468 0.401945958992 98.4588567283 0.00329869240018 -139.994186882 0.820052424525 103.865936834
10.15 0.603895815365 -105.304684229 0.282344828076 123.417684647 0.624094607982 161.01471905 0.407550214949 -84.5616643363 0.282344828076 123.417684647 0.607413950441 -105.27234563 0.624213505827 161.148747642 0.402103475599 95.9956207829 0.624094607982 161.01471905 0.624213505827 161.148747642 0.469949205309 -85.711883984 0.00333309256261 -144.024172476 0.407550214949 -84.5616643363 0.402103475599 95.9956207829 0.00333309256263 -144.024172476 0.819880788616 101.724436528
10.175 0.601854697035 -108.017535449 0.282940711017 120.236710547 0.625667889497 156.911947998 0.407744013227 -87.0276422086 0.282940711017 120.236710547 0.605412273434 -107.981202585 0.625782065637 157.048624029 0.402265273232 93.535695006 0.625667889497 156.911947998 0.625782065637 157.048624029 0.46575220762 -91.0930939684 0.00336786168428 -148.050301996 0.407744013227 -87.0276422086 0.402265273232 93.535695006 0.0033678616843 -148.050301995 0.819704902404 99.5850334884
10.2 0.599799643534 -110.722204032 0.283531292917 117.05550332 0.627242983406 152.812446397 0.407941956204 -89.4903706405 0.283531292917 117.05550332 0.603396767726 -110.681861219 0.627352627977 152.951808795 0.402431401701 91.0790147274 0.627242983406 152.812446397 0.627352627977 152.951808795 0.461501156998 -96.4777032565 0.003403005338 -152.072800897 0.407941956204 -89.4903706405 0.402431401701 91.0790147274 0.00340300533801 -152.072800897 0.819524707853 97.4476704039
10.225 0.597731795723 -113.418531578 0.284115043621 113.87387835 0.628819324436 148.715970945 0.408144095034 -91.9499095903 0.284115043621 113.87387835 0.601368562504 -113.374165925 0.628924637201 148.858058953 0.402601909395 88.6255159275 0.628819324436 148.715970945 0.628924637201 148.858058953 0.457196046965 -101.866812916 0.00343852876964 -156.091889113 0.408144095034 -91.9499095903 0.402601909395 88.6255159275 0.00343852876965 -156.091889113 0.81934014715 95.3122903058
10.25 0.595652431343 -116.106357884 0.284690394992 110.691662782 0.630396259871 144.622282323 0.408350481297 -94.4063182291 0.284690394992 110.691662782 0.59932892321 -116.057959395 0.630497450663 144.76713549 0.402776843315 86.175135214 0.630396259871 144.622282323 0.630497450663 144.76713549 0.452837110379 -107.261555332 0.00347443690497 -160.107780792 0.408350481297 -94.4063182291 0.402776843315 86.175135214 0.00347443690497 -160.107780792 0.819151162608 93.178836546
10.275 0.59356296658 -118.785521632 0.28525574252 107.508695505 0.631973050828 140.531145386 0.408561167155 -96.8596549718 0.28525574252 107.508695505 0.597279253107 -118.733083305 0.632070339991 140.678803564 0.402956249111 83.7278097984 0.631973050828 140.531145386 0.632070339991 140.678803564 0.448424830654 -112.663095303 0.00351073435815 -164.120684064 0.408561167155 -96.8596549718 0.402956249111 83.7278097984 0.00351073435816 -164.120684064 0.818957696562 91.0472527765
10.3 0.591464957476 -121.455861118 0.285809446944 104.324827156 0.633548873623 136.442329344 0.408776205505 -99.3099775083 0.285809446944 104.324827156 0.595221094698 -121.399379046 0.633642492466 136.592832678 0.403140171111 81.2834774733 0.633548873623 136.442329344 0.633642492466 136.592832678 0.443959953689 -118.072631216 0.0035474254423 -168.13080082 0.408776205505 -99.3099775083 0.403140171111 81.2834774733 0.00354742544229 -168.130800821 0.818759691272 88.9174829294
10.325 0.589360101154 -124.117215041 0.286349835894 101.139920096 0.635122821256 132.35560793 0.408995650135 -101.757342836 0.286349835894 101.139920096 0.593156130956 -124.056688499 0.63521301251 132.508996851 0.40332865235 78.8420765904 0.635122821256 132.35560793 0.63521301251 132.508996851 0.439443500559 -123.491396278 0.0035845141818 -172.138326517 0.408995650135 -101.757342836 0.40332865235 78.8420765904 0.0035845141818 -172.138326517 0.818557088816 86.7894711968
10.35 0.587250236819 -126.769423346 0.286875205547 97.9538484068 0.636693905001 128.270759561 0.409219555882 -104.201807292 0.286875205547 97.9538484068 0.591086186352 -126.704854883 0.636780923272 128.427074773 0.403521734607 76.4035460381 0.636693905001 128.270759561 0.636780923272 128.427074773 0.434876781034 -128.920659786 0.00362200432688 -176.143449995 0.409219555882 -104.201807292 0.403521734607 76.4035460381 0.00362200432688 -176.143449995 0.818349830996 84.6631620114
10.375 0.58513734651 -129.412328136 0.287383822318 94.7664978757 0.63826105611 124.187567486 0.409447978784 -106.643426586 0.287383822318 94.7664978757 0.589013227627 -129.343723648 0.638345168334 124.346849953 0.403719458427 73.96782522 0.63826105611 124.187567486 0.638345168334 124.346849953 0.430261407977 -134.361728406 0.00365989937017 179.853646673 0.409447978784 -106.643426586 0.403719458427 73.96782522 0.00365989937017 179.853646673 0.818137859231 82.5385000272
10.4 0.583023555562 -132.045774637 0.287873924576 91.5777659904 0.639823127636 120.105819928 0.40968097624 -109.082255836 0.287873924576 91.5777659904 0.586939364286 -131.97314344 0.639904613524 120.268110859 0.403921863153 71.5348540342 0.639823127636 120.105819928 0.639904613524 120.268110859 0.425599312674 -139.815947428 0.00369820256561 175.852788323 0.40968097624 -109.082255836 0.403921863153 71.5348540342 0.0036982025656 175.852788323 0.817921114457 80.4154301005
10.425 0.580911132718 -134.669612242 0.2883437244 88.3875619384 0.641378896367 116.025310206 0.40991860716 -111.5183496 0.2883437244 88.3875619384 0.584866848759 -134.592967125 0.641458048854 116.19065104 0.404128986953 69.1045728516 0.641378896367 116.025310206 0.641458048854 116.19065104 0.420892761136 -145.284701964 0.00373691694967 171.853806814 0.40991860716 -111.5183496 0.404128986953 69.1045728516 0.00373691694967 171.853806814 0.817699537026 78.2938972715
10.45 0.578802489878 -137.283695617 0.288791409369 85.1958066156 0.642927064899 111.945836861 0.410160932131 -113.951761913 0.288791409369 85.1958066156 0.582798076191 -137.203052886 0.64300419057 112.114269247 0.404340866847 66.6769224961 0.642927064899 111.945836861 0.64300419057 112.114269247 0.41614437141 -150.769418039 0.00377604536513 167.856541116 0.410160932131 -113.951761913 0.404340866847 66.6769224961 0.00377604536512 167.856541116 0.8174730666 76.1738467458
10.475 0.576700181406 -139.887885882 0.289215144401 82.0024326443 0.644466263826 107.867203758 0.410408013561 -116.382546321 0.289215144401 82.0024326443 0.580735583819 -139.803265383 0.644541683338 108.038769535 0.404557538739 64.2518442235 0.644466263826 107.867203758 0.644541683338 108.038769535 0.411357131928 -156.271563513 0.00381559048732 163.860837388 0.410408013561 -116.382546321 0.404557538739 64.2518442235 0.00381559048732 163.860837388 0.817241642052 74.0552238763
10.5 0.57460690296 -142.482051861 0.289613073641 78.807384404 0.645995054067 103.789220184 0.410659915842 -118.810755922 0.289613073641 78.807384404 0.578682049876 -142.393476991 0.646069102555 103.963961363 0.404779037439 61.8292797022 0.645995054067 103.789220184 0.646069102555 103.963961363 0.406534420891 -161.792648787 0.00385555485325 159.86654902 0.410659915842 -118.810755922 0.404779037439 61.8292797022 0.00385555485325 159.86654902 0.817005201359 71.9379741456
10.525 0.5725254898 -145.066071408 0.289983322409 75.6106180765 0.647511929333 99.711700933 0.410916705503 -121.236443398 0.289983322409 75.6106180765 0.576640291976 -144.973569098 0.647584956796 99.8896596737 0.405005396695 59.4091709924 0.647511929333 99.711700933 0.647584956796 99.8896596737 0.40168002669 -167.334227187 0.00389594089346 155.873536661 0.410916705503 -121.236443398 0.405005396695 59.4091709924 0.00389594089346 155.873536661 0.8167636815 69.8220431479
10.55 0.570458914495 -147.639832803 0.290323999199 72.4121017073 0.649015318736 95.6344663841 0.411178451363 -123.659661056 0.290323999199 72.4121017073 0.574613264933 -147.543433482 0.649087690402 95.8156849711 0.405236649222 56.9914605271 0.649015318736 95.6344663841 0.649087690402 95.8156849711 0.396798169314 -172.897894968 0.00393675096697 151.881668217 0.411178451363 -123.659661056 0.405236649222 56.9914605271 0.00393675096697 151.881668217 0.816517018346 67.7073765718
10.575 0.568410284 -150.203236214 0.290633197754 69.2118152836 0.650503589548 91.5573425599 0.411445224689 -126.080460868 0.290633197754 69.2118152836 0.572604057947 -150.102973746 0.650575686221 91.7418633794 0.40547282673 54.576091092 0.650503589548 91.5573425599 0.650575686221 91.7418633794 0.39189352269 -178.485290803 0.00397798739937 147.890818825 0.411445224689 -126.080460868 0.40547282673 54.576091092 0.00397798739937 147.890818825 0.816265146559 65.5939201834
10.6 0.566382836038 -152.756195233 0.290908999205 66.0097508332 0.651975050114 87.4801611786 0.411717099345 -128.498894509 0.290908999205 66.0097508332 0.570615891113 -152.652106826 0.652047268488 87.6680266933 0.405713959954 52.163005806 0.651975050114 87.4801611786 0.652047268488 87.6680266933 0.386971237847 175.901905352 0.00401965252421 143.900870806 0.411717099345 -128.498894509 0.405713959954 52.163005806 0.00401965252422 143.900870807 0.81600799948 63.4816198085
10.625 0.564379934722 -155.298638468 0.291149474287 62.8059125422 0.653427952922 83.4027596909 0.41199415195 -130.915013399 0.291149474287 62.8059125422 0.568652111201 -155.190764555 0.653500705869 83.5940124149 0.405960078691 49.7521481015 0.653427952922 83.4027596909 0.653500705869 83.5940124149 0.38203696677 170.261974158 0.00406174872795 139.911713587 0.41199415195 -130.915013399 0.405960078691 49.7521481015 0.00406174872795 139.911713587 0.815745509022 61.3704213163
10.65 0.562405065386 -157.830511197 0.291352685626 59.6003168963 0.654860497841 79.324981303 0.412276462028 -133.328868745 0.291352685626 59.6003168963 0.566716186646 -157.718895278 0.654934214672 79.5196637759 0.406211211825 47.3434617046 0.654860497841 79.324981303 0.654934214672 79.5196637759 0.377096886732 164.593159735 0.00410427849846 135.923243595 0.412276462028 -133.328868745 0.406211211825 47.3434617046 0.00410427849847 135.923243595 0.81547760556 59.260270602
10.675 0.560461828548 -160.351777064 0.291516690119 56.3929928445 0.656270835526 75.2466749855 0.412564112163 -135.740511582 0.291516690119 56.3929928445 0.5648117017 -160.236465526 0.656345962213 75.4448297464 0.40646738737 44.9368906157 0.656270835526 75.2466749855 0.656345962213 75.4448297464 0.37215772486 158.893673615 0.00414724447758 131.935364126 0.412564112163 -135.740511582 0.40646738737 44.9368906157 0.00414724447758 131.935364126 0.815204217817 57.1511135705
10.7 0.558553932979 -162.862419824 0.291639541375 53.1839819879 0.657657071 71.167695466 0.41285718815 -138.14999282 0.291639541375 53.1839819879 0.562942349705 -162.743461712 0.657734070361 71.3693650277 0.406728632498 42.532379089 0.657657071 71.167695466 0.657734070361 71.3693650277 0.367226782605 153.161700032 0.00419064951756 127.947985184 0.41285718815 -138.14999282 0.406728632498 42.532379089 0.00419064951756 127.947985184 0.814925272751 55.0428961198
10.725 0.556685187815 -165.362445113 0.291719292255 49.9733387944 0.659017267406 67.0879032048 0.41315577915 -140.557363286 0.291719292255 49.9733387944 0.561111925439 -165.239891873 0.65909661926 67.2931300282 0.406994973586 40.1298716124 0.659017267406 67.0879032048 0.65909661926 67.2931300282 0.362311959697 147.395402773 0.00423449674196 123.961023286 0.41315577915 -140.557363286 0.406994973586 40.1298716124 0.00423449674196 123.961023286 0.814640695438 52.935564124
10.75 0.55485949369 -167.851882237 0.291753997472 46.7611308404 0.66034944995 63.0071643529 0.413459977844 -142.962673771 0.291753997472 46.7611308404 0.55932431649 -167.725787419 0.660431651222 63.2159908219 0.407266436245 37.7293128867 0.66034944995 63.0071643529 0.660431651222 63.2159908219 0.357421777086 141.592933847 0.00427878961096 119.974401242 0.413459977844 -142.962673771 0.407266436245 37.7293128867 0.00427878961095 119.974401242 0.814350408953 50.8290634173
10.775 0.553080832844 -170.330785963 0.29174171628 43.547439082 0.661651610021 58.9253506898 0.413769880584 -145.365975075 0.29174171628 43.547439082 0.557583493644 -170.201204886 0.661737174809 59.1378190876 0.407543045372 35.3306478048 0.661651610021 58.9253506898 0.661737174809 59.1378190876 0.352565398242 135.752444259 0.0043235319915 115.988047896 0.413769880584 -145.365975075 0.407543045372 35.3306478048 0.0043235319915 115.988047896 0.814054334249 48.723339777
10.8 0.551353258188 -172.799238305 0.291680515218 40.3323581569 0.662921709491 54.8423395414 0.414085587553 -147.767318061 0.291680515218 40.3323581569 0.555893500245 -172.666227681 0.663011169091 55.0584920273 0.407824825186 32.9338214298 0.662921709491 54.8423395414 0.663011169091 55.0584920273 0.347752648088 129.872097173 0.00436872823246 112.001897833 0.414085587553 -147.767318061 0.407824825186 32.9338214298 0.00436872823245 112.001897833 0.813752390035 46.6183389076
10.825 0.549680881316 -175.257350268 0.291568470925 37.115996719 0.664157685211 50.7580136745 0.414407202917 -150.166753698 0.291568470925 37.115996719 0.554258440521 -175.120967793 0.664251588092 50.977892263 0.408111799275 30.538778973 0.664157685211 50.7580136745 0.664251588092 50.977892263 0.342994028668 123.950083773 0.00441438324505 108.015891055 0.414407202917 -150.166753698 0.408111799275 30.538778973 0.00441438324504 108.015891055 0.813444492643 44.5140064237
10.85 0.548067859442 -177.705263555 0.291403672995 33.8984778097 0.665357453675 46.6722611678 0.414734834991 -152.564333111 0.291403672995 33.8984778097 0.552682466869 -177.565567461 0.665456365412 46.8959077095 0.408403990643 28.1454657705 0.665357453675 46.6722611678 0.665456365412 46.8959077095 0.338300730536 117.984642121 0.00446050258892 104.029972612 0.414734834991 -152.564333111 0.408403990643 28.1454657705 0.00446050258892 104.029972612 0.813130555899 42.410287834
10.875 0.546518381285 179.856847798 0.291184226882 30.6799392684 0.666518915875 42.5849752574 0.415068596395 -154.960107641 0.291184226882 30.6799392684 0.551169766103 179.999799223 0.666623419033 42.812431422 0.408701421757 25.75382726 0.666518915875 42.5849752574 0.666623419033 42.812431422 0.333684638684 111.974079293 0.00450709256405 100.044092201 0.415068596395 -154.960107641 0.408701421757 25.75382726 0.00450709256405 100.044092201 0.812810490986 40.3071285247
10.9 0.545036651914 177.428775881 0.290908256821 27.4605341869 0.66763996232 38.4960541545 0.415408604225 -157.354128889 0.290908256821 27.4605341869 0.549724544689 177.574924808 0.667750656288 38.727361417 0.409004114598 23.3638089557 0.66763996232 38.4960541545 0.667750656288 38.727361417 0.329158331658 105.916797053 0.00455416030889 96.0582037214 0.415408604225 -157.354128889 0.409004114598 23.3638089557 0.0045541603089 96.0582037214 0.812484206307 38.2044737425
10.925 0.543626876581 175.010277477 0.290573908776 24.2404314138 0.668718478224 34.4054008345 0.415754980222 -159.746448775 0.290573908776 24.2404314138 0.548351012984 175.159567074 0.668835979007 34.640600465 0.40931209071 20.9753564226 0.668718478224 34.4054008345 0.668835979007 34.640600465 0.32473507235 99.8113212245 0.00460171390512 92.0722647792 0.415754980222 -159.746448775 0.40931209071 20.9753564226 0.00460171390514 92.0722647794 0.812151607332 36.1022685783
10.95 0.542293243593 172.601072765 0.290179353372 21.019816115 0.669752348855 30.3129227953 0.416107850949 -162.137119593 0.290179353372 21.019816115 0.547053368536 172.753447765 0.669877288816 30.552055852 0.409625371249 18.5884152498 0.669752348855 30.3129227953 0.669877288816 30.552055852 0.320428788848 93.6563348656 0.00464976248917 88.0862361587 0.416107850949 -162.137119593 0.409625371249 18.5884152498 0.0046497624892 88.086236159 0.811812596454 34.0004579503
10.975 0.541039906282 170.200844186 0.289722788832 17.7988903996 0.670739465019 26.2185317838 0.416467347977 -164.52619407 0.289722788832 17.7988903996 0.545835778507 170.356251468 0.670872492573 26.4616391106 0.409943977039 16.202931022 0.670739465019 26.2185317838 0.670872492573 26.4616391106 0.316254043548 87.4507151955 0.00469831637117 84.1000812362 0.416467347977 -164.52619407 0.409943977039 16.202931022 0.00469831637122 84.1000812366 0.811467072828 31.8989865871
11 0.539870964139 167.809235483 0.289202443885 14.5778740212 0.671677728681 22.1221434874 0.416833608076 -166.913725422 0.289202443885 14.5778740212 0.544702361265 167.967624671 0.671819507948 22.3692657168 0.410267928617 13.8188492901 0.671677728681 22.1221434874 0.671819507948 22.3692657168 0.312225988732 81.1935740409 0.00474738716148 80.113765347 0.416833608076 -166.913725422 0.410267928617 13.8188492901 0.00474738716154 80.1137653475 0.811114932206 29.7977990108
11.025 0.538790443213 165.42585095 0.288616580643 11.3570051662 0.672565058689 18.0236771918 0.417206773419 -169.299767419 0.288616580643 11.3570051662 0.543657167267 165.587175015 0.672716269106 18.274854753 0.410597246285 11.4361155402 0.672565058689 18.0236771918 0.672716269106 18.274854753 0.308360306756 74.8843013602 0.00479698790534 76.1272550982 0.417206773419 -169.299767419 0.410597246285 11.4361155402 0.00479698790542 76.1272550989 0.810756066763 27.6968395196
11.05 0.537802275871 163.050254899 0.287963497462 8.1365413464 0.673399396599 13.9230554011 0.417586991796 -171.684374443 0.287963497462 8.13654134641 0.542704159308 163.214470765 0.673560732487 14.1783285341 0.410931950161 9.05467516079 0.673399396599 13.9230554011 0.673560732487 14.1783285341 0.30467313312 68.5226111255 0.00484713322609 72.1405176254 0.417586991796 -171.684374443 0.410931950161 9.05467516079 0.00484713322618 72.1405176262 0.810390364925 25.5960521706
11.075 0.536910280026 160.681971373 0.287241531782 4.91676041013 0.674178712558 9.82020342084 0.417974416846 -174.067601556 0.287241531782 4.91676041014 0.541847192248 160.849040514 0.674350882659 10.0796121973 0.411272060219 6.674473408 0.674178712558 9.82020342085 0.674350882659 10.0796121973 0.301180960892 62.1085885335 0.00489783947733 68.1535197889 0.417974416846 -174.067601556 0.411272060219 6.674473408 0.00489783947743 68.1535197898 0.81001771117 23.4953807626
11.1 0.536118137973 158.320484112 0.286449062969 1.6979616949 0.674901011236 5.7150489025 0.418369208302 -176.449504567 0.286449062969 1.69796169491 0.541089992365 158.490373137 0.675084738211 5.97863325404 0.411617596338 4.29545536957 0.674901011236 5.7150489025 0.675084738211 5.97863325404 0.297900525293 55.6427371759 0.00494912490457 64.1662273086 0.418369208302 -176.449504567 0.411617596338 4.29545536958 0.00494912490467 64.1662273095 0.809637985837 21.394768818
11.125 0.535429374952 155.965236794 0.285584515198 -1.51953265659 0.675564337763 1.60752134858 0.418771532255 -178.830140097 0.285584515198 -1.51953265658 0.540436136429 156.137918003 0.675760357672 1.87532110296 0.411968578334 1.91756592622 0.675564337763 1.60752134858 0.675760357672 1.87532110296 0.294848667784 49.1260244519 0.00500100981696 60.1786038306 0.418771532255 -178.830140097 0.411968578334 1.91756592622 0.00500100981706 60.1786038314 0.809251064912 19.2941595655
11.15 0.534847337592 153.615633547 0.284646360437 -4.73537619012 0.676166783653 -2.5024484215 0.419181561443 178.790434348 0.284646360437 -4.73537619012 0.539889030668 153.791085467 0.676375845406 -2.23039349574 0.412325025997 -0.459250288905 0.676166783653 -2.5024484215 0.676375845406 -2.23039349574 0.292042179682 42.5599231725 0.0050535167695 56.1906099247 0.419181561443 178.790434348 0.412325025997 -0.4592502889 0.00505351676958 56.1906099253 0.80885681981 17.1934959214
11.175 0.534375172372 151.271039755 0.283633121594 -7.94919641396 0.676706492674 -6.61492884498 0.419599475564 176.412160303 0.283633121594 -7.94919641396 0.539451889753 151.449247628 0.676929357467 -6.33857898461 0.412686959118 -2.83504893307 0.676706492674 -6.61492884498 0.676929357467 -6.33857898461 0.289497626179 35.9464470302 0.00510667075644 52.2022020066 0.419599475564 176.412160303 0.412686959118 -2.83504893306 0.00510667075648 52.202202007 0.808455117142 15.0927204722
11.2 0.534015804241 148.930783139 0.282543375948 -11.1605928207 0.677181666626 -10.7299882284 0.420025461616 174.034978269 0.282543375948 -11.1605928207 0.539127715952 149.111739371 0.677419107366 -10.4493036118 0.413054397503 -5.2098859992 0.677181666626 -10.7299882284 0.677419107366 -10.4493036118 0.287231152701 29.2881774317 0.00516049941649 48.2133311813 0.420025461616 174.034978269 0.413054397503 -5.2098859992 0.00516049941648 48.2133311812 0.808045818469 12.9917754555
11.225 0.533771915559 146.594155125 0.281375758992 -14.3691346222 0.67759057099 -14.8476953982 0.420459714277 171.658827636 0.281375758992 -14.3691346222 0.538919278588 146.777859678 0.677843371726 -14.5626360715 0.413427360988 -7.58381786368 0.67759057099 -14.8476953982 0.677843371726 -14.5626360715 0.285258276645 22.5882791569 0.00521503325045 44.2239420023 0.420459714277 171.658827636 0.413427360988 -7.58381786369 0.00521503325034 44.2239420016 0.807628780042 10.890602742
11.25 0.533645925465 144.260412475 0.280128968867 -17.5743581605 0.677931540419 -18.9681203885 0.420902436313 169.2836466 0.280128968867 -17.5743581605 0.538829093953 144.446873203 0.678200495765 -18.6786461802 0.413805869431 -9.95690133671 0.677931540419 -18.9681203885 0.678200495764 -18.6786461802 0.283593668727 15.8505024621 0.00527030585203 40.2339711426 0.420902436313 169.2836466 0.413805869431 -9.95690133672 0.00527030585181 40.2339711411 0.807203852527 8.78914381641
11.275 0.533639969819 141.928779182 0.278801771604 -20.7757639581 0.678202984005 -23.0913351633 0.421353839038 166.909372079 0.278801771604 -20.7757639581 0.538859405784 142.118012104 0.678488898589 -22.7974055883 0.414189942704 -12.3291937155 0.678202984005 -23.0913351633 0.678488898589 -22.7974055883 0.282250929342 9.07916962054 0.00532635415274 36.2433459696 0.421353839038 166.909372079 0.414189942704 -12.3291937155 0.00532635415239 36.2433459672 0.806770880712 6.68733975841
11.3 0.533755881822 139.598448597 0.277393007433 -23.9728133692 0.678403390311 -27.2174143717 0.421814142815 164.53593963 0.277393007433 -23.9728133693 0.539012166432 139.790478096 0.678707078239 -26.9189885225 0.414579600658 -14.70075284 0.678403390311 -27.2174143717 0.678707078239 -26.9189885225 0.281242366289 2.27914449911 0.00538321868151 32.2519830209 0.421814142815 164.53593963 0.414579600658 -14.7007528401 0.005383218681 32.2519830174 0.806329703201 4.58513122387
11.325 0.533995173402 137.268585771 0.275901598484 -27.1649247992 0.678531332103 -31.3464361324 0.42228357762 162.163283352 0.275901598484 -27.1649247992 0.539289018805 137.463444721 0.678853616458 -31.0434725588 0.414974863083 -17.0716371524 0.678531332103 -31.3464361324 0.678853616458 -31.0434725588 0.280578780978 -4.54421540504 0.00544094384014 28.2597863709 0.422283577621 162.163283352 0.414974863083 -17.0716371524 0.00544094383946 28.2597863664 0.805880152082 2.4824584254
11.35 0.534359017431 134.938329985 0.274326558229 -30.3514694622 0.678585470751 -35.4784828447 0.422762383659 159.791335797 0.274326558228 -30.3514694623 0.539691279169 135.136059801 0.678927183129 -35.1709394199 0.415375749639 -19.4419057583 0.678585470751 -35.4784828447 0.678927183128 -35.1709394199 0.280269270542 -11.3851240463 0.00549957819547 24.2666458842 0.422762383659 159.791335797 0.415375749639 -19.4419057584 0.00549957819462 24.2666458787 0.805422052582 0.379261113013
11.375 0.534848230834 132.606797426 0.272667003102 -33.5317666579 0.678564560258 -39.6136420204 0.423250812058 157.420027875 0.272667003101 -33.5317666579 0.540219920852 132.807448041 0.678926540357 -39.3014757947 0.415782279772 -21.8116184923 0.678564560258 -39.6136420204 0.678926540357 -39.3014757947 0.280321053191 -18.2374475153 0.00555917478948 20.2724353448 0.423250812058 157.420027875 0.415782279772 -21.8116184924 0.00555917478846 20.2724353384 0.804955222699 -1.72452144537
11.4 0.535463258582 130.273083996 0.270922166747 -36.7050785588 0.678467450879 -43.7520071332 0.423749125632 155.049288745 0.270922166747 -36.7050785589 0.540875558872 130.47671375 0.678850546146 -43.4351741744 0.416194472607 -24.1808359859 0.678467450879 -43.7520071332 0.678850546145 -43.4351741744 0.280739323482 -25.0947977243 0.00561979146835 16.2770104545 0.423749125633 155.049288745 0.416194472608 -24.1808359859 0.00561979146722 16.2770104476 0.804479472808 -3.82895048346
11.425 0.536204158568 127.936268194 0.269091417415 -39.8706045222 0.678293092292 -47.8936784794 0.424257599741 152.679045721 0.269091417414 -39.8706045223 0.541658435483 128.142943649 0.678698157636 -47.5721336997 0.416612346812 -26.549619739 0.678293092292 -47.8936784794 0.678698157635 -47.5721336997 0.281527143061 -31.9506355227 0.00568149123199 12.280206689 0.424257599741 152.679045721 0.416612346812 -26.549619739 0.00568149123084 12.2802066821 0.803994605247 -5.93408775616
11.45 0.537070587318 125.595414054 0.267174279028 -43.0274749607 0.678040536291 -52.0387640428 0.424776523236 150.309224155 0.267174279027 -43.0274749607 0.542568406603 125.805209726 0.678468433875 -51.7124610123 0.417035920431 -28.9180321945 0.678040536291 -52.0387640428 0.678468433875 -51.7124610123 0.282685370855 -38.7983789378 0.00574434260525 8.28183700135 0.424776523237 150.309224155 0.417035920431 -28.9180321946 0.00574434260422 8.28183699541 0.803500413876 -8.03999555915
11.475 0.538061786445 123.24957409 0.265170456476 -46.1747448432 0.677708938971 -56.1873803583 0.425306199527 147.93974733 0.265170456476 -46.1747448433 0.543604929038 123.462572102 0.67816053809 -55.8562711058 0.41746521069 -31.2861368162 0.677708938971 -56.1873803583 0.67816053809 -55.8562711057 0.284212634806 -45.6315118246 0.00580842003245 4.28168936049 0.425306199527 147.93974733 0.417465210691 -31.2861368163 0.00580842003177 4.28168935668 0.802996683613 -10.1467367484
11.5 0.539176569748 120.897792221 0.263079865645 -49.3113869368 0.677297562385 -60.339653365 0.425846947757 145.570536341 0.263079865645 -49.3113869368 0.54476704842 121.114081875 0.677773739432 -60.003688165 0.417900233769 -33.6539981701 0.677297562385 -60.339653365 0.677773739432 -60.003688165 0.286105345191 -52.4436881662 0.00587380429688 0.279524110237 0.425846947757 145.570536341 0.417900233769 -33.6539981701 0.00587380429688 0.279524110237 0.802483189933 -12.2543747596
