! Generated from PyAEDT SolutionData; AEDT ExportNetworkData workaround
# GHz S MA R 50
9 0.186859900038 139.486173767 0.462541262311 179.52065172 0.556593860762 -103.923709257 0.66433593353 43.6599020408 0.462541262311 179.52065172 0.188540096742 140.123494608 0.554492363093 -104.058833237 0.665617331393 -136.402497926 0.556593860762 -103.923709257 0.554492363093 -104.058833237 0.618654526811 163.674865141 0.00284075517504 109.838691287 0.66433593353 43.6599020408 0.665617331393 -136.402497926 0.00284075517505 109.838691287 0.340004802436 -112.91710115
9.025 0.183880609883 136.720549645 0.462606934779 176.809312381 0.558072934012 -108.40701142 0.66388054031 40.7489745004 0.462606934779 176.809312381 0.185527316286 137.368321915 0.555945172305 -108.542400004 0.665206310167 -139.313019697 0.558072934012 -108.40701142 0.555945172305 -108.542400004 0.616015842515 157.298045336 0.00285184487151 105.08161512 0.66388054031 40.7489745004 0.665206310167 -139.313019697 0.00285184487151 105.081615121 0.341694439465 -115.599732362
9.05 0.180924100774 133.965485183 0.462685820437 174.10469574 0.559518162125 -112.882856665 0.66342127045 37.8459230567 0.462685820437 174.10469574 0.182537217202 134.62346763 0.557363637026 -113.018500689 0.664791570843 -142.215705955 0.559518162125 -112.882856665 0.557363637026 -113.018500689 0.613418435231 150.927712907 0.00286265536411 100.340435116 0.66342127045 37.8459230567 0.664791570843 -142.215705955 0.00286265536411 100.340435116 0.343389321748 -118.278684886
9.075 0.177989450931 131.220462474 0.462776445743 171.406560122 0.560931653752 -117.351308594 0.66295811505 34.9505964046 0.462776445743 171.406560122 0.179568904013 131.888414385 0.558749860369 -117.487197361 0.664373114335 -145.110707616 0.560931653752 -117.351308594 0.558749860369 -117.487197361 0.610860529774 144.56412907 0.00287320667508 95.6153141944 0.66295811505 34.9505964046 0.664373114335 -145.110707616 0.00287320667508 95.6153141949 0.345089375762 -120.954018528
9.1 0.175075596871 128.484950814 0.462877247781 168.714682924 0.562315604322 -121.812448368 0.662491062319 32.062847044 0.46287724778 168.714682924 0.176621341602 129.162633638 0.560106032277 -121.948569654 0.663950939127 -147.998171922 0.562315604322 -121.812448368 0.560106032277 -121.948569654 0.608339770215 138.207487965 0.0028835198808 90.9063948805 0.662491062319 32.062847044 0.663950939127 -147.998171922 0.0028835198808 90.9063948808 0.346794532577 -123.625792161
9.125 0.172181328955 125.758409919 0.462986576428 166.028861838 0.563672285096 -126.26637527 0.662020098121 29.1825311162 0.462986576428 166.028861838 0.173693350871 126.445588972 0.561434418594 -126.402715325 0.663525041757 -150.878242607 0.563672285096 -126.26637527 0.561434418594 -126.402715325 0.605853304162 131.857914788 0.00289361713206 86.2137982839 0.662020098121 29.1825311162 0.663525041757 -150.878242607 0.00289361713206 86.2137982841 0.348504727627 -126.294063746
9.15 0.169305288976 123.040293638 0.463102699673 163.348916086 0.565004031499 -130.713207202 0.661545206397 26.3095082523 0.463102699673 163.348916086 0.170783606512 123.736739906 0.562737349417 -130.849750771 0.663095417198 -153.751060047 0.565004031499 -130.713207202 0.562737349417 -130.849750771 0.603397859713 125.51546376 0.00290352166037 81.5376229877 0.661545206397 26.3095082523 0.663095417198 -153.751060047 0.00290352166037 81.5376229878 0.35021990049 -128.958890356
9.175 0.166445969666 120.330054113 0.463223811484 160.674687557 0.566313230818 -135.15308113 0.661066369519 23.4436414289 0.463223811484 160.674687557 0.167890636723 121.035546143 0.56401720682 -135.289811462 0.662662059139 -156.616761405 0.566313230818 -135.15308113 0.56401720682 -135.289811462 0.600969815333 119.180115991 0.0029132577712 76.8779438794 0.661066369519 23.4436414289 0.662662059139 -156.616761405 0.0029132577712 76.8779438793 0.35193999467 -131.620328192
9.2 0.163601715907 117.627146334 0.463348041647 158.006041811 0.567602309379 -139.586153451 0.660583568567 20.584796834 0.463348041647 158.006041811 0.16501282468 118.341472218 0.565276412055 -139.723052325 0.662224960191 -159.475480769 0.567602309379 -139.586153451 0.565276412055 -139.723052325 0.598565263054 112.851777314 0.00292285082505 72.2348109567 0.660583568567 20.584796834 0.662224960191 -159.475480769 0.00292285082505 72.2348109565 0.353664957395 -134.278432607
9.225 0.160770727478 114.931033043 0.463473466997 155.342868919 0.568873719288 -144.012600307 0.660096783544 17.7328437406 0.463473466997 155.342868919 0.162148411557 115.653992486 0.566517412319 -144.149648052 0.661784112034 -162.327349278 0.568873719288 -144.012600307 0.566517412319 -144.149648052 0.596180065491 106.530276122 0.00293232720759 67.6082481341 0.660096783544 17.7328437406 0.661784112034 -162.327349278 0.00293232720758 67.6082481339 0.355394739416 -136.933258124
9.25 0.157951063139 112.241189967 0.46359812358 152.685084137 0.570129924816 -148.432617818 0.65960599355 14.8876543877 0.463598123581 152.685084137 0.159295500897 112.97259645 0.567742667163 -148.569793344 0.661339505512 -165.172495237 0.570129924816 -148.432617818 0.567742667163 -148.569793344 0.593809907255 100.215361265 0.00294171429002 62.9982520707 0.65960599355 14.8876543877 0.661339505512 -165.172495237 0.00294171429002 62.9982520705 0.357129294817 -139.584858459
9.275 0.155140645861 109.557111379 0.463720019393 150.032628427 0.571373388498 -152.846422265 0.659111176916 12.0491038688 0.463720019393 150.032628427 0.156452064134 110.296794398 0.56895463463 -152.983703091 0.660891130688 -168.011044234 0.571373388498 -152.846422265 0.56895463463 -152.983703091 0.591450341413 93.9067000377 0.00295104038111 58.4047910351 0.659111176916 12.0491038688 0.660891130688 -168.011044234 0.00295104038111 58.4047910349 0.358868580832 -142.233286535
9.3 0.152337269023 106.878315979 0.463837147409 147.38546885 0.572606557012 -157.254250193 0.658612311311 9.21707002667 0.463837147409 147.38546885 0.153615947076 107.626123386 0.57015575716 -157.391612483 0.660438976872 -170.843119241 0.572606557012 -157.254250193 0.57015575716 -157.391612483 0.589096831646 87.6038762641 0.00296033467198 53.8278038193 0.658612311311 9.21707002667 0.660438976872 -170.843119241 0.00296033467198 53.8278038193 0.360612557668 -144.878594505
9.325 0.149538603416 104.20435314 0.463947498754 144.743598835 0.573831846879 -161.656358463 0.658109373821 6.39143335417 0.463947498754 144.743598835 0.15078487719 104.960153568 0.571348447334 -161.793777057 0.659983032624 -173.668840715 0.573831846879 -161.656358463 0.571348447334 -161.793777057 0.586744790794 81.3063885247 0.00296962717486 49.2671987087 0.658109373821 6.39143335417 0.659983032624 -173.668840715 0.00296962717486 49.2671987087 0.362361188338 -147.520833769
9.35 0.146742204914 101.534809558 0.464049075898 142.107038367 0.575051630033 -166.05302423 0.657602341018 3.5720769001 0.464049075898 142.107038367 0.147956471528 102.298494958 0.572535073483 -166.190472688 0.659523285747 -176.488326688 0.575051630033 -166.05302423 0.572535073483 -166.190472688 0.584389616474 75.0136485095 0.00297894865701 44.7228525121 0.657602341018 3.5720769001 0.659523285747 -176.488326688 0.00297894865701 44.7228525122 0.364114438496 -150.160054995
9.375 0.143945522675 98.8693163844 0.464139905858 139.475834102 0.576268219276 -170.444544873 0.657091189012 0.758886180473 0.464139905858 139.475834102 0.145128245182 99.6408046645 0.57371794519 -170.581995511 0.659059723266 -179.301692858 0.576268219276 -170.444544873 0.57371794519 -170.581995511 0.582026724417 68.7249795156 0.00298833057046 40.1946096547 0.657091189012 0.758886180474 0.659059723266 -179.301692858 0.00298833057046 40.1946096549 0.365872276286 -152.79630813
9.4 0.141145907789 96.2075569306 0.464218053388 136.850059427 0.577483853648 -174.831237854 0.656575893498 -2.04825090605 0.464218053388 136.850059427 0.142297620153 96.9867947287 0.574899298714 -174.968661787 0.658592331405 177.890947329 0.577483853648 -174.831237854 0.574899298714 -174.968661787 0.579651580195 62.4396150819 0.00299780497859 35.6822813321 0.656575893498 -2.04825090604 0.658592331405 177.890947329 0.00299780497859 35.6822813323 0.367634672183 -155.429642424
9.425 0.138340622287 93.5492750833 0.464281634226 134.229814483 0.578700683704 -179.213440527 0.656056429792 -4.84944415859 0.464281634226 134.229814483 0.139461934571 94.3362406822 0.57608128232 -179.350807716 0.658121095562 175.089482602 0.578700683704 -179.213440527 0.57608128232 -179.350807716 0.577259729929 56.1566977594 0.00300740447982 31.1856447254 0.656056429792 -4.84944415859 0.658121095562 175.089482602 0.00300740447982 31.1856447256 0.369401598858 -158.060106445
9.45 0.135526848462 90.8942845855 0.464328828436 131.615226168 0.579920756707 176.408490109 0.655532772873 -7.64480115093 0.464328828436 131.615226168 0.136618452204 91.6889909949 0.577265941535 176.271210814 0.657646000282 172.293803784 0.579920756707 176.408490109 0.577265941535 176.271210814 0.574846830578 49.8752780092 0.00301716212895 26.7044422749 0.655532772873 -7.64480115092 0.657646000282 172.293803784 0.00301716212896 26.7044422752 0.371173031036 -160.687748093
9.475 0.132701698483 88.2424793932 0.464357893955 129.006448111 0.581146001715 172.034177719 0.655004897414 -10.4344273049 0.464357893955 129.006448111 0.133764372244 89.0449776243 0.578455204307 171.897018528 0.657167029241 169.503803724 0.581146001715 172.034177719 0.578455204307 171.897018528 0.572408680364 43.5943132209 0.00302711135623 22.2383810111 0.655004897414 -10.4344273049 0.657167029241 169.503803724 0.00302711135624 22.2383810114 0.372948945364 -163.312614618
9.5 0.129862224298 85.5938453621 0.464367180415 126.403660643 0.582378214551 167.663226985 0.65447277782 -13.2184259611 0.464367180415 126.403660643 0.130896839372 86.404227926 0.57965086604 167.526221119 0.656684165222 166.719377228 0.582378214551 167.663226985 0.57965086604 167.526221119 0.56994124983 37.3126668453 0.00303728588402 17.7871319417 0.65447277782 -13.2184259611 0.656684165222 166.719377228 0.00303728588402 17.787131942 0.374729320279 -165.934752636
9.525 0.127005427854 82.9484735834 0.464355143359 123.807070744 0.583619042616 163.295224027 0.653936388265 -15.9968984463 0.464355143359 123.807070744 0.128012954134 83.7668782484 0.5808545745 163.158405668 0.656197390104 163.940420987 0.583619042616 163.295224027 0.5808545745 163.158405668 0.567440714043 31.0291076352 0.00304771964089 13.3503294958 0.653936388265 -15.9968984463 0.656197390104 163.940420987 0.00304771964089 13.350329496 0.376514135893 -168.554208141
9.55 0.124128271708 80.3065757663 0.464320358947 121.216911988 0.584869969533 158.929736867 0.653395702728 -18.7699441393 0.464320358947 121.216911988 0.125109783697 81.1331896121 0.582067814534 158.793141104 0.655706684854 161.166833513 0.584869969533 158.929736867 0.582067814534 158.793141104 0.564903486382 24.7423089946 0.0030584466728 8.92757102711 0.653395702728 -18.7699441393 0.655706684854 161.166833513 0.0030584466728 8.92757102728 0.378303373866 -171.171026524
9.575 0.121227690095 77.6685021616 0.464261539271 118.633444457 0.586132299566 154.566315959 0.652850695034 -21.5376605336 0.464261539271 118.633444457 0.122184373074 78.5035659736 0.583291892596 154.429978733 0.655212029521 158.398515081 0.586132299566 154.566315959 0.583291892596 154.429978733 0.562326254348 18.4508484381 0.00306950105059 4.51841638077 0.652850695034 -21.5376605336 0.655212029521 158.398515081 0.00306950105059 4.51841638088 0.380097017298 -173.785252583
9.6 0.118300600606 75.0347626468 0.464177548384 116.05695464 0.587407141792 150.204494777 0.652301338897 -24.3001432982 0.464177548384 116.05695464 0.119233756969 75.8785756976 0.584527921013 150.068452823 0.654713403229 155.635367657 0.587407141792 150.204494777 0.584527921013 150.068452823 0.559706017796 12.1532071716 0.0030809167733 0.122387530395 0.652301338897 -24.3001432982 0.654713403229 155.635367657 0.0030809167733 0.122387530459 0.381895050618 -176.396930539
9.625 0.115343916626 72.4060517574 0.464067419149 113.487755283 0.58869539398 145.843790457 0.651747607965 -27.057486337 0.464067419149 113.487755283 0.116254972406 73.2589770197 0.585776801978 145.70808125 0.654210784181 152.877294847 0.58869539398 145.843790457 0.585776801978 145.70808125 0.557040129979 5.84776981351 0.0030927276664 -4.26103170547 0.651747607965 -27.057486337 0.654210784181 152.877294847 0.0030927276664 -4.26103170546 0.383697459476 -179.006104049
9.65 0.11235456076 69.7832786548 0.463930371026 110.926185193 0.589997726141 141.483704516 0.65118947587 -29.8097818455 0.463930371026 110.926185193 0.113245072375 70.6457484924 0.587039211221 141.348366209 0.653704149657 150.124201828 0.589997726141 141.483704516 0.587039211221 141.348366209 0.554326341764 -0.46717571536 0.00310496727403 -8.63239585561 0.65118947587 -29.8097818455 0.653704149657 150.124201828 0.00310496727403 -8.63239585565 0.385504230639 178.387183783
9.675 0.109329479514 67.1676033007 0.463765828891 108.372608965 0.591314563721 137.123723633 0.650626916277 -32.5571203664 0.463765828891 108.372608965 0.110201140799 68.0401256771 0.588315581326 136.988794999 0.653193476008 147.375995298 0.591314563721 137.123723633 0.588315581326 136.988794999 0.551562849372 -6.79343809186 0.00311766874446 -12.9922978828 0.650626916277 -32.5571203664 0.653193476008 147.375995298 0.00311766874446 -12.9922978829 0.3873153519 175.782890391
9.7 0.1062656596 64.5604804716 0.463573442983 105.827416618 0.592646070407 132.763320512 0.650059902942 -35.2995908433 0.463573442983 105.827416618 0.107120309174 65.4436457009 0.589606084677 132.628840878 0.652678738654 144.63258341 0.592646070407 132.763320512 0.589606084677 132.628840878 0.548748345961 -13.1329222239 0.00313086470755 -17.3413691484 0.650059902942 -35.2995908434 0.652678738654 144.63258341 0.00313086470755 -17.3413691485 0.389130811973 173.180973735
9.725 0.103160146298 61.9637137334 0.463353110073 103.291023107 0.593992130522 128.401954818 0.649488409774 -38.0372806728 0.463353110073 103.291023107 0.103999775373 62.8582017752 0.590910615997 128.267964008 0.652159912071 141.893875723 0.593992130522 128.401954818 0.590910615997 128.267964008 0.545882077367 -19.4876285449 0.00314458714349 -21.6802792353 0.649488409774 -38.0372806728 0.652159912071 141.893875723 0.00314458714349 -21.6802792354 0.390950600405 170.581392295
9.75 0.100010064472 59.3795221568 0.463104995918 100.763867683 0.59535233101 124.039074215 0.648912410896 -40.7702757552 0.463104995918 100.763867683 0.100836825217 60.2861104107 0.59222877449 123.905612478 0.651636969778 139.159783136 0.59535233101 124.039074215 0.59222877449 123.905612478 0.542963902268 -25.8596518765 0.00315886724173 -26.0097356096 0.648912410896 -40.7702757552 0.651636969778 139.159783136 0.00315886724172 -26.0097356097 0.392774707486 167.984105052
9.775 0.0968126429784 56.8106234438 0.462829559054 98.2464130625 0.596725943013 119.674115485 0.64833188072 -43.4986605438 0.462829559054 98.2464130625 0.0976288575911 57.7301949273 0.593559845583 119.541223437 0.65110988431 136.43021784 0.596725943013 119.674115485 0.593559845583 119.541223437 0.53999435702 -32.2511797448 0.00317373524917 -30.3304830976 0.64833188072 -43.4986605438 0.65110988431 136.43021784 0.00317373524916 -30.3304830977 0.39460312416 165.389071483
9.8 0.0935652434641 54.2603383717 0.462527575972 95.7391443609 0.598111903058 115.306505769 0.647746794027 -46.2225180929 0.462527575972 95.7391443609 0.0943734141528 55.1938900422 0.594902782284 115.174224322 0.650578627182 133.705093262 0.598111903058 115.306505769 0.594902782284 115.174224322 0.536974725364 -38.6644900096 0.00318922030693 -34.6433031547 0.647746794027 -46.2225180929 0.650578627182 133.705093262 0.00318922030692 -34.6433031548 0.396435841942 162.79625155
9.825 0.0902653948709 51.7327231693 0.46220016766 93.2425677494 0.599508793899 110.93566391 0.647157126049 -48.9419301043 0.46220016766 93.2425677494 0.09106821499 52.681373951 0.59625618621 110.804034205 0.650043168848 130.984324008 0.599508793899 110.93566391 0.59625618621 110.804034205 0.533907113102 -45.1019476377 0.00320535027479 -38.9490129025 0.647157126049 -48.9419301043 0.650043168848 130.984324008 0.00320535027478 -38.9490129026 0.398272852834 160.205605686
9.85 0.0869108354164 49.2327388432 0.461848827491 90.757208774 0.600914825077 106.561001929 0.64656285257 -51.6569769734 0.461848827491 90.757208774 0.0877112020713 50.1977366004 0.597618288343 106.430065272 0.64950347864 128.267825811 0.600914825077 106.561001929 0.597618288343 106.430065272 0.530794527809 -51.5660004191 0.00322215154283 -43.2484639088 0.64656285257 -51.6569769734 0.64950347864 128.267825811 0.00322215154282 -43.2484639089 0.400114149245 157.617094794
9.875 0.0834995644942 46.7664698969 0.461475450371 88.2836102791 0.602327813297 102.181926638 0.645963950034 -54.3677378333 0.461475450371 88.2836102791 0.0843005930039 47.7491960679 0.598986929598 102.051724424 0.648959524698 125.555515479 0.602327813297 102.181926638 0.598986929598 102.051724424 0.527640963471 -58.0591733918 0.00323964882972 -47.5425406869 0.645963950034 -54.3677378333 0.648959524698 125.555515479 0.00323964882972 -47.542540687 0.401959723914 155.030680229
9.9 0.0800299078897 44.3414098055 0.461082362997 85.8223298706 0.60374516273 97.79784139 0.645360395658 -57.0742905993 0.461082362997 85.8223298706 0.0808349485822 45.3433795588 0.600359541344 97.6684150391 0.648411273884 122.847310845 0.60374516273 97.79784139 0.600359541344 97.6684150391 0.524451489829 -64.5840617 0.00325786496748 -51.8321588895 0.645360395658 -57.0742905993 0.648411273884 122.847310845 0.00325786496748 -51.8321588896 0.403809569828 152.446323795
9.925 0.0765006011274 41.9668377932 0.460672355054 83.3739368455 0.605163845409 93.4081480024 0.644752167573 -59.7767120116 0.460672355054 83.3739368455 0.0773132590377 42.9896921621 0.601733126006 93.2795388871 0.647858691683 120.143130717 0.605163845409 93.4081480024 0.601733126006 93.2795388871 0.521232345972 -71.143321574 0.00327682067258 -56.1182631761 0.644752167573 -59.7767120116 0.647858691683 120.143130717 0.00327682067258 -56.1182631761 0.405663680154 149.863987739
9.95 0.0729108979003 39.6543220699 0.46024871103 80.9390085123 0.606580381909 89.0122488372 0.644139244967 -62.4750776786 0.46024871103 80.9390085123 0.0737350560195 40.6998061978 0.603104237971 88.8844982129 0.647301742083 117.442894828 0.606580381909 89.0122488372 0.603104237971 88.8844982129 0.517991037508 -77.7396590792 0.00329653430355 -60.4018247323 0.644139244967 -62.4750776786 0.647301742083 117.442894828 0.00329653430355 -60.4018247324 0.407522048159 147.283634735
9.975 0.0692607137931 37.418400577 0.459815242311 78.5181258221 0.607990822552 84.6095490699 0.64352160825 -65.1694621199 0.459815242311 78.5181258221 0.0701005605552 38.4883183004 0.604468965014 84.4826980033 0.646740387449 114.74652379 0.607990822552 84.6095490699 0.604468965014 84.4826980033 0.514736436304 -84.3758162397 0.00331702160569 -64.683838424 0.64352160825 -65.1694621199 0.646740387449 114.74652379 0.00331702160569 -64.683838424 0.409384667139 144.705227886
10 0.065550820596 35.2775144023 0.459376319064 76.1118682295 0.609390729417 80.1994591469 0.642899239234 -67.859938809 0.459376319064 76.1118682295 0.0664108821895 36.3736427725 0.605822910531 80.0735484452 0.646174588369 112.05393905 0.609390729417 80.1994591469 0.605822910531 80.0735484452 0.511478881422 -91.0545541105 0.00333829544348 -68.9653195694 0.642899239234 -67.859938809 0.646174588369 112.05393905 0.00333829544348 -68.9653195694 0.411251530348 142.128730711
10.025 0.0617831145812 33.2553060794 0.458936901311 73.7208077004 0.61077515949 75.7813974444 0.642272121334 -70.5465802174 0.458936901311 73.7208077004 0.0626682922652 34.3792419896 0.607161176913 75.6564675846 0.645604303498 109.365062848 0.61077515949 75.7813974444 0.607161176913 75.6564675846 0.50823027943 -97.7786323391 0.00336036552196 -73.2473003188 0.642272121334 -70.5465802174 0.645604303498 109.365062848 0.00336036552197 -73.2473003188 0.413122630926 139.554107144
10.05 0.0579609951998 31.3824525291 0.458502568485 71.3455017924 0.612138649346 71.3547931373 0.641640239776 -73.2294578589 0.458502568485 71.3455017924 0.0588766067006 32.535343587 0.608478350449 71.2308841948 0.645029489378 106.67981817 0.612138649346 71.3547931373 0.608478350449 71.2308841948 0.505004201713 -104.550784745 0.00338323809863 -77.5308256332 0.641640239776 -73.2294578589 0.645029489378 106.67981817 0.00338323809864 -77.5308256332 0.414997961829 136.981321521
10.075 0.054089912295 29.6992923732 0.458079546583 68.9864857348 0.613475201795 66.9190892835 0.641003581838 -75.9086423359 0.458079546583 68.9864857348 0.0550417337372 30.8813685152 0.609768488178 66.7962408615 0.644450100247 103.998128718 0.613475201795 66.9190892835 0.609768488178 66.7962408615 0.501815975848 -111.373690449 0.00340691568772 -81.8169488582 0.641003581838 -75.9086423359 0.644450100247 103.998128718 0.00340691568773 -81.8169488582 0.416877515759 134.410338583
10.1 0.0501781764267 28.2596478845 0.457674731914 66.6442634555 0.614778274999 62.4737461291 0.640362137092 -78.5842033868 0.457674731914 66.6442634555 0.0511724753431 29.4694058273 0.611025107209 62.3519972879 0.643866087843 101.319918868 0.614778274999 62.4737461291 0.611025107209 62.3519972879 0.498682767373 -118.249940101 0.00343139675948 -86.106726895 0.640362137092 -78.5842033868 0.643866087843 101.319918868 0.0034313967595 -86.1067268951 0.418761285094 131.841123464
10.125 0.0462381895731 27.1364575349 0.457295710266 64.3192975144 0.616040774603 58.0182446338 0.639715897667 -81.256209937 0.457295710266 64.3192975144 0.0472817264927 28.3692325237 0.612241177032 57.8976338212 0.64327740119 98.6451136406 0.616040774603 58.0182446338 0.612241177032 57.8976338212 0.495623647592 -125.181996845 0.00345667543747 -90.4012149762 0.639715897667 -81.256209937 0.64327740119 98.6451136406 0.00345667543748 -90.4012149763 0.420649261816 129.273641691
10.15 0.0422883624629 26.4301483984 0.456950770153 62.0119979343 0.617255049501 53.5520902169 0.639064858528 -83.9247301508 0.456950770153 62.0119979343 0.043388309964 27.6755923459 0.61340911544 53.4326551986 0.642683986381 95.9736386678 0.617255049501 53.5520902169 0.61340911544 53.4326551986 0.492659642238 -132.17215174 0.00348274119727 -94.7014610577 0.639064858528 -83.9247301508 0.642683986381 95.9736386678 0.00348274119728 -94.7014610578 0.422541437443 126.707859177
10.175 0.0383561744661 26.2810637434 0.456648908678 59.7227099527 0.618412891876 49.0748167151 0.638409017752 -86.5898314881 0.456648908678 59.7227099527 0.039519839988 27.5186616731 0.614520788701 48.956594506 0.642085786358 93.3054201691 0.618412891876 49.0748167151 0.614520788701 48.956594506 0.489813755101 -139.222473548 0.00350957857116 -99.0084998494 0.638409017752 -86.5898314881 0.642085786358 93.3054201691 0.00350957857116 -99.0084998494 0.424437802958 124.143742218
10.2 0.0344831533446 26.8874722862 0.456399828401 57.4517007602 0.619505542219 44.5859905413 0.637748376822 -89.2515807645 0.456399828401 57.4517007602 0.0357172562817 28.0785787894 0.615567516675 44.4690173378 0.641482740695 90.6403849271 0.619505542219 44.5859905413 0.615567516675 44.4690173378 0.487110959975 -146.334753031 0.0035371668632 -103.323346509 0.637748376822 -89.2515807645 0.641482740695 90.6403849271 0.00353716686321 -103.323346509 0.426338348732 121.581257491
10.225 0.0307330449849 28.5296461852 0.456213923503 55.1991453466 0.620523700068 40.0852150276 0.637082940907 -91.9100442147 0.456213923503 55.1991453466 0.0320420138414 29.6036524626 0.616540083601 39.9695261409 0.640874785378 87.9784602685 0.620523700068 40.0852150276 0.616540083601 39.9695261409 0.484578153735 -153.5104422 0.00356547988064 -107.646990034 0.637082940907 -91.9100442147 0.640874785378 87.9784602685 0.00356547988065 -107.646990034 0.428243064458 119.020372051
10.25 0.0272049587495 31.5944641742 0.456102253471 52.9651116352 0.621457541193 35.572134928 0.636412719148 -94.5652875616 0.456102253471 52.9651116352 0.0285871758777 32.4265356824 0.617428755291 35.4577647182 0.640261852599 85.3195740485 0.621457541193 35.572134928 0.617428755291 35.4577647182 0.482244063008 -160.750589381 0.00359448568736 -111.9803864 0.636412719148 -94.5652875616 0.640261852599 85.3195740485 0.00359448568737 -111.9803864 0.43015193907 116.461053326
10.275 0.024052733484 36.5733880465 0.456076502543 50.7495451585 0.622296741996 31.0464410502 0.635737724915 -97.2173760898 0.456076502543 50.7495451585 0.0254929391962 36.9561749326 0.618223303474 30.9334228624 0.639643870575 82.6636546393 0.622296741996 31.0464410502 0.618223303474 30.9334228624 0.480139096888 -168.055771407 0.00362414638643 -116.324451484 0.635737724915 -97.2173760898 0.639643870575 82.6636546393 0.00362414638643 -116.324451484 0.432064960666 113.903269118
10.3 0.021506010958 43.9512666794 0.456148923215 48.5522536028 0.623030511854 26.5078749788 0.635057976058 -99.8663747243 0.456148923215 48.5522536028 0.0229624843035 43.5859328694 0.618913038019 26.3962410798 0.639020763374 80.0106309228 0.623030511854 26.5078749788 0.618913038019 26.3962410798 0.478295138614 -175.426024813 0.00365441793884 -120.680053849 0.635057976058 -99.8663747243 0.639020763374 80.0106309228 0.00365441793884 -120.680053849 0.433982116431 111.346987601
10.325 0.0198686702906 53.8406588842 0.456332262263 46.3728916334 0.623647634076 21.9562338408 0.634373495117 -102.512348114 0.456332262263 46.3728916334 0.0212600884478 52.4219808789 0.619486847702 21.8460153581 0.638392450784 77.3604322878 0.623647634076 21.9562338408 0.619486847702 21.8460153581 0.476745270187 177.139221541 0.00368525002637 -125.048007447 0.634373495117 -102.512348114 0.638392450784 77.3604322878 0.00368525002636 -125.048007447 0.435903392552 108.79217732
10.35 0.0194427157618 65.4067169515 0.456639668031 44.2109464894 0.624136516104 17.3913750603 0.633684309493 -105.155360723 0.456639668031 44.2109464894 0.020655050326 62.859410783 0.619933250132 17.2826019223 0.63775884822 74.7129886308 0.624136516104 17.3913750603 0.619933250132 17.2826019223 0.475523425617 169.641209406 0.00371658596638 -129.429064322 0.633684309493 -105.155360723 0.63775884822 74.7129886308 0.00371658596638 -129.429064322 0.437828774131 106.23880719
10.375 0.020370327231 76.8234742817 0.457084578098 42.0657249137 0.624485249441 12.8132210361 0.632990451575 -107.795476923 0.457084578098 42.0657249137 0.0213013364048 73.4758591723 0.62024045132 12.705921915 0.637119866677 72.0682303607 0.624485249441 12.8132210361 0.62024045132 12.705921915 0.474663971052 162.081906126 0.0037483626871 -133.823907407 0.632990451575 -107.795476923 0.637119866677 72.0682303607 0.0037483626871 -133.823907407 0.439758245095 103.686846494
10.4 0.022542366518 86.3493500404 0.45768058698 39.9363420464 0.624681679675 8.22176367141 0.632291958802 -110.432761093 0.45768058698 39.9363420464 0.0231477281873 82.7294003655 0.620396415246 8.11596592708 0.636475412746 69.4260884077 0.624681679675 8.22176367141 0.620396415246 8.11596592708 0.474201213301 154.464047814 0.00378051077127 -138.233143498 0.632291958802 -110.432761093 0.636475412746 69.4260884077 0.00378051077126 -138.233143498 0.441691788102 101.13626489
10.425 0.025693067355 93.2931586512 0.458441294137 37.8217129498 0.624713486767 3.61706867245 0.631588873662 -113.067277728 0.458441294137 37.8217129498 0.0259848661892 89.798855279 0.62038894359 3.51279829949 0.635825388702 66.7864942343 0.624713486767 3.61706867245 0.62038894359 3.51279829949 0.474168842323 146.791166722 0.00381295457615 -142.657296516 0.631588873662 -113.067277728 0.635825388702 66.7864942343 0.00381295457615 -142.657296516 0.443629384437 98.5870324045
10.45 0.0295502653677 97.8456050541 0.459380133354 35.7205474513 0.624568275551 -1.00072047055 0.630881243604 -115.699091543 0.459380133354 35.7205474513 0.0295662347644 94.6570702238 0.62020576558 -1.1034388936 0.635169692668 64.1493798496 0.624568275551 -1.00072047055 0.62020576558 -1.1034388936 0.474599317792 139.067598991 0.00384561243716 -147.096801173 0.630881243604 -115.699091543 0.635169692668 64.1493798496 0.00384561243716 -147.096801173 0.445571013909 96.0391194397
10.475 0.033905236225 100.506354718 0.460510185414 33.6313489642 0.624233676146 -5.63137891471 0.630169120877 -118.328267584 0.460510185414 33.6313489642 0.0336854618423 97.6617506217 0.619834637637 -5.73252227358 0.634508218875 61.5146778239 0.624233676146 -5.63137891471 0.619834637637 -5.73252227358 0.475523214627 131.298469539 0.00387839696121 -151.551997141 0.630169120877 -118.328267584 0.634508218875 61.5146778239 0.0038783969612 -151.551997141 0.447516654735 93.4924967732
10.5 0.0386147428846 101.756990376 0.461843976903 31.5524178865 0.62369745367 -10.2745974066 0.629452562257 -120.954871349 0.461843976903 31.5524178865 0.0381927144577 99.2323241559 0.619263452229 -10.3741440965 0.633840858022 58.8823213048 0.62369745367 -10.2745974066 0.619263452229 -10.3741440965 0.476968547037 123.489651781 0.00391121541484 -156.023123852 0.629452562257 -120.954871349 0.633840858022 58.8823213048 0.00391121541483 -156.023123852 0.449466283419 90.9471355619
10.525 0.0435829276153 101.970871757 0.463393268969 29.4818600655 0.622947626335 -14.9299798352 0.628731628697 -123.578968894 0.463393268969 29.4818600655 0.0429842736325 99.7232884787 0.618480354996 -15.0279098033 0.633167497746 56.2522440307 0.622947626335 -14.9299798352 0.618480354996 -15.0279098033 0.478960094577 115.647701225 0.00394397021039 -160.510316046 0.628731628697 -123.578968894 0.633167497746 56.2522440307 0.00394397021039 -160.510316046 0.451419874623 88.4030073454
10.55 0.0487445012853 101.41744168 0.465168840752 27.4176006564 0.621972590655 -19.5970414962 0.628006384855 -126.200626958 0.465168840752 27.4176006564 0.0479882381337 99.4032059625 0.617473868911 -19.6933362801 0.632488023207 53.6243803424 0.621972590655 -19.5970414962 0.617473868911 -19.6933362801 0.481518756547 107.779763649 0.0039765594913 -165.013600178 0.628006384855 -126.200626958 0.632488023207 53.6243803424 0.00397655949129 -165.013600178 0.45337740103 85.8600840507
10.575 0.0540532436318 100.287559179 0.467180273046 25.3574035034 0.620761252147 -24.2752081623 0.62727689853 -128.819913067 0.467180273046 25.3574035034 0.0531534042594 98.4680551452 0.616233023834 -24.3698509259 0.631802317788 50.9986651895 0.620761252147 -24.2752081623 0.616233023834 -24.3698509259 0.484660962265 99.893460303 0.00400887781529 -169.532891797 0.62727689853 -128.819913067 0.631802317788 50.9986651895 0.00400887781529 -169.532891797 0.455338833192 83.318337997
10.6 0.059474812242 98.7169038317 0.469435738391 23.29889593 0.619303159574 -28.9638160498 0.626543239997 -131.436895652 0.469435738391 23.29889593 0.0584418291865 97.0598312201 0.614747489553 -29.0567916149 0.631110263919 48.3750341302 0.619303159574 -28.9638160498 0.614747489553 -29.0567916149 0.48839816405 91.9967544088 0.00404081693175 -174.067993992 0.626543239997 -131.436895652 0.631110263919 48.3750341302 0.00404081693175 -174.067993992 0.457304139369 80.7777419021
10.625 0.0649823480716 96.8032065221 0.471941804208 21.2395985637 0.617588640426 -33.6621127598 0.625805481243 -134.051644152 0.471941804208 21.2395985637 0.0638240980361 95.2820989109 0.613007710005 -33.7534076336 0.630411744006 45.7534233217 0.617588640426 -33.6621127598 0.613007710005 -33.7534076336 0.492736436951 84.0978046781 0.00407226664609 -178.618596995 0.625805481243 -134.051644152 0.630411744006 45.7534233216 0.00407226664609 -178.618596995 0.459273285359 78.2382688896
10.65 0.0705537845575 94.6180777341 0.47470325574 19.1769595518 0.615608935096 -38.3692592567 0.625063695118 -136.664229116 0.47470325574 19.1769595518 0.0692763469488 93.2113739589 0.611005036163 -38.4588616553 0.629706641473 43.1337694997 0.615608935096 -38.3692592567 0.611005036163 -38.4588616553 0.497676204619 76.2048126764 0.00410311576158 176.815720989 0.625063695118 -136.664229116 0.629706641473 43.1337694997 0.00410311576158 176.815720989 0.461246234311 75.6998924964
10.675 0.0761701830888 92.2149654032 0.477722945323 17.1083922702 0.613356326938 -43.084332931 0.624317954415 -139.27472229 0.477722945323 17.1083922702 0.0747783854567 90.9050775497 0.60873185479 -43.1722327987 0.628994841883 40.5160099454 0.613356326938 -43.084332931 0.60873185479 -43.1722327987 0.503212104448 68.3258713183 0.00413325308554 172.235491687 0.624317954415 -139.27472229 0.628994841883 40.5160099454 0.00413325308554 172.235491687 0.463222946519 73.1625866826
10.7 0.0818146931226 89.634509506 0.481001673955 15.0313154031 0.610824265274 -47.8063317716 0.623568330888 -141.883196708 0.481001673955 15.0313154031 0.0803125044432 88.4070225529 0.60618171017 -47.8925207944 0.62827623414 37.9000824362 0.610824265274 -47.8063317716 0.60618171017 -47.8925207944 0.509332997926 60.4688216072 0.00416256848421 167.641353357 0.623568330888 -141.883196708 0.62827623414 37.9000824362 0.00416256848421 167.641353357 0.46520337921 70.6263258409
10.725 0.0874718997834 86.9081777533 0.484538110231 12.9431941092 0.608007478344 -52.5341796471 0.622814894242 -144.48972676 0.484538110231 12.9431941092 0.0858627162451 85.751202189 0.603349415817 -52.6186512618 0.627550711734 35.2859251803 0.608007478344 -52.5341796471 0.603349415817 -52.6186512618 0.516022124621 52.6411239249 0.00419095396795 163.034046101 0.622814894242 -144.48972676 0.627550711734 35.2859251803 0.00419095396795 163.034046101 0.467187486305 68.0910848093
10.75 0.093127417212 84.0607662038 0.488328750491 10.8415808897 0.604902073249 -57.2667326707 0.622057711094 -147.094388254 0.488328750491 10.8415808897 0.0914142717323 82.9644273922 0.60023115325 -57.349482069 0.626818174015 32.6734767344 0.604902073249 -57.2667326707 0.60023115325 -57.349482069 0.523257391133 44.8497488616 0.00421830478619 158.414405917 0.622057711094 -147.094388254 0.626818174015 32.6734767344 0.00421830478619 158.414405917 0.469175218164 65.5568388837
10.775 0.0987676412112 81.1121438614 0.492367922533 8.72415475839 0.601505620083 -62.0027865975 0.621296843962 -149.69725847 0.492367922533 8.72415475839 0.096953358179 80.0681830839 0.596824555061 -62.083810723 0.626078527455 30.062675901 0.601505620083 -62.0027865975 0.596824555061 -62.083810723 0.531011780219 37.1010909225 0.00424452051027 153.783357543 0.621296843962 -149.69725847 0.626078527455 30.062675901 0.00424452051026 153.783357543 0.471166521314 63.0235638326
10.8 0.104379607101 78.0784874073 0.496647833677 6.58875737834 0.597817217729 -66.7410851707 0.620532350282 -152.298416194 0.496647833677 6.58875737834 0.102466917128 77.0799506622 0.593128769772 -66.8203827111 0.625331686892 27.4534616091 0.597817217729 -66.7410851707 0.593128769772 -66.8203827111 0.539253860675 29.4009066788 0.004269506081 149.141906207 0.620532350282 -152.298416194 0.625331686892 27.4534616091 0.004269506081 149.141906207 0.473161338145 60.491235914
10.825 0.109950917968 74.9731671992 0.501158662196 4.43342497626 0.593837539185 -71.4803293122 0.619764281496 -154.897941751 0.501158662196 4.43342497626 0.107942542879 74.0141618255 0.589144506371 -71.5579006843 0.624577576708 24.8457727748 0.593837539185 -71.4803293122 0.589144506371 -71.5579006843 0.547948375523 21.7542772342 0.00429317279828 144.491128374 0.619764281496 -154.897941751 0.624577576708 24.8457727748 0.00429317279828 144.491128374 0.475159606592 57.9598318933
10.85 0.115469720191 71.8073912724 0.505888689558 2.2564150548 0.589568854758 -76.2191870237 0.618992682247 -157.495917018 0.505888689558 2.2564150548 0.113368435425 70.8828946894 0.584874056891 -76.2950343515 0.623816131928 22.239548145 0.589568854758 -76.2191870237 0.584874056891 -76.2950343515 0.557056884741 14.1655934279 0.00431543923035 139.832161664 0.618992682247 -157.495917018 0.623816131928 22.239548145 0.00431543923034 139.832161664 0.477161259784 55.4293290645
10.875 0.120924710387 68.5906790163 0.510824469376 0.0562271842612 0.585015032031 -80.9563038457 0.61821758969 -160.092425433 0.510824469376 0.0562271842599 0.118733389889 67.696387504 0.580321295957 -81.0304309312 0.623047299225 19.6347261252 0.585015032031 -80.9563038457 0.580321295957 -81.0304309312 0.566538438986 6.63856109565 0.0043362320224 135.166194084 0.61821758969 -160.092425433 0.623047299225 19.6347261252 0.0043362320224 135.166194084 0.479166225665 52.8997052726
10.9 0.126305162533 65.3312133467 0.51595102768 -2.16838255694 0.580181512165 -85.6903137033 0.617439032968 -162.687551997 0.51595102768 -2.16838255694 0.124026809835 64.46342169 0.575491656858 -85.7627259895 0.622271037807 17.0312445908 0.580181512165 -85.6903137033 0.575491656858 -85.7627259895 0.576350262176 -0.823776994942 0.00435548658633 130.494452779 0.617439032968 -162.687551997 0.622271037807 17.0312445908 0.00435548658633 130.494452779 0.481174426586 50.3709389395
10.925 0.131600967079 62.0361051164 0.521252088202 -4.41839362821 0.575075262711 -90.4198499568 0.616657032864 -165.28138327 0.521252088202 -4.41839362821 0.129238735288 61.1916101534 0.570392084361 -90.4905544821 0.621487320176 14.4290406865 0.575075262711 -90.4198499568 0.570392084361 -90.4905544821 0.586448423159 -8.21900623971 0.00437314765684 125.81819248 0.616657032864 -165.28138327 0.621487320176 14.4290406865 0.00437314765684 125.81819248 0.483185778862 47.843009092
10.95 0.136802675911 58.7115934093 0.526710315639 -6.69451941436 0.569704707824 -95.1435564673 0.615871601654 -167.874007366 0.526710315639 -6.69451941436 0.134359878677 57.8876162088 0.565030965117 -95.2125618106 0.620696132772 11.8280506121 0.569704707824 -95.1435564673 0.565030965117 -95.2125618106 0.596788479582 -15.5452960139 0.00438916970261 121.138683871 0.615871601654 -167.874007366 0.620696132772 11.8280506121 0.00438916970261 121.138683871 0.485200192289 45.3158953933
10.975 0.141901548525 55.3631985248 0.53230756966 -8.99721156124 0.564079637377 -99.8600984872 0.615082743181 -170.465513951 0.53230756966 -8.99721156125 0.139381663592 54.5573211744 0.559418037185 -99.9274147036 0.619897476475 9.22820939903 0.564079637377 -99.8600984872 0.559418037185 -99.9274147036 0.607326080254 -22.8013496326 0.00440351718566 116.457202055 0.615082743181 -170.465513951 0.619897476475 9.22820939903 0.00440351718567 116.457202055 0.487217569627 42.789578178
11 0.146889595866 51.9958397467 0.538025162392 -11.3266696624 0.558211097057 -104.568173193 0.614290453152 -173.055994247 0.538025162392 -11.3266696624 0.144296262508 51.2059536776 0.553564280738 -104.633811739 0.619091367001 6.62945067607 0.558211097057 -104.568173193 0.553564280738 -104.633811739 0.618017515464 -29.9863514382 0.00441616466613 111.775015329 0.614290453152 -173.055994247 0.619091367001 6.62945067606 0.00441616466615 111.775015329 0.489237806037 40.2640384906
11.025 0.15175961918 48.6139267114 0.543844112546 -13.6828555485 0.552111262036 -109.266519687 0.613494719666 -175.645541048 0.543844112546 -13.6828555485 0.149096630585 47.8381901963 0.547481792518 -109.330493333 0.618277835173 4.03170642654 0.552111262036 -109.266519687 0.547481792518 -109.330493333 0.628820207709 -37.0999134657 0.00442709675409 107.093374438 0.613494719666 -175.645541048 0.618277835173 4.03170642654 0.0044270967541 107.093374438 0.491260788465 37.7392581279
11.05 0.156505241932 45.2214308688 0.549745389924 -16.0655113362 0.545793297192 -113.95392831 0.612695523967 -178.234248747 0.549745389924 -16.0655113362 0.153776533433 44.458233861 0.541183647003 -114.016251044 0.617456927093 1.43490673662 0.545793297192 -113.95392831 0.541183647003 -114.016251044 0.639693138055 -44.1420235815 0.00443630791417 102.413502482 0.612695523967 -178.234248747 0.617456927093 1.43490673661 0.00443630791418 102.413502482 0.493286394984 35.2152196866
11.075 0.161120933479 41.8219418682 0.555710144901 -18.4741803489 0.53927120713 -118.629249135 0.611892841414 179.177786615 0.555710144901 -18.474180349 0.158330567419 41.0698767559 0.534683747523 -118.689936049 0.616628704217 -1.16102046559 0.53927120713 -118.629249135 0.534683747523 -118.689936049 0.650597205686 -51.1129964568 0.00444380213261 97.7365855971 0.611892841414 179.177786615 0.616628704217 -1.1610204656 0.00444380213262 97.7365855969 0.495314494068 32.6919066147
11.1 0.165602023693 38.4187124953 0.561719918403 -20.9082300299 0.532559679402 -123.291399524 0.61108664264 176.59046727 0.561719918403 -20.9082300299 0.162754171615 37.676549653 0.527996670672 -123.350466688 0.615793243337 -3.75614968053 0.532559679402 -123.291399524 0.527996670672 -123.350466688 0.661495520286 -58.0134282657 0.00444959245925 93.0637645419 0.61108664264 176.59046727 0.615793243337 -3.75614968053 0.00444959245926 93.0637645417 0.497344943811 30.1693032692
11.125 0.169944708218 35.0146948997 0.56775682898 -23.366876009 0.52567392435 -127.939370669 0.610276894876 174.003693625 0.56775682898 -23.3668760091 0.167043630978 34.2813621536 0.521137507436 -127.996834988 0.614950636482 -6.3505581185 0.52567392435 -127.939370669 0.521137507436 -127.996834988 0.672353628515 -64.8441555984 0.00445370043996 88.3961272714 0.610276894876 174.003693625 0.614950636482 -6.35055811851 0.00445370043996 88.3961272712 0.499377591072 27.6473949786
11.15 0.174146044413 31.6125701929 0.573803734572 -25.8492065643 0.518629514891 -132.572233056 0.609463563415 171.417364122 0.573803734572 -25.8492065643 0.171196070776 30.8871354997 0.514121704314 -132.628112116 0.614100990734 -8.94432599295 0.518629514891 -132.572233056 0.514121704314 -132.628112116 0.68313967721 -71.6062187631 0.00445615545635 83.734702549 0.609463563415 171.417364122 0.614100990734 -8.94432599295 0.00445615545635 83.7347025487 0.501412270538 25.1261681121
11.175 0.178203938383 28.2147730005 0.579844367612 -28.3542068106 0.511442229352 -137.189140825 0.608646613149 168.831375066 0.579844367611 -28.3542068106 0.175209442579 27.4964297795 0.506964907522 -137.243452711 0.613244427957 -11.5375368272 0.511442229352 -137.189140825 0.506964907522 -137.243452711 0.693824516964 -78.3008294135 0.00445699399129 79.0804546355 0.608646613149 168.831375066 0.613244427957 -11.5375368272 0.00445699399128 79.0804546353 0.50344880371 22.6056101553
11.2 0.182117123752 24.8235121757 0.585863443019 -30.8807820599 0.504127900193 -141.789335025 0.607826010158 166.24562041 0.585863443019 -30.8807820599 0.17908250243 24.1115668441 0.499682813077 -141.842098128 0.612381084424 -14.1302777761 0.504127900193 -141.789335025 0.499682813077 -141.842098128 0.704381750495 -84.9293422704 0.00445625883848 74.4342790569 0.607826010158 166.24562041 0.612381084424 -14.1302777761 0.00445625883846 74.4342790569 0.505486997781 20.0857097925
11.225 0.18588513305 21.4407885907 0.591846739477 -33.4277799083 0.496702271049 -146.372145772 0.607001723278 163.659991494 0.591846739477 -33.4277799083 0.182814782012 20.7346499391 0.492291025186 -146.423378572 0.611511110351 -16.7226399644 0.496702271049 -146.372145772 0.492291025186 -146.423378572 0.714787730751 -91.4932305972 0.00445399827462 69.796999431 0.607001723278 163.659991494 0.611511110351 -16.7226399644 0.0044539982746 69.7969994312 0.50752664441 17.5664569968
11.25 0.189508262722 18.0684107038 0.597781155049 -35.9940107133 0.489180864158 -150.936993372 0.606173725598 161.074376742 0.597781155049 -35.9940107133 0.186406553763 17.3675808143 0.484804924961 -150.986714196 0.610634669295 -19.3147188429 0.489180864157 -150.936993372 0.484804924961 -150.986714196 0.725021514013 -97.9940650313 0.00445026521155 65.1693653151 0.606173725598 161.074376742 0.610634669295 -19.3147188429 0.00445026521151 65.1693653156 0.509567518369 15.0478431279
11.275 0.192987532868 14.7080084226 0.603654738786 -38.5782662299 0.481578859754 -155.483388455 0.605341995824 158.488661308 0.603654738786 -38.5782662299 0.18985879101 14.0120748895 0.477239551058 -155.531615213 0.609751937413 -21.906614564 0.481578859754 -155.483388455 0.477239551058 -155.531615213 0.735064773403 -104.433495347 0.00444511634425 60.5520510172 0.605341995824 158.488661308 0.609751937413 -21.9066145639 0.00444511634421 60.552051018 0.511609376047 12.5298610372
11.3 0.196324642841 11.3610456554 0.609456700359 -41.1793362658 0.473910988612 -160.010931195 0.60450651944 155.902726673 0.609456700359 -41.1793362658 0.193173124201 10.6696749083 0.469609493362 -160.057681088 0.608863102563 -24.4984323771 0.473910988612 -160.010931195 0.469609493362 -160.057681088 0.744901678205 -110.81323473 0.00443861130937 55.9456553025 0.60450651944 155.902726673 0.608863102563 -24.4984323771 0.00443861130932 55.9456553037 0.513651953802 10.0125051819
11.325 0.199521923855 8.02883183619 0.615177400056 -43.7960232929 0.466191438455 -164.519309711 0.603667289614 153.316450195 0.615177400057 -43.7960232928 0.196351794336 7.34176340182 0.461928800463 -164.564598915 0.607968363207 -27.0902830462 0.466191438455 -164.519309711 0.461928800463 -164.564598915 0.754518744284 -117.135046161 0.00443081186645 51.3507019172 0.603667289614 153.316450195 0.607968363207 -27.0902830462 0.00443081186641 51.3507019188 0.515694966114 7.4957717465
11.35 0.202582289689 4.71253263205 0.620808321633 -46.427155023 0.458433774568 -169.008297741 0.602824307767 150.729704607 0.620808321634 -46.427155023 0.199397604651 4.02957419718 0.454210901233 -169.052141054 0.607067927101 -29.6822832884 0.458433774568 -169.008297741 0.454210901233 -169.052141054 0.76390466068 -123.400730545 0.00442178111234 46.7676408443 0.602824307767 150.729704607 0.607067927102 -29.6822832884 0.00442178111229 46.7676408463 0.517738103544 4.97965877221
11.375 0.20550918651 1.41317997834 0.62634203057 -49.0715950048 0.450650874579 -173.477751671 0.601977583757 148.142357469 0.62634203057 -49.0715950048 0.202313871538 0.734203141142 0.446468540468 -173.520162133 0.606162009743 -32.2745562343 0.450650874579 -173.477751671 0.446468540468 -173.520162133 0.773050097165 -129.612116242 0.00441158273694 42.1968502079 0.601977583758 148.142357469 0.606162009744 -32.2745562342 0.00441158273691 42.1968502102 0.519781030442 2.46416629301
11.4 0.208306542753 -1.86831845514 0.631772120254 -51.7282513404 0.442854877071 -177.927607046 0.601127135604 145.55427057 0.631772120254 -51.7282513404 0.205104375593 -2.54338184251 0.438713728257 -177.96859552 0.605250832539 -34.8672319113 0.442854877071 -177.927607046 0.438713728257 -177.96859552 0.781947497206 -135.771049718 0.0044002803267 37.6386387404 0.601127135604 145.55427057 0.605250832539 -34.8672319112 0.00440028032668 37.6386387429 0.521823382381 -0.0507035222
11.425 0.210978719874 -5.13117030026 0.637093148509 -54.3960836502 0.435057143415 177.642125373 0.600272988693 142.965299293 0.63709314851 -54.3960836502 0.20777331359 -5.8023312781 0.430957702464 177.602550652 0.604334620671 -37.4604477483 0.435057143414 177.642125373 0.430957702465 177.602550652 0.790590860445 -141.879387052 0.0043879367199 33.0932487319 0.600272988693 142.965299293 0.604334620671 -37.4604477483 0.0043879367199 33.0932487344 0.523864763276 -2.56494622359
11.45 0.21353046468 -8.37468998532 0.64230056672 -57.0741084308 0.427268232011 173.231363884 0.599415174416 140.375291928 0.64230056672 -57.0741084308 0.210325252054 -9.04190519057 0.423210903527 173.193197803 0.603413600624 -40.0543491016 0.427268232011 173.231363884 0.423210903527 173.193197803 0.798975518409 -147.938986077 0.00437461341672 28.5608593863 0.599415174416 140.375291928 0.603413600625 -40.0543491016 0.00437461341673 28.5608593884 0.525904742145 -5.0785549332
11.475 0.215966863842 -11.5982906621 0.64739064362 -59.7614029633 0.41949788398 168.839960387 0.598553728169 137.784088957 0.64739064362 -59.7614029633 0.212765083007 -12.2614646486 0.415482960598 168.803201487 0.602487997353 -42.6490898017 0.419497883979 168.839960387 0.415482960598 168.803201487 0.807097906824 -153.951698981 0.00436037004499 24.041590516 0.598553728169 137.784088957 0.602487997353 -42.6490898017 0.00436037004499 24.0415905173 0.527942849446 -7.59152020006
11.5 0.218293301048 -14.8014765504 0.652360385586 -62.4571079314 0.411755019222 164.467705099 0.597688686676 135.191522299 0.652360385586 -62.4571079314 0.215097982321 -15.4604637755 0.407782687976 164.432356155 0.601558031038 -45.2448327193 0.411755019222 164.467705099 0.407782687976 164.432356155 0.814955337558 -159.919365182 0.00434526388171 19.5355065158 0.597688686676 135.191522299 0.601558031038 -45.2448327193 0.00434526388171 19.5355065158 0.529978572958 -10.1038298629
