! Generated from PyAEDT SolutionData; AEDT ExportNetworkData workaround
# GHz S MA R 50
9 0.325055720372 -8.48410139763 0.302583536181 -88.0246498676 0.619515874774 -23.9620404927 0.647288238104 45.7325213315 0.302583536181 -88.0246498676 0.325419752333 -8.27529823048 0.619262032266 -23.9658033318 0.647348224542 -134.247292769 0.619515874774 -23.9620404927 0.619262032266 -23.9658033318 0.482404764124 178.55096499 0.000509751792551 -37.2908594644 0.647288238104 45.7325213315 0.647348224542 -134.247292769 0.000509751792551 -37.2908594647 0.402439999438 -127.834770867
9.025 0.323423934041 -11.4808779369 0.302370753981 -91.5758830862 0.620828736446 -28.4994902084 0.646945440626 42.8555617689 0.302370753984 -91.5758830865 0.323781982471 -11.2701180205 0.62057535718 -28.5034385791 0.647009888896 -137.124974694 0.620828736449 -28.4994902088 0.620575357177 -28.5034385787 0.479022970442 172.8423978 0.000512952579257 -42.2895791881 0.646945440694 42.8555617947 0.647009888907 -137.124974697 0.000512952588218 -42.2895796815 0.403532963297 -130.485976418
9.05 0.321848957875 -14.4661642359 0.30218871652 -95.1078630406 0.622093456246 -33.0236887221 0.64660007337 39.9865533399 0.302188716526 -95.107863041 0.322200985947 -14.2534778012 0.621840611447 -33.0278222174 0.646668635636 -139.994757181 0.622093456251 -33.0236887227 0.621840611442 -33.0278222168 0.475733012448 167.143679214 0.00051616805024 -47.2736005776 0.646600073467 39.9865533792 0.646668635653 -139.994757184 0.000516168064705 -47.2736013659 0.404631584148 -133.132161028
9.075 0.320327873557 -17.4405317563 0.302038204373 -98.6211189049 0.623311727653 -37.5346859617 0.646252069955 37.1253383321 0.302038204381 -98.6211189054 0.320673834862 -17.2259480842 0.62305948792 -37.5390042686 0.646324478768 -142.856783404 0.623311727658 -37.5346859624 0.623059487914 -37.5390042678 0.472533924078 161.455956075 0.000519397635594 -52.2429032413 0.646252070058 37.1253383764 0.646324478788 -142.856783408 0.000519397652868 -52.2429041736 0.405735752893 -135.773422089
9.1 0.318857741711 -20.4045099762 0.301919796125 -102.116196161 0.624485314426 -42.0325592711 0.645901382883 34.2717652275 0.301919796132 -102.116196161 0.319197581458 -20.1880573943 0.624233749838 -42.0370621825 0.645977431677 -145.711193695 0.624485314432 -42.0325592719 0.624233749831 -42.0370621818 0.469424232459 155.780230698 0.000522641042972 -57.1975056436 0.645901382978 34.2717652711 0.645977431697 -145.711193699 0.00052264106102 -57.1975066084 0.406845365863 -138.409855155
9.125 0.317435615498 -23.3585869131 0.301833881195 -105.593652318 0.625616036149 -46.5174102678 0.645547979219 31.4256880894 0.301833881202 -105.593652319 0.317769271638 -23.1402927985 0.625365216348 -46.5220976945 0.645627507004 -148.558125553 0.625616036154 -46.5174102686 0.625365216342 -46.5220976938 0.466402010319 150.117369498 0.000525898231578 -62.1374599787 0.6455479793 31.425688129 0.645627507023 -148.558125557 0.000525898248923 -62.1374608976 0.407960324558 -141.041553966
9.15 0.316058552839 -26.303209711 0.301780672313 -109.054053017 0.626705754979 -50.9893619378 0.645191837125 28.5869660291 0.301780672319 -109.054053017 0.316385957139 -26.0831004988 0.62645574926 -50.9942339192 0.645274716555 -151.397713671 0.626705754983 -50.9893619385 0.626455749254 -50.9942339185 0.463464927349 144.468112034 0.000529169386467 -67.0628474651 0.645191837189 28.5869660628 0.645274716571 -151.397713674 0.000529169402102 -67.0628482861 0.409080535405 -143.668610473
9.175 0.31472362748 -29.2387852812 0.301760217538 -112.497968497 0.627756363598 -55.4485559707 0.644832943073 25.7554627415 0.301760217544 -112.497968497 0.315044706525 -29.0168864785 0.627507240985 -55.4536126844 0.644919071211 -154.230089967 0.627756363602 -55.4485559713 0.62750724098 -55.4536126838 0.46061029968 138.83308028 0.00053245489355 -71.9737740589 0.644832943122 25.7554627687 0.644919071225 -154.23008997 0.000532454906851 -71.9737747513 0.41020590952 -146.291114877
9.2 0.313427939031 -32.1656809924 0.301772411748 -115.92597041 0.628769774317 -59.8951503321 0.644471289646 22.9310461027 0.301772411752 -115.92597041 0.31374261519 -31.9420171952 0.628521603632 -59.9003921033 0.644560580876 -157.055383621 0.62876977432 -59.8951503325 0.628521603629 -59.9003921028 0.457835136866 133.212787893 0.00053575531559 -76.8703665807 0.64447128968 22.9310461232 0.644560580886 -157.055383623 0.000535755326242 -76.8703671307 0.411336362491 -148.909155659
9.225 0.312168622147 -35.0842254013 0.301817007556 -119.338628956 0.629747909287 -64.3293170697 0.644106873786 20.1135878196 0.301817007559 -119.338628956 0.312476814486 -34.8588203154 0.629500759211 -64.3347443794 0.644199254417 -159.873721118 0.629747909289 -64.32931707 0.629500759208 -64.3347443791 0.455136185913 127.607649341 0.000539071369456 -81.7527692443 0.644106873808 20.1135878342 0.644199254424 -159.87372112 0.000539071377387 -81.7527696505 0.412471814167 -151.522819617
9.25 0.310942854962 -37.9947090217 0.301893625624 -122.736510326 0.630692691743 -68.7512403458 0.643739695431 17.3029631284 0.301893625626 -122.736510326 0.311244480119 -37.7675854865 0.630446630869 -68.7568538385 0.643835099636 -162.685226295 0.630692691744 -68.751240346 0.630446630867 -68.7568538383 0.452509972088 122.017988716 0.000542403904821 -86.6211405714 0.643739695444 17.3029631377 0.643835099641 -162.685226296 0.000542403910138 -86.6211408416 0.413612188459 -154.132191906
9.275 0.309747866884 -40.8973851289 0.302001764355 -126.120174425 0.631606038232 -73.1611146869 0.643369756453 14.4990505314 0.302001764356 -126.120174425 0.31004283991 -40.6685651432 0.631361135116 -73.1669151776 0.643468123245 -165.490020392 0.631606038232 -73.1611146871 0.631361135115 -73.1669151775 0.449952836345 116.44404813 0.000545753884445 -91.4756506752 0.64336975646 14.4990505362 0.643468123248 -165.490020392 0.000545753887386 -91.4756508236 0.414757413152 -156.737356078
9.3 0.308580945845 -43.7924705956 0.30214080897 -129.490172858 0.632489851736 -77.5591434399 0.642997059847 11.7017315698 0.30214080897 -129.490172858 0.30886918101 -43.5619753455 0.632246174933 -77.5651319207 0.643098330849 -168.288222103 0.632489851736 -77.5591434399 0.632246174933 -77.5651319207 0.447460969344 110.885995589 0.000549122366142 -96.3164788908 0.642997059849 11.7017315712 0.64309833085 -168.288222104 0.000549122367031 -96.3164789353 0.415907419722 -159.338394123
9.325 0.307439445073 -46.6801467585 0.302310039977 -132.847047153 0.633346015626 -81.9455374225 0.642621609111 8.91089062691 0.302310039976 -132.847047153 0.307720856646 -46.4479966472 0.633103633727 -81.9517150689 0.642725726943 -171.079947639 0.633346015626 -81.9455374225 0.633103633727 -81.9517150689 0.445030442135 105.34393228 0.000552510486485 -101.143811731 0.64262160911 8.91089062573 0.642725726943 -171.079947639 0.000552510485692 -101.143811691 0.417062143168 -161.935386509
9.35 0.306320789453 -49.5605603141 0.302508641059 -136.191327219 0.63417638836 -86.320513756 0.642243407798 6.12641475652 0.302508641058 -136.191327219 0.306595292455 -49.3267749923 0.63393537002 -86.326881932 0.642350314916 -173.865310779 0.63417638836 -86.320513756 0.63393537002 -86.3268819321 0.442657233623 99.8178992163 0.000555919446253 -105.957841142 0.642243407795 6.12641475358 0.642350314914 -173.865310779 0.000555919444169 -105.957841039 0.418221521846 -164.528412228
9.375 0.30522248153 -52.4338242422 0.302735706395 -139.523529989 0.634982798872 -90.6842948649 0.64186245918 3.3481935337 0.302735706394 -139.523529989 0.305489992458 -52.1984226402 0.634743212833 -90.6908551288 0.641972097058 -176.644422935 0.634982798871 -90.6842948648 0.634743212834 -90.6908551289 0.440337255022 94.3078832179 0.000559350497625 -110.758763037 0.641862459176 3.34819352969 0.641972097056 -176.644422934 0.000559350494633 -110.75876289 0.419385497314 -167.117548838
9.4 0.304142107185 -55.3000187556 0.302990247455 -142.844158267 0.635767042557 -95.0371076306 0.641478766023 0.57611892447 0.302990247453 -142.844158266 0.304402544718 -55.0630191166 0.635528957667 -95.0438617399 0.641591074578 -179.417393208 0.635767042556 -95.0371076304 0.635528957668 -95.0438617401 0.43806637151 88.8138222136 0.00056280493305 -115.546776082 0.64147876602 0.576118919952 0.641591074575 -179.417393207 0.000562804929509 -115.546775909 0.420554014181 -169.702872504
9.425 0.303077341023 -58.159192277 0.303271199296 -146.153699727 0.636530877802 -99.3791826854 0.641092330434 -2.18991482875 0.303271199294 -146.153699727 0.303330626702 -57.9206121901 0.636294363032 -99.3861326016 0.64120724762 177.815671545 0.636530877801 -99.3791826852 0.636294363033 -99.3861326018 0.43584042134 83.3356098725 0.000566284075753 -120.322080705 0.641092330431 -2.18991483333 0.641207247617 177.815671546 0.000566284071984 -120.322080522 0.421727019965 -172.284458044
9.45 0.302025951493 -61.0113624387 0.3035774264 -149.452626084 0.637276022996 -103.710753832 0.640703153767 -4.95001130813 0.303577426399 -149.452626084 0.302272010385 -60.7712188736 0.637041147447 -103.717901725 0.640820615293 175.054666654 0.637276022995 -103.710753832 0.637041147448 -103.717901725 0.433655232653 77.8730995834 0.000569789271769 -125.084878311 0.640703153764 -4.95001131244 0.64082061529 175.054666655 0.000569789268047 -125.084878132 0.422904464956 -174.862378969
9.475 0.300985805762 -63.8565171077 0.303907728089 -152.741392384 0.638004153944 -108.032057573 0.640311236575 -7.70427201021 0.303907728088 -152.741392384 0.301224567097 -63.6148264493 0.637770986861 -108.039405826 0.640431175692 172.299489575 0.638004153943 -108.032057573 0.637770986862 -108.039405826 0.431506638262 72.4261078137 0.000573321883421 -129.835370679 0.640311236573 -7.70427201402 0.640431175689 172.299489575 0.000573321879968 -129.835370514 0.424086302082 -177.436707528
9.5 0.29995487435 -66.6946154322 0.304260843544 -156.020436432 0.63871690166 -112.343332745 0.6399165786 -10.4527964262 0.304260843543 -156.020436432 0.30018627214 -66.4513935163 0.638485512432 -112.350883958 0.640038925933 169.550039823 0.638716901659 -112.343332745 0.638485512433 -112.350883958 0.429390488637 66.9944168857 0.000576883284123 -134.573759508 0.639916578598 -10.4527964294 0.640038925931 169.550039823 0.000576883281107 -134.573759364 0.425272486783 179.99248525
9.525 0.298931235536 -69.5255889098 0.304635456481 -159.290178328 0.639415850456 -116.64482023 0.639519178781 -13.1956821147 0.30463545648 -159.290178328 0.299155209175 -69.2808510584 0.639186308625 -116.652577224 0.639643862185 166.806218919 0.639415850456 -116.64482023 0.639186308625 -116.652577225 0.427302663339 61.5777772182 0.000580474854391 -139.300246105 0.63951917878 -13.1956821171 0.639643862183 166.806218919 0.000580474851928 -139.300245988 0.42646297689 177.425129516
9.55 0.297913079546 -72.3493424755 0.305030199506 -162.5510201 0.640102536308 -120.936762748 0.639119035282 -15.9330247672 0.305030199505 -162.5510201 0.298129574388 -72.1031035335 0.639874911565 -120.944728571 0.639245979699 164.067930326 0.640102536307 -120.936762748 0.639874911565 -120.944728571 0.425239081104 56.1759090808 0.000584097978945 -144.015031189 0.639119035282 -15.933024769 0.639245979697 164.067930326 0.000584097977103 -144.015031102 0.427657732501 174.861156561
9.575 0.296898712521 -75.1657556077 0.305443658185 -165.803345429 0.640778445437 -125.219404709 0.638716145533 -18.6649182695 0.305443658184 -165.803345429 0.297107680436 -74.9180299794 0.640552807628 -125.227582639 0.63884527285 161.335079392 0.640778445437 -125.219404709 0.640552807628 -125.227582639 0.423195708793 50.7885039175 0.000587754044774 -148.718314783 0.638716145532 -18.6649182706 0.638845272849 161.335079393 0.000587754043574 -148.718314727 0.428856715876 172.300498775
9.6 0.29588656027 -77.974683452 0.305874374862 -169.047519449 0.641445013093 -129.492992118 0.638310506271 -21.3914547577 0.305874374861 -169.047519449 0.296087960178 -77.7254851388 0.641221432215 -129.501385665 0.638441735172 158.607573292 0.641445013092 -129.492992118 0.641221432215 -129.501385665 0.42116856936 45.4152252901 0.000591444440033 -153.410296201 0.638310506271 -21.3914547582 0.638441735171 158.607573292 0.000591444439458 -153.410296174 0.430059891315 169.743089606
9.625 0.294875171809 -80.7759579605 0.306320852254 -172.28388862 0.642103622477 -133.757772522 0.637902113593 -24.1127246709 0.306320852254 -172.28388862 0.295068970197 -80.5253005981 0.641882168679 -133.766385437 0.63803535939 155.885320969 0.642103622477 -133.757772522 0.641882168679 -133.766385437 0.419153749006 40.0557094971 0.000595170553672 -158.091174083 0.637902113593 -24.1127246709 0.63803535939 155.885320969 0.000595170553673 -158.091174083 0.431267225062 167.188863527
9.65 0.293863222698 -83.5693890449 0.306781556855 -175.512780659 0.642755603813 -138.013994992 0.637490963006 -26.8288168018 0.306781556855 -175.512780659 0.294049394106 -83.3172859428 0.642536347392 -138.022831268 0.637626137466 153.168233084 0.642755603813 -138.013994992 0.642536347392 -138.022831268 0.417147403659 34.7095659188 0.000598933775658 -162.761146493 0.637490963006 -26.8288168014 0.637626137466 153.168233084 0.000598933776162 -162.761146516 0.432478685192 164.637755994
9.675 0.292849518163 -86.3547657445 0.307254922158 -178.734504517 0.643402233507 -142.261910132 0.637077049469 -29.5398183437 0.307254922158 -178.734504517 0.293028045651 -86.1012299251 0.643185244907 -142.270974008 0.637214060628 150.456221959 0.643402233508 -142.261910132 0.643185244907 -142.270974008 0.415145764879 29.3763771373 0.000602735497697 -167.420411048 0.637077049469 -29.539818343 0.637214060629 150.456221959 0.000602735498612 -167.42041109 0.433694241513 162.089703414
9.7 0.291832996024 -89.1318574063 0.307739351745 178.050649588 0.644044733398 -146.501770104 0.636660367447 -32.2458149369 0.307739351745 178.050649588 0.292003871616 -88.8769016455 0.643830083205 -146.511066071 0.636799119415 147.749201526 0.644044733398 -146.501770104 0.643830083204 -146.511066071 0.413145145304 24.0556988766 0.000606577114339 -172.069165081 0.636660367447 -32.245814936 0.636799119415 147.749201525 0.000606577115563 -172.069165136 0.43491386547 159.544643107
9.725 0.290812729427 -91.9004148784 0.308233222241 174.842410112 0.644684270071 -150.733828668 0.636240910947 -34.9468907129 0.308233222241 174.842410112 0.290975954528 -91.644051748 0.644472029011 -150.743361476 0.636381303709 145.047087272 0.644684270072 -150.733828668 0.644472029011 -150.743361476 0.411141943714 18.7470598038 0.000610460024388 -176.707605813 0.636240910946 -34.9468907119 0.63638130371 145.047087272 0.000610460025813 -176.707605877 0.436137530047 157.002513275
9.75 0.289787929396 -94.6601717174 0.308734886165 171.640524093 0.645321954223 -154.958341236 0.635818673556 -37.6431283374 0.308734886165 171.640524093 0.289943515184 -94.4024136279 0.645112193161 -154.968115891 0.635960602777 142.349796199 0.645321954224 -154.958341236 0.64511219316 -154.968115891 0.40913264979 13.4499612276 0.000614385632509 178.664069452 0.635818673555 -37.6431283364 0.635960602778 142.349796199 0.000614385634031 178.664069383 0.437365209672 154.463252967
9.775 0.288757947207 -97.4108454094 0.309242674696 168.444757029 0.645958840063 -159.175564916 0.635393648478 -40.3346090528 0.309242674696 168.444757028 0.288905914994 -97.1517046561 0.645751629993 -159.185586695 0.635537005306 139.657246765 0.645958840063 -159.175564916 0.645751629993 -159.185586694 0.407113848633 8.16387672338 0.00061835535098 174.045663137 0.635393648478 -40.3346090519 0.635537005306 139.657246765 0.0006183553525 174.045663069 0.438596880132 151.926802048
9.8 0.2877222766 -100.152138609 0.309754900359 165.254892745 0.646595924736 -163.385758575 0.634965828563 -43.0214127196 0.30975490036 165.254892745 0.287862658176 -99.8916274193 0.646391336784 -163.396033021 0.635110499439 136.969358846 0.646595924737 -163.385758575 0.646391336784 -163.396033021 0.405082225096 2.88825171308 0.000622370601496 169.436977199 0.634965828563 -43.0214127187 0.63511049944 136.969358845 0.000622370602926 169.436977135 0.439832518477 149.39310117
9.825 0.28668055585 -102.883740399 0.310269859663 162.070733246 0.647234147773 -167.589182882 0.634535206329 -45.7036178568 0.310269859664 162.070733246 0.286813393786 -102.621870982 0.647032253188 -167.599715818 0.634681072814 134.286053685 0.647234147773 -167.589182882 0.647032253187 -167.599715818 0.403034567977 -2.37749698215 0.000626432816989 164.837812939 0.634535206328 -45.7036178561 0.634681072815 134.286053685 0.000626432818255 164.837812882 0.441072102943 146.862091739
9.85 0.285632569695 -105.60532757 0.310785835683 158.892098557 0.647874390536 -171.786100361 0.634101773985 -48.3813016824 0.310785835683 158.892098557 0.285757917631 -105.34211217 0.647675260687 -171.796897888 0.634248712599 131.607253853 0.647874390536 -171.786100361 0.647675260687 -171.796897888 0.400967774127 -7.63398159989 0.000630543443398 160.247970819 0.634101773985 -48.3813016819 0.634248712599 131.607253853 0.000630543444442 160.247970773 0.442315612858 144.333715891
9.875 0.284578251163 -108.316565936 0.311301100618 155.71882657 0.648517475684 -175.976775427 0.633665523452 -51.0545401528 0.311301100618 155.71882657 0.284696174053 -108.05201689 0.648321182053 -175.987843934 0.633813405526 128.932883203 0.648517475684 -175.976775427 0.648321182052 -175.987843934 0.398878852513 -12.8818438953 0.000634703941366 155.667250293 0.633665523451 -51.0545401524 0.633813405526 128.932883203 0.000634703942148 155.667250259 0.443563028568 141.807916461
9.9 0.283517683278 -111.017111682 0.311813918325 152.550772878 0.649164166621 179.838525574 0.63322644637 -53.7234080017 0.311813918325 152.550772878 0.283628257614 -110.751241478 0.648970780798 179.827179407 0.633375137929 126.262866831 0.649164166622 179.838525574 0.648970780798 179.827179407 0.396764928274 -18.1217555952 0.000638915787817 151.095449636 0.63322644637 -53.7234080015 0.633375137929 126.262866831 0.000638915788313 151.095449614 0.444814331353 139.284636958
9.925 0.282451100703 -113.706612754 0.312322546842 149.387810634 0.649815166952 175.659534342 0.632784534118 -56.387978779 0.312322546842 149.387810634 0.2825544147 -113.439434103 0.649624760627 175.647903536 0.632933895779 123.597131034 0.649815166952 175.659534342 0.649624760627 175.647903536 0.394623246822 -23.3544188465 0.000643180477402 146.53236579 0.632784534118 -56.387978779 0.632933895779 123.597131034 0.000643180477608 146.532365781 0.446069503349 136.76382154
9.95 0.28137889129 -116.384710313 0.312825240912 146.229830405 0.65047111992 171.485980597 0.632339777817 -59.0483248888 0.312825240912 146.229830405 0.281475045044 -116.116236211 0.650283764876 171.474057871 0.632489664717 120.935603274 0.65047111992 171.485980597 0.650283764876 171.474057871 0.392451178032 -28.5805666605 0.000647499523799 141.977794219 0.632339777817 -59.0483248888 0.632489664717 120.935603274 0.000647499523726 141.977794223 0.447328527475 134.245414989
9.975 0.28030159758 -119.051040241 0.313320254519 143.076740049 0.651132607837 167.317592067 0.631892168338 -61.7045176264 0.313320254519 143.076740049 0.280390703192 -118.781284053 0.650948375939 167.30536983 0.63204243009 118.278212137 0.651132607837 167.317592067 0.650948375939 167.30536983 0.390246220556 -33.8009633613 0.000651874460855 137.431528764 0.631892168338 -61.7045176265 0.63204243009 118.278212137 0.000651874460528 137.431528779 0.448591387352 131.729362686
10 0.279219918252 -121.705234736 0.31380584344 139.928464609 0.651800151503 163.154094476 0.63144169631 -64.356627216 0.31380584344 139.928464609 0.279302099909 -121.434210276 0.65161911469 163.141564822 0.631592176985 115.624887298 0.651800151503 163.154094476 0.65161911469 163.141564822 0.388006006329 -39.0164050451 0.000656306843568 132.89336151 0.631441696311 -64.3566272163 0.631592176985 115.624887299 0.000656306843025 132.893361534 0.449858067239 129.215610591
10.025 0.278134709512 -124.346923992 0.314280267837 136.784946229 0.652474209605 158.995211537 0.630988352123 -67.0047228469 0.314280267837 136.784946229 0.278210103538 -124.074645616 0.652296439876 158.982366239 0.631138890264 112.975559487 0.652474209605 158.995211537 0.652296439876 158.982366239 0.385728305301 -44.2277200636 0.000660798248926 128.363082649 0.630988352123 -67.0047228472 0.631138890264 112.975559487 0.000660798248214 128.36308268 0.451128551953 126.704105218
10.05 0.277046986435 -126.975737992 0.314741794887 133.646144098 0.653155178104 154.840664949 0.630532125929 -69.648872709 0.314741794887 133.646144098 0.277115741301 -126.702220694 0.652980747504 154.827495451 0.630682554597 110.330160448 0.653155178104 154.840664949 0.652980747504 154.827495451 0.383411030465 -49.4357695442 0.00066535027659 123.840480349 0.63053212593 -69.6488727093 0.630682554596 110.330160449 0.000665350275762 123.840480385 0.452402826806 124.194793617
10.075 0.275957924246 -129.59130842 0.315188701473 130.512034423 0.653843389599 150.690174395 0.630073007648 -72.2891440285 0.315188701473 130.512034423 0.27602020054 -129.316567945 0.653672370206 150.676671807 0.630223154495 107.688622913 0.653843389599 150.690174395 0.653672370206 150.676671807 0.381052243229 -54.6414479629 0.000669964549458 119.325340616 0.630073007649 -72.2891440288 0.630223154495 107.688622913 0.00066996454857 119.325340655 0.453680877535 121.687623351
10.1 0.274868859523 -132.193270719 0.315619276946 127.382610437 0.654539112677 146.543457535 0.629610986968 -74.9256031022 0.315619276946 127.382610437 0.274924829866 -131.917323678 0.654371576584 146.529612625 0.62976067435 105.05088056 0.654539112677 146.543457535 0.654371576584 146.529612625 0.378650159208 -59.8456837843 0.000674642714106 114.817447154 0.629610986969 -74.9256031025 0.62976067435 105.05088056 0.000674642713217 114.817447193 0.454962690235 119.182542475
10.125 0.273781291287 -134.781266309 0.316031825972 124.257882444 0.655242551241 142.40023 0.629146053349 -77.5583153317 0.316031825971 124.257882444 0.273831140218 -134.504130311 0.655078570535 142.386033187 0.629295098463 102.416867988 0.655242551241 142.40023 0.655078570535 142.386033187 0.37620315449 -65.0494401857 0.00067938644114 110.31658121 0.629146053349 -77.558315332 0.629295098462 102.416867988 0.000679386440303 110.316581246 0.456248251292 116.679499523
10.15 0.272696881966 -137.354944988 0.316424671483 121.137877907 0.655953843814 138.26020538 0.628678196023 -80.1873452564 0.316424671482 121.137877907 0.272740805764 -137.076638776 0.65579349056 138.24564673 0.628826411079 99.7865206794 0.655953843814 138.26020538 0.65579349056 138.24564673 0.373709772454 -70.253715882 0.000684197425459 105.822521414 0.628678196023 -80.1873452567 0.628826411078 99.7865206795 0.000684197424725 105.822521446 0.457537547323 114.178443482
10.175 0.271617458165 -139.913967523 0.316796157761 118.022641576 0.656673062827 134.123095208 0.628207403999 -82.8127565865 0.316796157761 118.022641576 0.271655664621 -139.63451113 0.65651640904 134.108164422 0.628354596426 97.1597749693 0.656673062827 134.123095208 0.65651640904 134.108164422 0.371168731219 -75.4595460644 0.000689077386466 101.335043601 0.628207403999 -82.8127565867 0.628354596426 97.1597749694 0.000689077385877 101.335043626 0.458830565111 111.679323779
10.2 0.270545011198 -142.45800847 0.317144653658 114.912235668 0.65740021388 129.988608929 0.627733666064 -85.4346122345 0.317144653658 114.912235668 0.270577719328 -142.177423383 0.657247331503 129.973295338 0.627879638748 94.5365680159 0.65740021388 129.988608929 0.657247331503 129.973295338 0.368578931798 -80.6680034695 0.000694028068238 96.8539206152 0.627733666064 -85.4346122347 0.627879638747 94.536568016 0.000694028067826 96.853920633 0.460127291542 109.182090262
10.225 0.26948169731 -144.986759227 0.317468555997 111.8067401 0.658135234979 125.856453864 0.62725697079 -88.052974347 0.317468555997 111.8067401 0.269509137006 -144.705068564 0.657986195853 125.84074642 0.627401522338 91.9168377682 0.658135234979 125.856453864 0.657986195853 125.84074642 0.365939467047 -85.8801995875 0.00069905123966 92.378922094 0.62725697079 -88.052974347 0.627401522338 91.9168377682 0.000699051239448 92.3789221031 0.461427713547 106.686693183
10.25 0.268429837504 -147.499931334 0.317766293164 108.706252769 0.658877995748 121.726335162 0.626777306533 -90.6679043349 0.317766293164 108.706252769 0.268452249115 -147.217160036 0.658732871588 121.710222428 0.626920231579 89.3005229355 0.658877995748 121.726335162 0.658732871588 121.710222428 0.363249631497 -91.0972860216 0.000704148694562 87.909814228 0.626777306533 -90.6679043349 0.626920231579 89.3005229355 0.00070414869456 87.9098142278 0.46273181804 104.193083181
10.275 0.267391916893 -149.997260045 0.318036328942 105.610889897 0.659628296623 117.597955731 0.626294661444 -93.279462904 0.318036328942 105.610889897 0.267409550731 -149.713435083 0.659487158982 117.581425878 0.626435750976 86.6875629572 0.659628296623 117.597955731 0.659487158982 117.581425878 0.36050893216 -96.3204560032 0.000709322251847 83.4463594958 0.626294661444 -93.2794629039 0.626435750976 86.6875629572 0.000709322252052 83.4463594866 0.464039591856 101.701211269
10.3 0.266370583454 -152.478508179 0.318277166605 102.520786431 0.660385868008 113.471016163 0.625809023469 -95.8877100838 0.318277166606 102.520786431 0.266383699223 -152.193658768 0.660248788243 113.454056954 0.625948065195 84.0778979729 0.660385868008 113.471016162 0.660248788243 113.454056954 0.357717100425 -101.550946064 0.000714573755629 78.9883163705 0.625809023468 -95.8877100837 0.625948065195 84.0778979729 0.000714573756028 78.9883163528 0.465351021697 99.2110288137
10.325 0.265368646088 -154.943470245 0.318487353318 99.43609651 0.661150369411 109.345214633 0.625320380358 -98.4927052569 0.318487353318 99.43609651 0.265377512222 -154.657628079 0.661017418651 109.32781342 0.625457159103 81.4714687921 0.661150369411 109.345214633 0.661017418651 109.32781342 0.354874105126 -106.790037863 0.000719905075384 74.5354389947 0.625320380358 -98.4927052568 0.625457159103 81.471468792 0.000719905075953 74.5354389695 0.466666094068 96.7224875239
10.35 0.264389071838 -157.391976868 0.318665484886 96.3569939964 0.661921388552 105.220246787 0.624828719673 -101.094507187 0.318665484886 96.3569939963 0.264393964749 -157.105176359 0.66179263766 105.202390494 0.624963017803 78.8682168646 0.661921388552 105.220246787 0.66179263766 105.202390494 0.351980166918 -112.039060164 0.00072531810611 70.0874768229 0.624828719672 -101.094507187 0.624963017803 78.8682168645 0.000725318106815 70.0874767918 0.467984795221 94.2355394341
10.375 0.263434982152 -159.823899478 0.318810210904 93.2836730729 0.662698440442 101.095805598 0.624334028793 -103.693174047 0.318810210904 93.2836730728 0.263436185376 -159.536178013 0.662573959973 101.077480715 0.624465626678 76.2680842507 0.662698440442 101.095805598 0.662573959973 101.077480715 0.34903577406 -117.299390935 0.000730814768494 65.644174229 0.624334028793 -103.693174047 0.624465626678 76.2680842506 0.000730814769292 65.6441741938 0.469307111094 91.7501368903
10.4 0.262509648027 -162.239155285 0.31892024035 90.2163489125 0.663480966432 96.9715812111 0.623836294926 -106.288763447 0.318920240351 90.2163489124 0.262507451258 -161.950553487 0.663360826593 96.9527737842 0.62396497143 73.6710135915 0.663480966432 96.9715812111 0.663360826592 96.9527737843 0.34604169974 -122.572459563 0.000736397009063 61.2052700767 0.623836294925 -106.288763447 0.62396497143 73.6710135914 0.000736397009906 61.2052700395 0.470633027254 89.2662325356
10.425 0.261616483895 -164.637712496 0.318994347695 87.1552584178 0.664268333234 92.8472607621 0.623335505112 -108.88133246 0.318994347695 87.1552584177 0.261611181911 -164.348274492 0.66415260384 92.8279563775 0.623461038123 71.0769480791 0.664268333234 92.8472607621 0.66415260384 92.8279563775 0.342999021059 -127.85974914 0.000742066800322 56.7704972502 0.623335505112 -108.88133246 0.623461038123 71.076948079 0.00074206680116 56.7704972132 0.471962528832 86.7837792961
10.45 0.260759040101 -167.019595755 0.319031379573 84.1006610334 0.665059831912 88.7225281666 0.62283164624 -111.470937649 0.319031379573 84.1006610333 0.260750931561 -166.729369453 0.664948582344 88.7027119406 0.622953813226 68.4858314272 0.665059831912 88.7225281665 0.664948582344 88.7027119407 0.339909139809 -133.162798776 0.000747826140831 52.3395821446 0.622831646239 -111.470937649 0.622953813227 68.4858314271 0.000747826141611 52.3395821101 0.473295600465 84.3027303671
10.475 0.259940993811 -169.38489177 0.319030262107 81.0528396309 0.665854676845 84.5970638872 0.62232470505 -114.057635096 0.319030262107 81.0528396309 0.259930379922 -169.093929128 0.665747976001 84.5767204529 0.622443283663 65.8976078407 0.665854676845 84.5970638872 0.665747976001 84.576720453 0.33677380518 -138.483205891 0.000753677055209 47.9122441123 0.62232470505 -114.057635096 0.622443283663 65.8976078406 0.000753677055881 47.9122440825 0.474632226233 81.8230391994
10.5 0.259166138207 -171.73375507 0.318990008947 78.0121014665 0.666652004661 80.4705446715 0.621814668151 -116.641480423 0.318990008947 78.0121014664 0.259153321257 -171.442112372 0.666549920908 80.4496581639 0.621929436854 63.3122219861 0.666652004661 80.4705446715 0.666549920907 80.449658164 0.333595138523 -143.822628402 0.000759621594021 43.4881948638 0.621814668151 -116.641480423 0.621929436854 63.3122219861 0.000759621594541 43.4881948406 0.475972389594 79.344659486
10.525 0.258438369828 -174.066413846 0.318909730114 74.9787792095 0.667450873137 76.3426432586 0.621301522026 -119.222528824 0.318909730114 74.9787792095 0.258423651573 -173.774151961 0.667353474264 76.3211973001 0.62141226077 60.7296189613 0.667450873137 76.3426432586 0.667353474264 76.3211973001 0.330375660302 -149.182786725 0.000765661833509 39.0671378205 0.621301522026 -119.222528824 0.621412260771 60.7296189613 0.000765661833841 39.0671378057 0.477316073318 76.8675451488
10.55 0.257761673908 -176.383175788 0.318788641744 71.953232041 0.66825026008 72.2130280552 0.620785253046 -121.800835089 0.318788641744 71.953232041 0.257745353813 -176.090360421 0.668157613246 72.191005739 0.620891743984 58.1497442651 0.66825026008 72.2130280552 0.668157613246 72.191005739 0.327118319351 -154.565465475 0.000771799875114 34.6487674162 0.620785253046 -121.800835089 0.620891743984 58.1497442651 0.000771799875229 34.648767411 0.47866325942 74.3916503253
10.575 0.25714010762 -178.684433855 0.318626076823 68.9358468165 0.66904906217 68.0813627759 0.620265847483 -124.376453626 0.318626076823 68.9358468165 0.257122480945 -178.391135779 0.668961233853 68.0587466488 0.620367875725 55.5725437669 0.66904906217 68.0813627759 0.668961233853 68.0587466488 0.323826524563 -159.972514737 0.000778037844737 30.2327683442 0.620265847483 -124.376453626 0.620367875725 55.5725437669 0.000778037844619 30.2327683493 0.480013929085 71.9169293558
10.6 0.256577781096 179.029328127 0.31842149704 65.9270392908 0.669846093779 63.9473060466 0.619743291516 -126.949438494 0.318421497039 65.9270392909 0.256559136827 179.323032866 0.669763149723 63.9240780906 0.619840645936 52.9979636754 0.669846093779 63.9473060466 0.669763149723 63.9240780906 0.320504179071 -165.405850738 0.000784377891677 25.8188147456 0.619743291516 -126.949438494 0.619840645936 52.9979636755 0.000784377891324 25.8188147611 0.481368062598 69.4433367704
10.625 0.256078836169 176.757530129 0.31817450586 62.9272553948 0.670640085762 59.8105109671 0.619217571252 -129.519843425 0.31817450586 62.9272553949 0.256059454788 177.051560039 0.670562090925 59.7866525793 0.619310045338 50.4259505076 0.670640085762 59.8105109671 0.670562090925 59.7866525793 0.317155717022 -170.867455745 0.00079082218718 21.4065693352 0.619217571252 -129.519843425 0.619310045337 50.4259505077 0.000790822186601 21.4065693609 0.482725639265 66.9708272761
10.65 0.255647422762 174.499490956 0.317884862963 59.936972557 0.671429684219 55.6706246287 0.618688672732 -132.087721851 0.317884862963 59.936972557 0.255627573868 174.793758961 0.671356702718 55.6461165999 0.61877606549 47.856451057 0.671429684219 55.6706246287 0.671356702718 55.6461165999 0.313786142931 -176.359376936 0.000797372922522 16.995682459 0.618688672732 -132.087721851 0.61877606549 47.8564510571 0.000797372921745 16.9956824937 0.48408663733 64.4993557441
10.675 0.255287672927 172.254423771 0.317552500182 56.9567010568 0.672213449223 51.527287583 0.618156581948 -134.653126932 0.317552500182 56.9567010569 0.255267612689 172.54883712 0.672145544281 51.5021100745 0.618238698867 45.2894123613 0.672213449223 51.527287583 0.672145544281 51.5021100744 0.310401073626 178.116275989 0.000804032306557 12.5857910762 0.618156581948 -134.653126932 0.618238698867 45.2894123614 0.000804032305619 12.5857911183 0.485451033891 62.0288771968
10.7 0.25500367251 170.021432207 0.317177539105 53.9869853945 0.672989853521 47.3801332548 0.617621284854 -137.216111579 0.317177539104 53.9869853946 0.254983640975 170.315892438 0.67292708741 47.3542657734 0.617697938925 42.7247816698 0.67298985352 47.3801332548 0.67292708741 47.3542657733 0.307006782652 172.557334796 0.000810802562627 8.17651765954 0.617621284854 -137.216111579 0.617697938925 42.7247816699 0.000810802561579 8.17651770678 0.486818804806 59.5593467952
10.725 0.254799430509 167.799507188 0.316760310505 51.0284056576 0.67375728119 43.2287872938 0.617082767383 -139.776728488 0.316760310505 51.0284056578 0.254779648762 168.093910145 0.67369971518 43.2022086651 0.617153780188 40.1625064099 0.67375728119 43.2287872939 0.67369971518 43.2022086651 0.303610246987 166.961578634 0.000817685924757 3.76746900444 0.617082767384 -139.776728488 0.617153780188 40.1625064101 0.000817685923661 3.76746905414 0.488189924597 57.090719826
10.75 0.254678846179 165.587524561 0.316301375794 48.0815788601 0.674514026258 39.0728668572 0.616541015463 -142.335030161 0.316301375794 48.0815788602 0.254659513358 165.881760479 0.674461720559 39.0455551963 0.616606218329 37.602534153 0.674514026258 39.0728668572 0.674461720559 39.0455551963 0.300219195764 161.326742303 0.00082468463304 -0.641765064161 0.616541015463 -142.335030161 0.616606218329 37.6025341531 0.000824684631963 -0.64176501508 0.489564366349 54.6229516886
10.775 0.254645673995 163.384243624 0.315801550694 45.1471602237 0.675258291266 34.9119798123 0.615996015028 -144.891068935 0.315801550694 45.1471602239 0.254626964178 163.678197282 0.675211304975 34.8839124926 0.616055250265 35.0448125793 0.675258291266 34.9119798124 0.675211304975 34.8839124925 0.29684216058 155.650527315 0.000831800928086 -5.05161309864 0.615996015028 -144.891068936 0.616055250265 35.0448125794 0.0008318009271 -5.05161305346 0.490942101596 52.1559978821
10.8 0.254703486598 161.188306641 0.31526193136 42.2258443651 0.675988185764 30.745723851 0.61544775204 -147.444897016 0.31526193136 42.2258443653 0.254685545567 161.481857581 0.675946576813 30.7168774696 0.615500874257 32.4892894416 0.675988185764 30.745723851 0.675946576813 30.7168774696 0.293488526816 149.930616244 0.000839037044444 -9.46252356421 0.61544775204 -147.444897016 0.615500874256 32.4892894417 0.000839037043622 -9.46252352626 0.492323100204 49.6898139919
10.825 0.254855635887 158.998239386 0.31468392319 39.3183663422 0.676701724726 26.5736855006 0.614896212506 -149.996566498 0.31468392319 39.3183663423 0.254838577781 159.291262217 0.676665549829 26.5440358418 0.614943090013 29.9359125287 0.676701724726 26.5736855006 0.67666554983 26.5440358418 0.290168585175 144.164690918 0.000846395202863 -13.87496652 0.614896212506 -149.996566498 0.614943090013 29.9359125287 0.000846395202272 -13.8749664924 0.493707330243 47.2243556766
10.85 0.25510521242 156.81245277 0.314069272599 36.4255025059 0.677396826857 22.3954390184 0.614341382496 -152.5461294 0.314069272599 36.425502506 0.255089116286 157.104817534 0.677366141461 22.3649610133 0.614381898814 27.3846296261 0.677396826857 22.3954390184 0.677366141461 22.3649610133 0.286893582461 138.350455007 0.000853877601252 -18.2894354651 0.614341382496 -152.5461294 0.614381898814 27.3846296261 0.000853877600952 -18.2894354509 0.495094757851 44.7595786542
10.875 0.25545500332 154.62924553 0.313420102041 33.5480710897 0.678071312757 18.2105451518 0.613783248168 -155.093637692 0.313420102041 33.5480710897 0.255439909575 154.920818151 0.678046170992 18.1792128343 0.613817303631 24.8353884766 0.678071312757 18.2105451518 0.678046170992 18.1792128343 0.28367577031 132.485661595 0.000861486404204 -22.7064493734 0.613783248168 -155.093637692 0.613817303631 24.8353884766 0.000861486404238 -22.7064493746 0.496485347088 42.2954386879
10.9 0.255907448852 152.446807985 0.312738948609 30.6869324572 0.678722902907 14.0185497434 0.613221795788 -157.639143325 0.312738948609 30.6869324571 0.255893355667 152.737450775 0.678703357543 13.9863362032 0.613249309269 22.2881367381 0.678722902907 14.0185497433 0.678703357543 13.9863362032 0.280528450352 126.568146288 0.00086922373089 -27.1265549422 0.613221795788 -157.639143325 0.613249309269 22.2881367381 0.000869223731286 -27.1265549605 0.49787905977 39.8318915721
10.925 0.256464597864 150.26322676 0.312028806558 27.84298891 0.679349215425 9.81898216012 0.612657011755 -160.182698261 0.312028806558 27.8429889099 0.25645145747 150.552798997 0.679335317828 9.7858594902 0.612677922516 19.7428219401 0.679349215425 9.81898216009 0.679335317828 9.78585949023 0.277466013921 120.59586636 0.000877091641163 -31.5503290876 0.612657011755 -160.18269826 0.612677922516 19.74282194 0.000877091641927 -31.5503291235 0.499275855304 37.3688931174
10.95 0.25712806223 148.076490418 0.311293174132 25.0171839421 0.679947763511 5.61135351781 0.612088882634 -162.724354502 0.311293174132 25.0171839419 0.257115777166 148.364848969 0.679939563609 5.57729275797 0.612103152306 17.1993914376 0.679947763512 5.61135351777 0.679939563609 5.57729275801 0.274503974171 114.566946334 0.000885092119622 -35.9783817211 0.612088882633 -162.724354501 0.612103152306 17.1993914374 0.000885092120735 -35.9783817739 0.500675690497 34.9063991354
10.975 0.257898970433 145.884495835 0.310536105123 22.2105008012 0.68051595252 1.39515467182 0.611517395179 -165.264164123 0.310536105123 22.210500801 0.257887389711 146.171495826 0.680513498769 1.36012574649 0.611525009897 14.6577923624 0.68051595252 1.39515467176 0.680513498769 1.36012574655 0.271658988078 108.479730189 0.00089322705738 -40.4113588485 0.611517395179 -165.264164123 0.611525009898 14.6577923623 0.000893227058798 -40.4113589165 0.50207851935 32.4443654228
11 0.258777920335 143.685055165 0.309762265611 19.4239601951 0.681051076534 -2.83014606115 0.610942536377 -167.802179302 0.309762265612 19.4239601948 0.258766835546 143.970550678 0.681054415895 -2.86617441095 0.610943509069 12.1179715722 0.681051076534 -2.83014606122 0.681054415895 -2.86617441088 0.268948865598 102.332840156 0.00090149823124 -44.8499460405 0.610942536376 -167.802179302 0.610943509069 12.117971572 0.000901498232894 -44.8499461206 0.503484292841 29.9827477451
11.025 0.259764931178 141.47590318 0.308976996383 16.6586169496 0.681550314324 -7.06510549023 0.610364293475 -170.338452349 0.308976996383 16.6586169493 0.259754072508 141.759747969 0.681559492246 -7.10216578169 0.61035866633 9.57987559496 0.681550314325 -7.06510549031 0.681559492246 -7.10216578161 0.266392563019 96.1252416867 0.000909907279872 -49.2948723287 0.610364293475 -170.338452349 0.610358666331 9.57987559479 0.000909907281671 -49.2948724166 0.504892958681 27.5215018193
11.05 0.260859394741 139.254704746 0.308186381567 13.9155553918 0.682010724525 -11.3103084921 0.609782654031 -172.873035737 0.308186381567 13.9155553915 0.260848426887 139.536752953 0.682025784936 -11.3484345829 0.609770501159 7.04345057112 0.682010724525 -11.3103084922 0.682025784936 -11.3484345828 0.264010157467 89.8563137283 0.000918455676562 -53.7469145913 0.609782654031 -172.873035737 0.609770501159 7.04345057095 0.000918455678394 -53.7469146818 0.506304461055 25.0605832963
11.075 0.262060025512 137.019062176 0.307397324075 11.1958831933 0.682429239832 -15.5663713595 0.609197605954 -175.405982135 0.307397324075 11.1958831931 0.262048543468 137.299169025 0.682450225147 -15.6055985384 0.609179036248 4.50864219038 0.682429239832 -15.5663713596 0.682450225147 -15.6055985384 0.261822799643 83.525922866 0.000927144697936 -58.2069025023 0.609197605954 -175.405982135 0.609179036249 4.50864219022 0.000927144699678 -58.2069025893 0.507718740328 22.5999477416
11.1 0.263364809643 134.76652214 0.306617628465 8.50072336541 0.682802659988 -19.8339456158 0.608609137558 -177.937344434 0.306617628465 8.50072336516 0.263352334318 135.044544601 0.682829611126 -19.8743107031 0.608584297792 1.97539562429 0.682802659988 -19.8339456159 0.682829611125 -19.874310703 0.259852642181 77.1344992669 0.000935975387972 -62.6757241283 0.608609137558 -177.937344434 0.608584297792 1.97539562415 0.000935975389496 -62.6757242053 0.509135732741 20.1395506161
11.125 0.26477095231 132.494581832 0.305856091901 5.83120405074 0.683127643259 -24.1137223642 0.608017237617 179.532824218 0.305856091901 5.83120405053 0.264756925938 132.770379234 0.683160599672 -24.1552638223 0.607986315784 -0.556344546799 0.68312764326 -24.1137223642 0.683160599672 -24.1552638223 0.258122741668 70.6831116322 0.000944948516413 -67.1543322712 0.608017237617 179.532824218 0.607986315784 -0.556344546909 0.000944948517601 -67.1543323319 0.510555370063 17.679347255
11.15 0.266274823014 130.20069402 0.305122603927 3.18844570377 0.683400696051 -28.4064372482 0.607421895428 177.004470393 0.305122603927 3.18844570364 0.266258604287 130.474128589 0.68343969578 -28.4491953051 0.607385124354 -3.08663441283 0.683400696051 -28.4064372483 0.68343969578 -28.4491953051 0.256656933342 64.173537674 0.000954064530473 -71.6437516695 0.607421895428 177.004470393 0.607385124354 -3.0866344129 0.000954064531227 -71.6437517086 0.511977579219 15.2192928463
11.175 0.267871898148 127.882270618 0.304428255808 0.573545196515 0.683618160244 -32.7128761137 0.606823100877 174.477540347 0.304428255808 0.573545196469 0.267852757006 128.153207935 0.683663239988 -32.7568928993 0.60678076213 -5.61553082005 0.683618160244 -32.7128761137 0.683663239988 -32.7568928993 0.255479678826 57.6083259927 0.000963323498448 -76.1450871882 0.606823100877 174.477540347 0.60678076213 -5.61553082007 0.000963323498705 -76.1450872017 0.513402281877 12.7593424081
11.2 0.269556700017 125.536684355 0.303785460226 -2.0124436711 0.683776197735 -37.0338814714 0.606220844517 171.951980001 0.303785460226 -2.01244367106 0.269533812007 125.804993707 0.683827392946 -37.0792011702 0.606173272638 -8.14309146466 0.683776197735 -37.0338814714 0.683827392946 -37.0792011702 0.254615889049 50.9908447782 0.000972725043471 -80.6595331467 0.606220844517 171.951980001 0.606173272638 -8.14309146464 0.000972725043217 -80.6595331334 0.514829394005 10.299450764
11.225 0.271322731232 123.161268098 0.303208082149 -4.56853383535 0.683870771572 -41.3703598787 0.605615117651 169.427734904 0.303208082149 -4.56853383522 0.271295171336 123.426822708 0.683928116579 -41.4170288996 0.605562704742 -10.6693749953 0.683870771572 -41.3703598787 0.683928116579 -41.4170288997 0.254090726517 44.3253125771 0.000982268265196 -85.188383959 0.605615117651 169.427734904 0.605562704741 -10.6693749952 0.000982268264482 -85.1883839207 0.516258825378 7.83957251817
11.25 0.273162403129 120.753311316 0.302711581729 -7.09383344165 0.683897622946 -45.7232903711 0.605005912418 166.904750216 0.302711581729 -7.09383344145 0.273129138934 121.015988437 0.683961151104 -45.7713575379 0.604949113115 -13.1944411251 0.683897622946 -45.7232903711 0.683961151105 -45.771357538 0.253929393415 37.6168065864 0.0009919516466 -89.7330462836 0.605005912418 166.904750216 0.604949113115 -13.194441125 0.000991951645551 -89.7330462263 0.517690479039 5.37966202893
11.275 0.275066956477 118.310053102 0.302313170055 -9.5875798097 0.683852243162 -50.093734097 0.604393221894 164.382970682 0.302313170056 -9.58757980948 0.275026840562 118.569733964 0.683921987038 -50.1432508616 0.604332558771 -15.7183507547 0.683852243162 -50.0937340969 0.683921987038 -50.1432508616 0.254156914356 30.8712446211 0.00100177294235 -94.2950529144 0.604393221894 164.382970682 0.604332558771 -15.7183507546 0.00100177294116 -94.2950528487 0.519124250709 2.91967338071
11.3 0.277026372242 115.828671084 0.302031978635 -12.0491796114 0.683729839525 -54.4828453309 0.603777040199 161.862340607 0.302031978635 -12.0491796112 0.276978133616 116.085240664 0.683805831119 -54.5338660129 0.603713109636 -18.2411661077 0.683729839525 -54.4828453309 0.683805831119 -54.5338660129 0.254797924738 24.0953381126 0.0010117290442 -98.8760786765 0.603777040199 161.862340607 0.603713109636 -18.2411661076 0.00101172904315 -98.8760786174 0.520560028148 0.459560355152
11.325 0.279029269505 113.306265394 0.301889243414 -14.4782560013 0.68352529388 -58.8918840669 0.603157362615 159.342803837 0.301889243414 -14.4782560012 0.278971503919 113.559612006 0.683607564887 -58.944466123 0.603090841176 -20.7629508795 0.68352529388 -58.8918840669 0.683607564887 -58.9444661231 0.255876477386 17.2965151826 0.00102181581776 -103.47795863 0.603157362615 159.342803837 0.603090841176 -20.7629508795 0.00102181581719 -103.477958597 0.521997690443 -2.00072359912
11.35 0.281062786716 110.739836706 0.301908504144 -16.8747034346 0.683233112288 -63.3222304241 0.602534185708 156.824303741 0.301908504144 -16.8747034346 0.280993945634 110.989851377 0.683321694411 -63.3764347529 0.602465837088 -23.2837704014 0.683233112288 -63.3222304241 0.683321694411 -63.3764347529 0.257415881185 10.4828149043 0.00103202790334 -108.102708935 0.602534185708 156.824303741 0.602465837088 -23.2837704014 0.00103202790357 -108.102708949 0.523437107235 -4.46122539789
11.375 0.283112441186 108.12625709 0.302115819831 -19.238750866 0.682847364025 -67.7754011355 0.60190750747 154.306783196 0.30211581983 -19.2387508663 0.283030819199 108.372832699 0.682942289326 -67.8312924206 0.601838190057 -25.8036918222 0.682847364025 -67.7754011356 0.682942289326 -67.8312924205 0.25943858554 3.66275610312 0.00104235847161 -112.752550769 0.601907507469 154.306783196 0.601838190057 -25.8036918223 0.00104235847295 -112.752550849 0.524878137877 -6.92199235372
11.4 0.285161960006 105.462232088 0.302540000924 -21.5710339457 0.682361607698 -72.2530684303 0.60127732746 151.790184573 0.302540000923 -21.5710339462 0.285065680407 105.705262232 0.682462909014 -72.3107155297 0.601208002584 -28.3227843087 0.682361607698 -72.2530684305 0.682462909014 -72.3107155296 0.261966123584 -3.15481378214 0.00105279892264 -117.429937764 0.60127732746 151.790184573 0.601208002585 -28.3227843089 0.00105279892523 -117.429937923 0.526320630507 -9.38307220924
11.425 0.287193073105 102.744252019 0.303212858829 -23.8726766948 0.681768801888 -76.7570816735 0.600643646969 149.274449725 0.303212858827 -23.8726766955 0.287080071337 102.983629553 0.681876513296 -76.8165580612 0.6005753879 -30.8411192673 0.681768801888 -76.7570816737 0.681876513295 -76.816558061 0.265019125159 -9.96088244936 0.00106333851319 -122.137587473 0.600643646969 149.274449725 0.6005753879 -30.8411192677 0.00106333851689 -122.137587706 0.527764421039 -11.8445131711
11.45 0.289185255786 99.9685298613 0.304169473142 -26.1453829648 0.681061197126 -81.2894921845 0.600006469186 146.759519983 0.304169473139 -26.1453829656 0.289053260428 100.204145048 0.681175354476 -81.3508764522 0.599940470961 -33.35877059 0.681061197126 -81.2894921847 0.681175354476 -81.350876452 0.268617407848 -16.746440562 0.00107396389381 -126.878517457 0.600006469185 146.759519983 0.599940470961 -33.3587705904 0.00107396389799 -126.878517727 0.529209332054 -14.3063639445
11.475 0.29111540327 97.1309223516 0.305448476852 -28.3915377475 0.680230205435 -85.8525817274 0.599365799379 144.245336149 0.30544847685 -28.3915377481 0.290961914199 97.3626605098 0.680350846945 -85.9159581561 0.599303389552 -35.8758149266 0.680230205435 -85.8525817276 0.680350846945 -85.9159581559 0.272780151001 -23.5026447076 0.00108465853171 -131.656086632 0.599365799379 144.24533615 0.599303389553 -35.8758149269 0.00108465853502 -131.656086852 0.530655171605 -16.7686737676
11.5 0.292957413012 94.2268298279 0.307092359421 -30.6143181269 0.679266242825 -90.448895248 0.598721645095 141.731838501 0.307092359421 -30.6143181269 0.292779676342 94.45456835 0.679393409747 -90.5143544595 0.598664295494 -38.3923319867 0.679266242825 -90.448895248 0.679393409747 -90.5143544595 0.277526154165 -30.2209669638 0.00109540198954 -136.474042615 0.598721645095 141.731838501 0.598664295494 -38.3923319867 0.00109540198954 -136.474042615 0.532101731899 -19.2314924458
