! Touchstone file exported from HFSS 2025.2.4
!        File:           C:/Users/chaoy/Documents/single_magictee_v2_latest/single_magictee_v2.aedt
!        Generated:      02:15:16 PM Sep 19, 2026
!        Design:         SingleMagicT_v2
!        Project:        single_magictee_v2
!
! Variables:
!        f_adapt = 10.2GHz
!        ridge_g1 = 7.672mm
!        ridge_g2 = 4.984mm
!        ridge_l1 = 9.872mm
!        ridge_l2 = 8.857mm
!        ridge_w = 4.572mm
!        terminal_ridge_len = 6mm
!        wg_a = 22.86mm
!        wg_b = 10.16mm
!
!Data is not renormalized
# GHz S MA
! Terminal data exported
! Port[1] = P1_CollinearMinusX
! Port[2] = P2_CollinearPlusX
! Port[3] = P3_HArm_Ridged
! Port[4] = P4_EArm
9                              0.174650595190619 -156.945871439418 0.524146190431023 -159.23407158421 0.505944861480016 105.010423675177 0.662410550790198 45.0985957142197 
                               0.524146190431025 -159.234071584209 0.17476599559527 -156.578757313999 0.505760226940231 104.97338512135  0.662521102068158 -134.846129192526 
                               0.505944861480017 105.010423675177 0.50576022694023 104.97338512135  0.69873177722561 -171.399953272728 0.000541740226566077 -122.587300521518 
                               0.662410550790198 45.0985957142197 0.662521102068156 -134.846129192526 0.000541740226567079 -122.587300521628 0.349682367347495 -109.278757960786 
9.025                          0.174724710303786 -159.440460140545 0.525840689082105 -162.138495206795 0.504753836589102 101.929751723326 0.661957207320068 42.1886529926747 
                               0.525840689082155 -162.138495206797 0.174835651128652 -159.07474601072 0.504569873130552 101.892865159744 0.662068148546684 -137.755801949428 
                               0.50475383658911 101.929751723333 0.504569873130541 101.892865159737 0.700450557387236 -174.757591345332 0.000537763918309394 -126.121166480424 
                               0.661957207320084 42.1886529926722 0.662068148546659 -137.755801949426 0.000537763918275762 -126.121166480046 0.3513936170607  -111.996048352017 
9.05                           0.174809301589458 -161.928761417468 0.52753785474691 -165.034282295249 0.503551583103841 98.8532573745621 0.661500441351731 39.2866299805988 
                               0.527537854746994 -165.034282295253 0.174915944477696 -161.564541401174 0.503368372506427 98.8165390928732 0.661611670318827 -140.657569219641 
                               0.503551583103854 98.8532573745738 0.50336837250641 98.8165390928615 0.702177562089181 -178.11443620576 0.000533648321064396 -129.647467163127 
                               0.661500441351758 39.2866299805946 0.661611670318788 -140.657569219637 0.000533648321006311 -129.64746716225 0.35310881456971 -114.709090137637 
9.075                          0.174904742015991 -164.411122903769 0.529238126222149 -167.921634401755 0.502337499024558 95.7809065693316 0.661040226563949 36.3923918479112 
                               0.529238126222251 -167.92163440176 0.175007266048769 -164.048491728787 0.502155129097661 95.7443727947605 0.661151631237324 -143.551565634567 
                               0.502337499024574 95.7809065693461 0.50215512909764 95.7443727947459 0.703913374119973 178.529649893974 0.000529401986357167 -133.165575367146 
                               0.661040226563983 36.3923918479062 0.661151631237276 -143.551565634562 0.00052940198628347 -133.165575365805 0.354827894490838 -117.417950491546 
9.1                            0.17501133426206 -166.887891834962 0.530941918053307 -170.800752556852 0.501111004501474 92.7126654713391 0.660576539527409 33.5058043089396 
                               0.530941918053419 -170.800752556858 0.175109936036823 -166.526944666323 0.500929568898839 92.6763323865427 0.660687998355827 -146.437925249493 
                               0.501111004501492 92.7126654713548 0.500929568898815 92.6763323865269 0.705658544115107 175.174806446516 0.000525032955673754 -136.674928548387 
                               0.660576539527447 33.5058043089342 0.660687998355775 -146.437925249488 0.000525032955591982 -136.674928546655 0.356550798273678 -120.122695469984 
9.125                          0.175129313886014 -169.359413689495 0.532649619216638 -173.671836766541 0.499871543922926 89.6485008751403 0.660109359201269 30.6267339085032 
                               0.53264961921675 -173.671836766546 0.175224207596598 -169.000245955824 0.499691141960757 89.6123846399183 0.660220741393167 -149.316781257924 
                               0.499871543922944 89.648500875156  0.499691141960733 89.6123846399025 0.707413586738642 171.821174742475 0.000520548750682741 -140.175020919436 
                               0.660109359201307 30.6267339084979 0.660220741393115 -149.316781257918 0.000520548750599186 -140.175020917414 0.358277473713849 -122.823390017417 
9.15                           0.175258852478071 -171.826030935774 0.534361592015441 -176.535085553989 0.498618587869801 86.5883805624694 0.659638666474674 27.7550482730435 
                               0.534361592015547 -176.535085553994 0.17535026999412 -171.468738155168 0.498439324347199 86.5524973295322 0.659749832246444 -152.188265740712 
                               0.498618587869819 86.5883805624842 0.498439324347176 86.5524973295173 0.709178977203654 168.468897875522 0.000515956377550895 -143.665395553417 
                               0.65963866647471 27.7550482730385 0.659749832246396 -152.188265740707 0.00051595637747067 -143.665395551225 0.360007874500521 -125.520097976121 
9.175                          0.175400060778014 -174.288081879821 0.53607817117977 -179.390695543772 0.497351634931219 83.532273608621  0.659164443751224 24.8906163289997 
                               0.536078171179865 -179.390695543777 0.175488251720939 -173.932759485808 0.497173619952064 83.4966395356388 0.65927524455092 -155.052509447827 
                               0.497351634931235 83.5322736086342 0.497173619952044 83.4966395356255 0.710955148141831 165.118120700319 0.00051126234382858 -147.14563664758 
                               0.659164443751257 24.8906163289953 0.659275244550877 -155.052509447822 0.000511262343755699 -147.145636645349 0.361741959797272 -128.212882099029 
9.2                            0.175552991744854 -176.745899608186 0.537799663158659 177.761138913466 0.496070213377014 80.4801506404232 0.658686674574267 22.0333084906165 
                               0.53779966315874 177.761138913463 0.175638223557392 -176.39264277629 0.49589356217239 80.4447818985974 0.658796953284504 -157.909641610556 
                               0.496070213377028 80.4801506404343 0.495893562172373 80.4447818985862 0.712742486830086 161.768989744648 0.000506472686248622 -150.615362085699 
                               0.658686674574296 22.0333084906129 0.658796953284468 -157.909641610552 0.000506472686186092 -150.615362083565 0.363479693854756 -130.90180406542 
9.225                          0.175717643568386 -179.199811020903 0.539526345594005 174.920226078058 0.494773882683102 77.4319840475271 0.658205343290791 19.1829968193342 
                               0.53952634559407 174.920226078056 0.175800201574692 -178.848714496305 0.494598715433363 77.3968968269396 0.658314934414536 -160.759789782035 
                               0.494773882683114 77.4319840475359 0.494598715433349 77.3968968269307 0.714541332779629 158.421653077401 0.000501593007702829 -154.074216422713 
                               0.658205343290814 19.1829968193314 0.658314934414507 -160.759789782032 0.000501593007652741 -154.074216420808 0.365221045653609 -133.586924499067 
9.25                           0.175893962615547 178.349864050564 0.54125846696537 172.086377122147 0.493462234906366 74.3877481489106 0.657720434751621 16.3395551568754 
                               0.541258466965418 172.086377122145 0.175974150068594 178.698706123819 0.493288676561979 74.3529586609191 0.657829164584481 -163.603079703988 
                               0.493462234906375 74.3877481489169 0.49328867656197 74.3529586609127 0.71635197569057 155.076260134406 0.000496628521627169 -157.521864399146 
                               0.657720434751638 16.3395551568733 0.657829164584459 -163.603079703986 0.000496628521590804 -157.521864397595 0.366965988575982 -136.268302988492 
9.275                          0.176081846306994 175.902813645192 0.542996246395136 169.259406396411 0.492134895906316 71.3474193166407 0.657231934045632 13.5028592340878 
                               0.542996246395166 169.259406396409 0.17615998441998 176.249307893001 0.491963076006637 71.3129437935987 0.657339620838103 -166.43963519764 
                               0.492134895906323 71.3474193166445 0.491963076006632 71.3129437935949 0.718174653772727 151.732961504268 0.000491584102032743 -160.957985077005 
                               0.657231934045643 13.5028592340865 0.65733962083809 -166.439635197639 0.000491584102010671 -160.957985075919 0.368714500104054 -138.945998108991 
9.3                            0.176281145921519 173.458734398642 0.544739873603679 166.439131664712 0.490791526411351 68.3109760590682 0.656739826265621 10.6727867575477 
                               0.544739873603692 166.439131664712 0.176357573879903 173.802788383273 0.490621578900555 68.2768307516559 0.656846280378673 -169.269578076814 
                               0.490791526411355 68.3109760590696 0.490621578900554 68.2768307516545 0.720009552431054 148.391908676704 0.000486464337458686 -164.382266673203 
                               0.656739826265625 10.6727867575472 0.656846280378668 -169.269578076814 0.000486464337450866 -164.382266672675 0.370466561543881 -141.620067446148 
9.325                          0.176491669327692 171.01733219815  0.546489509004492 163.62537430868  0.489431822928137 65.278399065732  0.656244096303555 7.84921747585866 
                               0.546489509004489 163.625374308681 0.176566744278418 171.358854581918 0.489263885967568 65.2446002381891 0.656349120360735 -172.093028081293 
                               0.489431822928139 65.2783990657311 0.489263885967571 65.24460023819   0.721856803311795 145.053253756001 0.00048127358718956 -167.794402151283 
                               0.656244096303554 7.84921747585889 0.656349120360736 -172.093028081293 0.000481273587195444 -167.794402151389 0.372222157772926 -144.290567620546 
9.35                           0.176713183643587 168.578322770034 0.548245283929446 160.817959504163 0.488055518493258 62.2496712163402 0.655744728672903 5.032033227514   
                               0.548245283929427 160.817959504164 0.176787280658037 168.917223475874 0.487889734269557 62.216235139898  0.655848117712012 -174.910102828591 
                               0.488055518493258 62.2496712163372 0.487889734269563 62.216235139901  0.723716483703298 141.717149142448 0.000476016038169047 -171.194085617331 
                               0.655744728672896 5.03203322751485 0.65584811771202 -174.910102828592 0.000476016038187676 -171.194085618124 0.373981277009609 -146.957554313438 
9.375                          0.176945417826593 166.1414322035   0.550007300974706 158.016716371447 0.48666238326699 59.2247775562614 0.655241707355813 2.22111797211052 
                               0.550007300974674 158.016716371449 0.17701892983379 166.477622572126 0.486498897795417 59.1917205010686 0.655343248983053 -177.720917782363 
                               0.486662383266989 59.2247775562565 0.486498897795427 59.1917205010735 0.725588616283318 138.383747184717 0.000470695761149997 -174.581009551511 
                               0.655241707355801 2.2211179721119  0.655343248983067 -177.720917782365 0.000470695761180093 -174.581009553021 0.375743910603257 -149.621082293135 
9.4                            0.177188065196183 163.706397414142 0.551775634458125 155.221478101063 0.485252224969763 56.2037052410076 0.65473501567297 -0.58364219337338 
                               0.551775634458081 155.221478101065 0.177261402882804 164.039790357492 0.485091187892235 56.1710434668496 0.65483449022225 179.474413764245 
                               0.48525222496976 56.2037052410012 0.485091187892247 56.171043466856  0.727473169202599 135.053199806308 0.000465316764745206 -177.954862892743 
                               0.654735015672955 -0.583642193371568 0.654834490222269 179.474413764243 0.000465316764785259 -177.954862894978 0.377510052842839 -152.281205441918 
9.425                          0.177440785893151 161.272966550236 0.553550330979239 152.432082056918 0.483824889162563 53.1864434522244 0.654224636174029 -3.38235903160906 
                               0.553550330979186 152.432082056921 0.177514377566913 161.603476700928 0.483666453540019 53.1541931983282 0.654321816873976 176.67578069192  
                               0.48382488916256 53.1864434522167 0.483666453540034 53.1541931983359 0.729370056492634 131.725658109243 0.000459883046181173 178.684670019379 
                               0.65422463617401 -3.38235903160691 0.654321816873999 176.675780691918 0.000459883046229524 178.684670016434 0.37927970078292 -154.93797678328 
9.45                           0.17770320927921 158.840899344648 0.555331410073326 149.648369858452 0.482380259373291 50.1729832877152 0.653710550546597 -6.17514217371308 
                               0.555331410073265 149.648369858455 0.1777775006923  159.16844320121  0.482224581472082 50.1411607619332 0.653805203697608 173.883074046711 
                               0.482380259373286 50.1729832877066 0.4822245814721  50.1411607619418 0.731279138783689 128.401271958285 0.000454398637706373 175.337909654134 
                               0.653710550546574 -6.17514217371069 0.653805203697634 173.883074046709 0.000454398637761282 175.337909650515 0.381052854085301 -157.59144850932 
9.475                          0.177974936281058 156.409967414953 0.557118864951282 146.870187443398 0.480918257071745 47.1633176280244 0.653192739541837 -8.9620991383501 
                               0.557118864951215 146.870187443401 0.178050390410321 156.734463482595 0.480765496143875 47.1319389956816 0.653284624705329 171.096187021201 
                               0.480918257071739 47.163317628015  0.480765496143894 47.131938995691  0.733200224317561 125.080189548951 0.000448867647764258 172.005180671467 
                               0.653192739541812 -8.96209913834755 0.653284624705357 171.096187021199 0.000448867647823972 172.005180667229 0.382829514874849 -160.241672008161 
9.5                            0.178255541683048 153.979954514103 0.558912663317407 144.097385112686 0.479438841496659 44.1574409820866 0.652671182914864 -11.7433353597712 
                               0.558912663317336 144.09738511269  0.178332638463786 154.301323440833 0.47928915955377 44.1265223547719 0.652760053116681 168.315014926694 
                               0.479438841496653 44.1574409820768 0.479289159553791 44.1265223547817 0.735133070237985 121.76255696262  0.000443294296207209 168.686810508122 
                               0.652671182914838 -11.7433353597686 0.65276005311671 168.315014926692 0.000443294296270018 168.686810503339 0.384609687608111 -162.888697891223 
9.525                          0.178544576372461 151.550656733774 0.560712748257458 141.329817558934 0.47794200933887 41.1553493144163 0.652145859378182 -14.5189542235037 
                               0.560712748257386 141.329817558938 0.17862381238282 151.868821441671 0.477795570920006 41.124906738987  0.652231461327928 165.539455157679 
                               0.477942009338864 41.1553493144063 0.477795570920027 41.124906738997  0.737077384140311 118.448517711989 0.000437682942998676 165.383127210511 
                               0.652145859378155 -14.5189542235011 0.652231461327958 165.539455157677 0.000437682943062956 165.383127205269 0.386393378953312 -165.532576020258 
9.55                           0.178841569541156 149.12188266235  0.562519039189653 138.567343879893 0.476427794285365 38.1570398562605 0.65161674656655 -17.2890571084957 
                               0.56251903918958 138.567343879896 0.178923457634237 149.436768473843 0.476284766218617 38.1270893043241 0.651698820894417 162.76940714976  
                               0.476427794285359 38.1570398562505 0.476284766218638 38.1270893043341 0.739032825860868 115.138212280096 0.000432038110024157 162.094456565922 
                               0.651616746566522 -17.2890571084931 0.651698820894446 162.769407149758 0.000432038110088414 162.094456560322 0.388180597680445 -168.173355534026 
9.575                          0.179146030846982 146.693453499328 0.564331432871562 135.809827578136 0.474896266429568 35.1625109030801 0.651083821011736 -20.0537434346035 
                               0.56433143287149 135.809827578139 0.179231099728001 147.004988258329 0.474756817587831 35.1330682612047 0.651162102524209 160.004772332156 
                               0.474896266429562 35.1625109030704 0.474756817587852 35.1330682612144 0.740999009485466 111.831777656006 0.000426364495804649 158.821118591616 
                               0.651083821011709 -20.053743434601 0.651162102524238 160.004772332154 0.000426364495867547 158.821118585765 0.38997135456021 -170.811084874525 
9.6                            0.179457452537918 144.2652031278   0.566149804456135 133.05713654822  0.473347531553829 32.1717616006496 0.650547058125767 -22.8131107143966 
                               0.566149804456065 133.057136548223 0.17954624628393 144.573317315577 0.473211832604982 32.1428426615427 0.650621276081379 157.245454075784 
                               0.473347531553823 32.1717616006402 0.473211832605003 32.142842661552  0.742975505555658 108.529346870203 0.000420666983075365 155.563423447823 
                               0.65054705812574 -22.8131107143943 0.650621276081407 157.245454075781 0.000420666983135746 155.563423441832 0.391765662270614 -173.445811812679 
9.625                          0.179775311541354 141.836978146563 0.56797400859033 130.309143052444 0.471781730290584 29.1847917219781 0.650006432191344 -25.5672546083378 
                               0.567974008590264 130.309143052447 0.179868389061312 142.141604992243 0.471649953442495 29.1564121768644 0.650076310597474 154.491357637859 
                               0.471781730290579 29.1847917219693 0.471649953442515 29.1564121768732 0.744961843450841 105.231048532549 0.000414950639354623 152.321666845562 
                               0.650006432191318 -25.5672546083357 0.6500763105975  154.491357637857 0.000414950639411522 152.321666839547 0.393563535310149 -176.077583473438 
9.65                           0.180099071520382 139.408637863312 0.569803880550109 127.565723686283 0.470199037169152 26.2016014371599 0.64946191635825 -28.3162689824793 
                               0.569803880550046 127.565723686286 0.180197005953535 139.709713448924 0.470071355910004 26.1737768695729 0.649527174289766 151.74239010387  
                               0.470199037169148 26.2016014371518 0.470071355910023 26.173776869581  0.746957513923799 101.937006375562 0.000409220710779168 149.096125023437 
                               0.649461916358225 -28.3162689824774 0.64952717428979 151.742390103868 0.000409220710831819 149.096125017509 0.39536498991651 -178.706446360207 
9.675                          0.180428184898341 136.98005425034  0.571639237405781 124.826759334492 0.468599659555542 23.2221910781584 0.648913482644653 -31.060245967892 
                               0.571639237405724 124.826759334495 0.180531562949256 137.277517610331 0.468476248390057 23.1949369593498 0.648973834585001 148.998460327695 
                               0.468599659555538 23.2221910781509 0.468476248390075 23.1949369593572 0.748961971767167 98.6473388055581 0.000403482609619515 145.887049368987 
                               0.64891348264463 -31.0602459678903 0.648973834585022 148.998460327694 0.000403482609667351 145.887049363255 0.397170043989903 178.667553621439 
9.7                            0.180762094852233 134.551111864109 0.573479879211945 122.092135118813 0.466983836493001 20.2465609004052 0.648361101942324 -33.799276021132 
                               0.573479879211893 122.092135118816 0.180871516061024 134.844905079265 0.466864870675196 20.2198925865629 0.648416258147494 146.259478870557 
                               0.466983836492998 20.2465609003985 0.466864870675212 20.2198925865696 0.750974638588231 95.3621584640525 0.000397741896008932 142.694660759874 
                               0.648361101942302 -33.7992760211305 0.648416258147513 146.259478870555 0.000397741896051578 142.694660754437 0.398978717020067 176.044371140794 
9.725                          0.181100237274994 132.121707730067 0.575325590216473 119.361740338135 0.46535183745131 17.2747108429856 0.647804744024892 -36.5334479851113 
                               0.575325590216427 119.361740338137 0.181216313221651 132.4117760158   0.465237492714503 17.248643574436  0.647854410910516 143.525357939438 
                               0.465351837451308 17.2747108429797 0.465237492714518 17.2486435744418 0.75299490566974 92.0815718015792 0.000392004254519785 139.519143698105 
                               0.647804744024873 -36.53344798511  0.647854410910532 143.525357939437 0.000392004254557047 139.519143693051 0.400791030016213 173.423961419844 
9.75                           0.181442042705968 129.6917511941   0.577176140083251 116.635468401918 0.463703960993052 14.306640289043  0.647244377558377 -39.2628491498248 
                               0.577176140083211 116.63546840192  0.181565396148022 129.978042983059 0.463594413277882 14.2811891916009 0.647288258110009 140.796011325514 
                               0.46370396099305 14.3066402890379 0.463594413277895 14.2811891916059 0.755022136894755 88.8056786659054 0.000386275466298998 136.360640306804 
                               0.647244377558359 -39.2628491498238 0.647288258110023 140.796011325513 0.000386275466330847 136.36064030221  0.402607005439146 170.806280211915 
9.775                          0.181786938228358 127.261163742017 0.579031285123595 113.91321675762  0.46204053336521 11.3423478279056 0.646679970113299 -41.9875653124477 
                               0.57903128512356 113.913216757622 0.181918202171429 127.543630760998 0.461935958546491 11.3175279165231 0.646717764319799 138.071354343066 
                               0.462040533365209 11.3423478279013 0.461935958546502 11.3175279165273 0.75705567171414 85.5345719063781 0.000380561377529034 133.21924425384  
                               0.646679970113283 -41.9875653124468 0.64671776431981 138.071354343065 0.000380561377555588 133.219244249767 0.404426667134935 168.191283781149 
9.8                            0.182134349331815 124.829878788548 0.580890769531466 111.194886812788 0.460361907024522 8.38183102030257 0.646111488177805 -44.7076808363883 
                               0.580890769531437 111.194886812789 0.182274166033004 125.108476129698 0.460262480637769 8.35765720515197 0.646142893487551 135.351303769305 
                               0.460361907024521 8.38183102029909 0.460262480637778 8.35765720515543 0.759094828136093 82.2683369959197 0.000374867865011529 130.09499466015  
                               0.646111488177791 -44.7076808363877 0.64614289348756 135.351303769304 0.000374867865033032 130.094994656643 0.406250040269536 165.578928882836 
9.825                          0.182483701737848 122.397841437383 0.582754326617866 108.480383852462 0.458668459104988 5.42508616789249 0.645538897171313 -47.4232787089454 
                               0.582754326617842 108.480383852463 0.182632721642242 122.672527623665 0.458574356073533 5.40157326300891 0.645563608970817 132.635777785444 
                               0.458668459104987 5.42508616788971 0.458574356073541 5.40157326301163 0.761138905717957 79.0070516719566 0.000369200799677866 126.987870043106 
                               0.645538897171301 -47.4232787089449 0.645563608970824 132.635777785443 0.000369200799694665 126.987870040193 0.40807715126388 162.969172744603 
9.85                           0.182834423185254 119.965008213851 0.584621680039964 105.769616952444 0.456960589835887 2.47210808818654 0.644962161458268 -50.1344405972786 
                               0.584621680039945 105.769616952445 0.182993303796226 120.235745258794 0.456871984199462 2.4492708227827  0.644979873572622 129.924695919318 
                               0.456960589835887 2.47210808818444 0.456871984199468 2.44927082278476 0.763187188541668 75.7507855973299 0.000363566008815796 123.897782337008 
                               0.644962161458258 -50.1344405972783 0.644979873572626 129.924695919318 0.000363566008828317 123.8977823347   0.409908027728975 160.361973048461 
9.875                          0.183185945172376 117.531346771947 0.58649254502077 103.06249888897  0.455238720918446 -0.477110104193955 0.644381244361685 -52.8412469024613 
                               0.586492545020756 103.06249888897  0.183355349856726 117.798100233657 0.455155785564179 -0.499257071640253 0.644391649576114 127.217978989778 
                               0.455238720918447 -0.477110104195454 0.455155785564183 -0.499257071638793 0.765238948155368 72.4996000420025 0.000357969237765639 120.824571024119 
                               0.644381244361677 -52.8412469024611 0.644391649576117 127.217978989778 0.000357969237774367 120.824571022409 0.411742698400663 157.757287913716 
9.9                            0.183537704652689 115.096835577492 0.588366629555347 100.358946045238 0.453503293869138 -3.42257720912866 0.643796108176245 -55.5437768114361 
                               0.588366629555338 100.358946045239 0.183718301382038 115.359574606947 0.453426200265891 -3.44401927392293 0.643798898777896 124.515549053035 
                               0.453503293869139 -3.42257720912962 0.453426200265894 -3.44401927392199 0.767293446464984 69.2535475861514 0.00035241611178634 117.76799740084  
                               0.643796108176239 -55.543776811436 0.643798898777897 124.515549053035 0.000352416111791791 117.767997399705 0.413581193073718 155.155075880742 
9.925                          0.183889145679959 112.661463569308 0.590243635599792 97.6588783152521 0.451754768337274 -6.36430414482391 0.643206714180749 -58.2421083467488 
                               0.590243635599786 97.6588783152522 0.184081605710203 112.920160952932 0.451683686274254 -6.38502673615832 0.643201582519725 121.817329351094 
                               0.451754768337274 -6.36430414482443 0.451683686274255 -6.38502673615782 0.769349938561028 66.012671844998  0.000346912098723848 114.727738994987 
                               0.643206714180744 -58.2421083467487 0.643201582519725 121.817329351094 0.000346912098726555 114.727738994387 0.415423542535048 152.555295895592 
9.95                           0.1842397209991  110.225229800414 0.59212326023944 94.9622190053439 0.449993620404215 -9.302304143335  0.642613022649839 -60.9363184139808 
                               0.592123260239438 94.9622190053439 0.184444717490072 110.479861996944 0.449928717734785 -9.3222927013737 0.642599661718346 119.123244262346 
                               0.449993620404216 -9.30230414333512 0.449928717734785 -9.32229270137358 0.771407675467302 62.7770072155168 0.000341462473035619 111.703384141986 
                               0.642613022649835 -60.9363184139808 0.642599661718345 119.123244262346 0.000341462473036109 111.703384141869 0.417269778495797 149.957907295458 
9.975                          0.184588893578771 107.788143061303 0.594005196832948 92.2688947337426 0.448220340871159 -12.2365929374041 0.642014992864934 -63.6264828468471 
                               0.594005196832948 92.2688947337424 0.184807100156637 108.03869023296  0.448161783262761 -12.2558328872848 0.641993096893303 116.433219254365 
                               0.448220340871159 -12.236592937404 0.44816178326276 -12.255832887285 0.773465906799755 59.546578644946  0.000336072281639099 108.694426720363 
                               0.642014992864932 -63.6264828468472 0.641993096893301 116.433219254365 0.000336072281637876 108.694426720665 0.419119933522224 147.362869794949 
10                             0.184936138081826 105.350221487497 0.595889136129159 89.5788353284963 0.44643543354197 -15.1671889383635 0.64141258312439 -66.3126764499661 
                               0.595889136129161 89.5788353284961 0.185168227347066 105.596667525465 0.446383384233061 -15.1856656610556 0.641381848192604 113.747180838897 
                               0.44643543354197 -15.1671889383631 0.446383384233059 -15.185665661056 0.775523883325296 56.3214014208187 0.000330746311962804 105.700261040442 
                               0.641412583124388 -66.3126764499661 0.641381848192601 113.747180838897 0.000330746311960337 105.700261041088 0.420974040965266 144.770143473178 
10.025                         0.185280942269839 102.911492153636 0.597774767353857 86.891973724031  0.444639413507106 -18.0941134049803 0.640805750752939 -68.9949730393481 
                               0.59777476735386 86.8919737240306 0.185527584254002 103.153824697859 0.44459403307197 -18.1118122049452 0.640765875416217 111.06505652901  
                               0.444639413507106 -18.0941134049797 0.444594033071967 -18.1118122049457 0.777580859411962 53.1014809820435 0.000325489062489672 102.720176874787 
                               0.640805750752938 -68.9949730393481 0.640765875416214 111.06505652901  0.000325489062486382 102.720176875696 0.422832134888729 142.17968876165  
10.05                          0.185622808338169 100.471990656417 0.599661779263767 84.2082458565953 0.442832805434118 -21.0173906032368 0.640194452110524 -71.6734454806795 
                               0.599661779263771 84.2082458565948 0.185884668912896 100.710201109732 0.442794251556404 -21.034296672838 0.640145138037391 108.38677479833  
                               0.442832805434118 -21.0173906032362 0.442794251556401 -21.0342966728386 0.779636095363439 49.8868127503776 0.000320304715997124 99.7533546148451 
                               0.640194452110524 -71.6734454806795 0.640145138037388 108.38677479833  0.000320304715993378 99.7533546159319 0.424694249996114 139.591466432917 
10.075                         0.185961254178354 98.0317606888041 0.601549861165373 81.5275905588123 0.441016141869701 -23.9370479571593 0.639578642600676 -74.348165725515 
                               0.601549861165378 81.5275905588119 0.186238993420434 98.265844225411  0.440984569125499 -23.953146337773 0.639519595221863 105.71226504225  
                               0.441016141869701 -23.9370479571587 0.440984569125495 -23.9531463377737 0.781688859632505 46.6773819814691 0.000315197115619937 96.7988605354275 
                               0.639578642600676 -74.348165725515 0.639519595221859 105.71226504225  0.000315197115616041 96.7988605366059 0.426560421556102 137.005437589989 
10.1                           0.186295814565017 95.5908536079164 0.603438703896364 78.8499494535331 0.439189961557701 -26.8531161909099 0.638958276678599 -77.0192048455148 
                               0.603438703896369 78.8499494535326 0.186590085081531 95.8208091761966 0.439165521208926 -26.8683917306866 0.638889205845048 103.04145754099  
                               0.4391899615577  -26.8531161909092 0.439165521208922 -26.8683917306872 0.783738430909506 43.4731636344858 0.0003101697437932 93.8556421471943 
                               0.638958276678599 -77.0192048455148 0.638889205845044 103.04145754099  0.000310169743789398 93.8556421483798 0.42843068532675 134.421563656489 
10.125                         0.18662604226496 93.149327999073  0.605328000767761 76.1752668471613 0.437354807776898 -29.7656294624579 0.6383333078592  -79.6866330648891 
                               0.605328000767767 76.1752668471608 0.186937487482773 93.3751583187726 0.437337647575739 -29.7800667706846 0.638253928507356 100.374283424356 
                               0.437354807776897 -29.7656294624573 0.437337647575735 -29.7800667706852 0.785784100083464 40.2741222592075 0.000305225704075595 90.9225236171058 
                               0.6383333078592  -79.6866330648891 0.638253928507352 100.374283424356 0.000305225704072067 90.9225236182188 0.430305077478481 131.839806367518 
10.15                          0.186951509066681 90.7072492384517 0.607217448464999 73.5034896225975 0.435511226701835 -32.6746254892407 0.637703688725288 -82.3505197912335 
                               0.607217448465003 73.5034896225971 0.187280761490779 90.9289607922396 0.435501490706958 -32.6882088872503 0.637613721547795 97.7106746380031 
                               0.435511226701834 -32.6746254892402 0.435501490706954 -32.6882088872508 0.787825172074846 37.0802118993273 0.000300367705809791 87.99820123776   
                               0.637703688725288 -82.3505197912334 0.637613721547792 97.7106746380029 0.000300367705806658 87.9982012387286 0.432183634515974 129.260127761215 
10.175                         0.187271806729171 88.2646890568144 0.609106747906485 70.8345671319306 0.433659765789344 -35.5801456663038 0.637069370936204 -85.0109336449561 
                               0.609106747906489 70.8345671319303 0.187619486174497 88.4822920762336 0.43365759419452 -35.5928591348745 0.63696854305607 95.0505639110396 
                               0.433659765789343 -35.5801456663034 0.433657594194516 -35.5928591348748 0.789860967540389 33.891376010594  0.000295598051548253 85.0812389285109 
                               0.637069370936205 -85.0109336449559 0.636968543056067 95.0505639110394 0.000295598051545581 85.0812389292733 0.434066393199052 126.682490171006 
10.2                           0.1875865478495  85.8217251067078 0.610995605058396 68.1684510889849 0.431800972192876 -38.4822351774892 0.636430305237158 -87.6679424875134 
                               0.6109956050584  68.1684510889845 0.18795325965112 86.0352335525435 0.431806501168667 -38.4940623006697 0.636318350883391 92.3938847247375 
                               0.431800972192875 -38.4822351774889 0.431806501168664 -38.49406230067  0.791890824451589 30.7075473923261 0.00029091862716022 82.1700637540283 
                               0.636430305237159 -87.6679424875133 0.636318350883389 92.3938847247373 0.000290918627158027 82.1700637545354 0.435953390462712 124.106856218504 
10.225                         0.187895366649443 83.3784405354928 0.612883731704704 65.5050954618167 0.429935391206171 -41.3809431003041 0.635786441469567 -90.3216134486811 
                               0.612883731704706 65.5050954618164 0.188281699855979 83.5878720725834 0.429948752755255 -41.3918670055956 0.635663102652242 89.7405712821488 
                               0.42993539120617 -41.380943100304 0.429948752755252 -41.3918670055957 0.793914099549699 27.5286481307421 0.000286330894539582 79.2629614492809 
                               0.635786441469567 -90.3216134486809 0.635663102652241 89.7405712821486 0.000286330894537844 79.2629614494975 0.437844663336391 121.533188807049 
10.25                          0.188197919682112 80.9349235664626 0.614770846171643 62.8444563652381 0.428063564737246 -44.2763225051639 0.635137728582682 -92.972012953097 
                               0.614770846171644 62.8444563652379 0.188604445237491 81.1402995329919 0.428084886563932 -44.2863257999778 0.635002755765364 87.0905584783928 
                               0.428063564737245 -44.2763225051639 0.42808488656393 -44.2863257999778 0.79593016968106 24.354589552476  0.000281835886854247 76.3580719434742 
                               0.635137728582682 -92.9720129530968 0.635002755765363 87.0905584783926 0.00028183588685291 76.3580719433809 0.43974024886262 118.961451115887 
10.275                         0.188493886460309 78.4912670902093 0.616656674006109 60.1864919534329 0.426186029813172 -47.1684305497501 0.634484114646818 -95.6192067463191 
                               0.61665667400611 60.1864919534327 0.188921155378949 78.6926124615255 0.426215435207625 -47.177495254052 0.634337267414216 84.4437818713856 
                               0.42618602981317 -47.1684305497502 0.426215435207622 -47.1774952540518 0.797938433017584 21.1852721865938 0.000277434206315364 73.4533848789436 
                               0.634484114646817 -95.6192067463189 0.634337267414215 84.4437818713854 0.000277434206314354 73.4533848785376 0.441640184015156 116.391606594944 
10.3                           0.188782970009093 76.0475682682606 0.618540948607651 57.5311623127184 0.424303317115586 -50.0573285692668 0.633825546868468 -98.2632599206428 
                               0.618540948607651 57.5311623127183 0.189231511549684 76.2449116152786 0.424340924853245 -50.0654360443043 0.633666594587209 81.8001776527762 
                               0.424303317115585 -50.057328569267 0.424340924853244 -50.065436044304 0.79993831016801 18.0205857333721 0.000273126024499268 70.546735123999  
                               0.633825546868467 -98.2632599206425 0.63366659458721 81.800177652776  0.000273126024498498 70.5467351232942 0.443544505616709 113.82361896021  
10.325                         0.189064897345767 73.6039281508588 0.620423411813977 54.8784293544972 0.422415949546456 -52.9430821634105 0.633161971607627 -100.904236940924 
                               0.620423411813976 54.8784293544971 0.18953521718884 73.797301593118  0.422461873803091 -52.95021303641  0.63299069407798 79.1596826188535 
                               0.422415949546454 -52.9430821634108 0.422461873803089 -52.9502130364097 0.801929245186254 14.8604090380765 0.000268911085325857 67.6357982808771 
                               0.633161971607625 -100.904236940924 0.632990694077981 79.1596826188532 0.000268911085325238 67.6357982799034 0.445453250256332 111.257452189704 
10.35                          0.189339419891216 71.160451310579  0.622303814440123 52.2282567084348 0.420524440823111 -55.8257612808927 0.632493334397586 -103.542201670652 
                               0.622303814440121 52.2282567084347 0.189831998325686 71.349890464041  0.420578791105943 -55.8318953655944 0.63230952249399 76.5222341411938 
                               0.420524440823109 -55.8257612808931 0.420578791105942 -55.831895365594 0.803910706483767 11.704610067949  0.000264788710883766 64.7180861908876 
                               0.632493334397585 -103.542201670652 0.632309522493991 76.5222341411936 0.000264788710883217 64.7180861896901 0.447366454206549 108.693070520019 
10.375                         0.189606313817195 68.7172454932881 0.624181916771608 49.5806096158905 0.418629294101215 -58.7054403023722 0.63181957996752 -106.177217398509 
                               0.624181916771605 49.5806096158905 0.190121603941067 68.9027894129764 0.418692175196505 -58.7105565152555 0.631623036265745 73.8877701368195 
                               0.418629294101214 -58.7054403023726 0.418692175196504 -58.7105565152551 0.805882187653238 8.55304589060916 0.000260757810394239 61.7909424381844 
                               0.631819579967518 -106.177217398509 0.631623036265746 73.8877701368194 0.000260757810393693 61.7909424368217 0.449284153340232 106.130438443438 
10.4                           0.189865380334805 66.2744212877385 0.626057489012144 46.9354548236257 0.416731000623948 -61.5821981226582 0.631140652268101 -108.809346865653 
                               0.626057489012141 46.9354548236257 0.190403806275161 66.4561124053398 0.416802512561415 -61.5862743946951 0.630931191656899 71.2562290376497 
                               0.416731000623947 -61.5821981226586 0.416802512561415 -61.5862743946946 0.807843208211346 5.40556265207448 0.000256816892721101 58.8515378510553 
                               0.6311406522681  -108.809346865653 0.630931191656901 71.2562290376495 0.000256816892720512 58.851537849597  0.451206383047254 103.569520705614 
10.425                         0.190116445929924 63.8320918148623 0.627930311686652 44.2927604778071 0.414830038395331 -64.45611823305  0.63045649450043 -111.438652293938 
                               0.627930311686649 44.2927604778071 0.190678401087312 64.0099758714274 0.414910276429778 -64.4591314168013 0.630233944775525 68.6275497590312 
                               0.41483003839533 -64.4561182330504 0.414910276429779 -64.4591314168008 0.809793314268425 2.261995552621   0.000252964082962177 55.8968659950025 
                               0.630456494500428 -111.438652293938 0.630233944775527 68.627549759031  0.000252964082961524 55.8968659935263 0.453133178150848 101.010282303816 
10.45                          0.190359362551885 61.3903724375947 0.629800176000516 41.6524960183212 0.412926870875368 -67.3272888046685 0.62976704914851 -114.065195415296 
                               0.629800176000512 41.6524960183212 0.19094520787412 61.5644984114982 0.413015925485847 -67.3292145765194 0.62953125158681 66.0016716671524 
                               0.412926870875368 -67.3272888046689 0.413015925485848 -67.329214576519 0.81173207913303 -0.877831181273527 0.00024919714379624 52.9237386451501 
                               0.629767049148508 -114.065195415296 0.629531251586811 66.0016716671523 0.000249197143795529 52.923738643738  0.455064572823622 98.452688485746  
10.475                         0.190594007762067 58.9493804918075 0.631666884156198 39.0146320734128 0.411021945694396 -70.1958027736215 0.629072258015495 -116.689037502461 
                               0.631666884156195 39.0146320734128 0.191204070052418 59.1198005221428 0.411119902601248 -70.1966155309321 0.628823067927437 63.3785345451519 
                               0.411021945694396 -70.1958027736218 0.411119902601249 -70.1966155309318 0.813659103859333 -4.01410433062689 0.000245513502406792 49.9287812168724 
                               0.629072258015493 -116.689037502461 0.628823067927438 63.3785345451518 0.000245513502406055 49.9287812156072 0.457000600503077 95.8967047489133 
10.5                           0.190820284849402 56.5092350386777 0.633530249628512 36.3791403546603 0.40911569338382 -73.0617579288232 0.628372062263928 -119.310239401238 
                               0.63353024962851 36.3791403546603 0.191454855114047 56.6760043442874 0.409222633583937 -73.0614306817447 0.628109349521884 60.7580785577527 
                               0.40911569338382 -73.0617579288235 0.409222633583938 -73.0614306817444 0.815574017745121 -7.14702172496903 0.000241910283956949 46.9084281235457 
                               0.628372062263927 -119.310239401237 0.628109349521886 60.7580785577526 0.000241910283956244 46.9084281225066 0.458941293806485 93.3422968405999 
10.525                         0.191038122920027 54.0700566385593 0.63539009739998 33.7459935523002 0.407208526120273 -75.92525700326  0.62766640246014 -121.928861564461 
                               0.635390097399978 33.7459935523002 0.191697454759569 54.2332334329181 0.407324525940899 -75.9237612609452 0.627390052000882 58.140244214269  
                               0.407208526120274 -75.9252570032602 0.4073245259409  -75.9237612609451 0.817476478787957 -10.2767922923065 0.000238384352744984 43.858918020009  
                               0.627666402460138 -121.928861564461 0.627390052000884 58.140244214269  0.000238384352744388 43.8589180192676 0.460886684444873 90.789430758404  
10.55                          0.191247476968422 51.6319671461654 0.63724626415788 31.1151652309164 0.405300836480059 -78.7864077694571 0.626955218622995 -124.544964087807 
                               0.637246264157878 31.1151652309163 0.191931785018179 51.7916125483542 0.405425967651473 -78.78371342037  0.62666513092224 55.5249723298501 
                               0.405300836480059 -78.7864077694571 0.405425967651474 -78.7837134203699 0.819366174106628 -13.4036361196011 0.000234932362323565 40.7762888813388 
                               0.626955218622994 -124.544964087807 0.626665130922242 55.5249723298501 0.000234932362323164 40.776288880954  0.462836803135849 88.2380727513885 
10.575                         0.191448327937425 49.1950895266098 0.639098598454695 28.486629725507  0.403392996200663 -81.6453231398666 0.626238450277117 -127.158606747577 
                               0.639098598454694 28.4866297255069 0.192157786361102 49.3512674686366 0.403527325948104 -81.6413983258661 0.625934541794235 52.9122039848463 
                               0.403392996200664 -81.6453231398665 0.403527325948105 -81.6413983258662 0.821242820334622 -16.5277845252625 0.00023155081601252 37.6563728613809 
                               0.626238450277116 -127.158606747577 0.625934541794237 52.9122039848463 0.000231550816012407 37.6563728613959 0.464791679514928 85.6881893218457 
10.6                           0.191640682774431 46.759547691608  0.640946960833798 25.8603620379516 0.401485354946074 -84.5021212728415 0.62551603651072 -129.769849040554 
                               0.640946960833798 25.8603620379515 0.192375423815685 46.9123248223473 0.401628946101252 -84.4969322566923 0.625198240101769 50.3018804822054 
                               0.401485354946075 -84.5021212728414 0.401628946101253 -84.4969322566924 0.823106163991734 -19.649480145073 0.000228236139369472 34.4947908776964 
                               0.625516036510719 -129.769849040554 0.62519824010177 50.3018804822054 0.000228236139369727 34.4947908781344 0.466751342044952 83.1397472277024 
10.625                         0.191824574490915 44.3254663548899 0.642791223922321 23.236337733899  0.399578239072592 -87.3569256848141 0.62478791603816 -132.378750226027 
                               0.642791223922322 23.2363377338988 0.19258468708723 44.4749119409286 0.39973115020519 -87.3504367107465 0.624456181335441 47.6939433028268 
                               0.399578239072593 -87.3569256848138 0.399731150205191 -87.3504367107468 0.824955981839328 -22.7689770328835 0.000224984766298287 31.2869468840095 
                               0.62478791603816 -132.378750226027 0.624456181335442 47.6939433028268 0.000224984766298975 31.2869468848711 0.468715817923147 80.5927134855868 
10.65                          0.192000062232174 41.8929709056464 0.644631272493236 20.6145328401045 0.397671950391859 -90.2098653692353 0.624054027267274 -134.985369370023 
                               0.644631272493238 20.6145328401044 0.19278559069534 42.0391567293342 0.397834235961432 -90.2020385161508 0.623708321023711 45.0883340588284 
                               0.397671950391861 -90.2098653692351 0.397834235961434 -90.2020385161511 0.826792081223974 -25.8865407773203 0.000221793240564963 28.0280218244258 
                               0.624054027267274 -134.985369370023 0.623708321023711 45.0883340588284 0.000221793240566114 28.0280218256869 0.470685132985293 78.0470553745871 
10.675                         0.192167231363805 39.4621872986127 0.646467003498744 17.9949237422505 0.395766764927867 -93.0610749227699 0.623314308371565 -137.589765391803 
                               0.646467003498746 17.9949237422503 0.192978174131196 39.6051875536258 0.395938475456585 -93.0518699496557 0.622954614768282 42.4849944447029 
                               0.395766764927869 -93.0610749227695 0.395938475456586 -93.051869949656 0.828614300413412 -29.002448635645 0.00021865833454587 24.7129673240474 
                               0.623314308371566 -137.589765391803 0.622954614768283 42.4849944447028 0.000218658334547472 24.7129673256582 0.472659311606408 75.5027404407329 
10.7                           0.192326193581036 37.033241959186  0.648298326077148 15.3774870832866 0.393862931664789 -95.9106946791712 0.622568697367301 -140.1919971126  
                               0.648298326077151 15.3774870832864 0.19316250204176 37.1731331439182 0.394044113931511 -95.9000688622627 0.622195018282838 39.883866186366  
                               0.39386293166479 -95.9106946791708 0.394044113931511 -95.9000688622631 0.83042250892785 -32.1169896857998 0.000215577187045301 21.3364992689017 
                               0.622568697367302 -140.1919971126  0.622195018282838 39.883866186366  0.000215577187047292 21.3364992707869 0.474638376597299 72.9597365022343 
10.725                         0.192477087046501 34.6062617017945 0.650125161535404 12.7621996623399 0.391960671282602 -98.7588708511859 0.621817132195506 -142.792123306613 
                               0.650125161535407 12.7621996623396 0.193338664446358 34.7431225108935 0.39215136853881 -98.7467788123819 0.621429487435237 37.2848909881284 
                               0.391960671282604 -98.7588708511855 0.392151368538811 -98.7467788123823 0.83221660786867 -35.2304649975482 0.000212547461977292 17.8930915776284 
                               0.621817132195508 -142.792123306613 0.621429487435238 37.2848909881282 0.000212547461979547 17.8930915796884 0.476622349096246 70.418011655519  
10.75                          0.192620076561483 32.1813736595673 0.651947443309591 10.149038334244  0.390060174877615 -101.605755680761 0.621059550808892 -145.390202754181 
                               0.651947443309595 10.1490383342436 0.19350677699054 32.3152848739319 0.390260427085791 -101.592149206768 0.620657978293284 34.6880104776426 
                               0.390060174877616 -101.605755680761 0.390260427085792 -101.592149206769 0.83399653024551 -38.3431878235008 0.000209567529598226 14.3769706841476 
                               0.621059550808894 -145.390202754181 0.620657978293284 34.6880104776424 0.000209567529600564 14.3769706862623 0.478611248455039 67.8775342821091 
10.775                         0.192755353775039 29.7587052232164 0.65376511690555 7.53797990975246 0.388161602665178 -104.451507597738 0.620295891263677 -147.986294297083 
                               0.653765116905553 7.53797990975206 0.193666981241474 29.889749598767  0.388371446760265 -104.436335449388 0.619880447174136 32.0931661489136 
                               0.388161602665179 -104.451507597738 0.388371446760265 -104.436335449388 0.835762241301614 -41.4554838106682 0.000206636671786028 10.7821115532385 
                               0.62029589126368 -147.986294297082 0.619880447174136 32.0931661489134 0.000206636671788202 10.7821115552708 0.480605092118514 65.3382730563877 
10.8                           0.192883137434737 27.3383839869204 0.655578139821922 4.92900105650409 0.386265082662122 -107.296291387131 0.619526091816298 -150.580456895849 
                               0.655578139821926 4.92900105650368 0.193819445028429 27.4666461424471 0.386484552836757 -107.279499098288 0.619096850697458 29.5002993034784 
                               0.386265082662122 -107.296291387131 0.386484552836758 -107.279499098288 0.837513738836106 -44.5676912330452 0.000203755312567906 7.1022364602317  
                               0.619526091816301 -150.580456895849 0.619096850697458 29.5002993034781 0.000203755312569618 7.10223646203364 0.48260389549666 62.800196954301  
10.825                         0.19300367368206 24.9205376989097 0.657386481457844 2.32207820081918 0.384370709346646 -110.140278364992 0.618750091024949 -153.172749688969 
                               0.657386481457847 2.32207820081878 0.193964362831219 25.0461040032891 0.384599837360959 -110.121808030431 0.618307145842369 26.9093509898943 
                               0.384370709346646 -110.140278364992 0.384599837360959 -110.121808030431 0.839251053520592 -47.6801612455618 0.000200925274673376 3.33081830323165 
                               0.618750091024952 -153.172749688968 0.61830714584237 26.9093509898939 0.000200925274674288 3.33081830465144 0.484607671828334 60.2632752630561 
10.85                          0.193117236394797 22.5052942143825 0.659190123007458 -0.282812569583384 0.382478542293743 -112.983646562764 0.617967827855907 -155.763232053818 
                               0.659190123007461 -0.282812569583814 0.194101956218719 22.628252673441  0.382717357810535 -112.963436614374 0.617511290008255 24.3202619417027 
                               0.382478542293743 -112.983646562764 0.382717357810535 -112.963436614374 0.840974249206128 -50.7932581595694 0.000198150062292832 -0.538909099402034 
                               0.61796782785591 -155.763232053817 0.617511290008256 24.3202619417022 0.000198150062292583 -0.538909098511846 0.486616432035534 57.7274775918687 
10.875                         0.193224127578053 20.0927814483395 0.660989057343426 -2.88569560185284 0.380588604784503 -115.826580919924 0.617179241794578 -158.351963669135 
                               0.660989057343428 -2.88569560185325 0.194232474338837 20.2132215916203 0.380837135730757 -115.80456589056 0.6167092410795  21.7329725140572 
                               0.380588604784503 -115.826580919924 0.380837135730757 -115.80456589056 0.842683423215191 -53.9073597398408 0.0001954351693993 -4.51393042985553 
                               0.617179241794581 -158.351963669135 0.616709241079501 21.7329725140567 0.000195435169397535 -4.51393042962912 0.488630184567133 55.1927738838247 
10.9                           0.193324677804783 17.683127325911  0.662783288891506 -5.48659577314568 0.378700882388059 -118.669273484591 0.616384272961196 -160.939004578826 
                               0.662783288891507 -5.48659577314605 0.194356194460588 17.8011400935831 0.378959155343772 -118.645383758867 0.615900957494184 19.1474226192412 
                               0.378700882388058 -118.669273484591 0.378959155343772 -118.645383758867 0.844378706611747 -57.0228575228577 0.000192788411867218 -8.60141371283555 
                               0.616384272961199 -160.939004578826 0.615900957494186 19.1474226192405 0.000192788411863616 -8.60141371338426 0.490648935230939 52.6591344289221 
10.925                         0.193419246706085 15.2764597277552 0.664572833498224 -8.08553858452186 0.376815321515303 -121.511923621687 0.615582862231096 -163.524415256853 
                               0.664572833498224 -8.0855385845222 0.1944734225682  15.3921373578775 0.37708336213075 -121.486085172977 0.615086398316812 16.5635516613174 
                               0.376815321515301 -121.511923621688 0.377083362130751 -121.486085172977 0.846060264440941 -60.140157155943 0.000190220280098784 -12.8086551534341 
                               0.615582862231099 -163.524415256853 0.615086398316813 16.5635516613167 0.000190220280093094 -12.8086551548364 0.492672687012871 50.1265298783595 
10.95                          0.193508223510823 12.8729064281464 0.666357718293575 -10.6825502534668 0.374931827943986 -124.354738228079 0.614774951359487 -166.108256672943 
                               0.666357718293574 -10.6825502534671 0.194584494006497 12.9863423444746 0.375209661386599 -124.326872340961 0.614265523315093 13.9812984701866 
                               0.374931827943984 -124.35473822808 0.3752096613866  -124.32687234096 0.847728295928238 -63.2596787565486 0.000187744306824289 -17.1429973636184 
                               0.614774951359491 -166.108256672942 0.614265523315095 13.9812984701858 0.000187744306816368 -17.1429973659098 0.494701439882015 47.5949312601486 
10.975                         0.193592027633602 10.4725950234254 0.668137981550574 -13.2776578049011 0.373050265315309 -127.19793195404 0.613960483110648 -168.690590358818 
                               0.668137981550572 -13.2776578049013 0.1946897741762  10.5838837239249 0.373337916747455 -127.167954931396 0.613438293040856 11.4006012353531 
                               0.373050265315307 -127.197931954041 0.373337916747456 -127.167954931395 0.849383034626058 -66.3818572907503 0.000185377442039864 -21.6117132759695 
                               0.613960483110652 -168.690590358817 0.613438293040859 11.4006012353523 0.000185377442029715 -21.6117132791333 0.496735190580281 45.0643099961214 
11                             0.193671109309505 8.07565284856815 0.669913672543382 -15.8708891605259 0.371170453602676 -130.041727430204 0.613139401391458 -171.271478474623 
                               0.669913672543379 -15.8708891605261 0.194789659277164 8.1848897947673  0.371467948691726 -130.00955028417 0.612604668915123 8.8213974397233  
                               0.371170453602672 -130.041727430205 0.371467948691727 -130.009550284169 0.85102474849403 -69.5071429697101 0.000183140423549925 -26.2218472751187 
                               0.613139401391461 -171.271478474622 0.612604668915126 8.82139743972242 0.000183140423537733 -26.221847279077 0.498773932395348 42.534637920416  
11.025                         0.193745950273634 5.68220687972967 0.671684851405617 -18.4622732263435 0.369292167553917 -132.886355499069 0.612311651389207 -173.850983875205 
                               0.671684851405613 -18.4622732263437 0.194884577097125 5.78948838702415 0.369599533016078 -132.851883624994 0.611764613317405 6.24362379378765 
                               0.369292167553914 -132.88635549907 0.369599533016079 -132.851883624993 0.852653739897008 -72.6360016625492 0.000181058127199648 -30.9800049988501 
                               0.61231165138921 -173.850983875204 0.611764613317408 6.2436237937868  0.000181058127185809 -30.9800050034558 0.500817654915559 40.0058872995201 
11.05                          0.193817064483028 3.2923836207416  0.673451588990312 -21.0518399781804 0.367415135109007 -135.732055449941 0.611477179713601 -176.429170175867 
                               0.673451588990308 -21.0518399781804 0.194974987843069 3.39780674973487 0.367732399288483 -135.695188282508 0.6109180896793  3.66721617055945 
                               0.367415135109003 -135.732055449942 0.367732399288484 -135.695188282507 0.854270345502814 -75.7689153237297 0.000179159875630445 -35.8920843807355 
                               0.611477179713604 -176.429170175866 0.610918089679304 3.66721617055866 0.000179159875615591 -35.8920843857665 0.502866343765406 37.4780308539585 
11.075                         0.193884998878321 0.906308971679326 0.675213966732857 -23.6396205450278 0.365539035796035 -138.579075256068 0.610635934542914 -179.006101817209 
                               0.675213966732853 -23.6396205450278 0.195061385012052 1.00997142062307 0.365866229281189 -138.539705906704 0.61006506258244 1.09210954166898 
                               0.365539035796031 -138.579075256069 0.365866229281191 -138.539705906702 0.855874936059397 -78.9063824326543 0.000177479678487968 -40.9629434679934 
                               0.610635934542917 -179.006101817208 0.610065062582444 1.09210954166827 0.000177479678472972 -40.9629434731486 0.50491998032024 34.9510417817124 
11.1                           0.193950334182272 -1.47589192223425 0.676972076518102 -26.2256472900085 0.363663499109128 -141.427671812543 0.609787865774232 178.41815587138  
                               0.676972076518098 -26.2256472900085 0.195144296298045 -1.37389192385382 0.364000655387372 -141.385686687253 0.609205497860876 -1.48176208496908 
                               0.363663499109125 -141.427671812544 0.364000655387373 -141.385686687252 0.857467916028667 -82.048918442776 0.000176056371004449 -46.1960060604455 
                               0.609787865774234 178.418155871381 0.609205497860879 -1.48176208496969 0.000176056370990423 -46.1960060653444 0.506978541398832 32.4248937834593 
11.125                         0.194013685732245 -3.85409484295626 0.678726020552655 -28.8099538887612 0.361788102872933 -144.2781111734  0.608932925177748 175.843536610005 
                               0.67872602055265 -28.8099538887612 0.195224284531292 -3.75365863965401 0.362135259026158 -144.23338957013 0.608339362707997 -4.05446572547286 
                               0.361788102872931 -144.2781111734  0.362135259026159 -144.233389570129 0.859049723051634 -85.1970562370395 0.000174933612765806 -51.5928148846785 
                               0.608932925177751 175.843536610006 0.608339362708   -4.05446572547335 0.000174933612754071 -51.592814888865 0.509041998932428 29.8995610897259 
11.15                          0.194075704343755 -6.22817669458045 0.680475911243234 -31.392575405029 0.35991237159939 -147.130668786139 0.608071066555094 173.269973108796 
                               0.680475911243231 -31.3925754050289 0.195301948646684 -6.1292053089049 0.3602695690418  -147.083082470782 0.607466625788073 -6.62606947783505 
                               0.359912371599389 -147.130668786139 0.360269569041801 -147.083082470782 0.86062082721671 -88.35134658596  0.000174159705791699 -57.1525540478159 
                               0.608071066555096 173.269973108796 0.607466625788076 -6.62606947783529 0.000174159705783746 -57.1525540507688 0.511110319608937 27.375018490049  
11.175                         0.194137077202337 -8.59801572214206 0.682221871081777 -33.9735483632239 0.358035774843714 -149.985629721742 0.607202245901687 170.697397011164 
                               0.682221871081776 -33.9735483632239 0.195377924677753 -8.50040995748151 0.358403060103945 -149.935042481911 0.60658725735255 -9.19664257680835 
                               0.358035774843713 -149.985629721742 0.358403060103946 -149.935042481911 0.862181730100069 -91.5123586040799 0.000173787192811479 -62.8715772928621 
                               0.60720224590169 170.697397011164 0.606587257352552 -9.19664257680837 0.0001737871928089 -62.8715772940133 0.513183464490957 24.8512413642383 
11.2                           0.194198528781297 -10.963491755313 0.683964032537823 -36.5529108177329 0.356157725567847 -152.843288898047 0.606326421573109 168.125738840293 
                               0.683964032537823 -36.5529108177328 0.195452886773183 -10.8671522974442 0.356535151117272 -152.789556073744 0.605701229361208 -11.7662554453397 
                               0.356157725567848 -152.843288898047 0.356535151117273 -152.789556073744 0.863732963543765 -94.6806801999125 0.000173872204990931 -68.7429942086272 
                               0.606326421573111 168.125738840293 0.60570122936121 -11.7662554453395 0.000173872204995327 -68.7429942073904 0.515261388606323 22.3282057158369 
11.225                         0.194260821783278 -13.3244864778493 0.685702537958512 -39.1307024187163 0.354277578521141 -155.703951294157 0.605443554455523 165.554927949372 
                               0.685702537958515 -39.1307024187163 0.19552754823309 -13.2293139951831 0.354665203650212 -155.646919284492 0.604808515608341 -14.3349797420367 
                               0.354277578521144 -155.703951294156 0.354665203650211 -155.646919284492 0.865275088133932 -97.8569185137879 0.000174473545072105 -74.7563795752686 
                               0.605443554455526 165.554927949372 0.604808515608341 -14.3349797420362 0.00017447354508498 -74.7563795710801 0.517344040509983 19.8058882078791 
11.25                          0.194324758104098 -15.6808837234819 0.687437539476377 -41.7069644741442 0.352394628649658 -158.567932153364 0.604553608140192 162.984892476114 
                               0.687437539476384 -41.7069644741442 0.195602662562851 -15.5867789659342 0.352792520394079 -158.507437898501 0.603909091854103 -16.9028884041384 
                               0.352394628649663 -158.567932153363 0.352792520394078 -158.507437898502 0.866808691337806 -101.041700337252 0.000175651517242244 -80.8976766498846 
                               0.604553608140195 162.984892476113 0.603909091854102 -16.9028884041375 0.000175651517264876 -80.8976766422576 0.519431361816008 17.2842662010409 
11.275                         0.194391179817975 -18.0325697987776 0.689169198924897 -44.281740007805 0.350508109547334 -161.435557171848 0.603656549102133 160.415559302104 
                               0.689169198924907 -44.2817400078052 0.195679024542895 -17.9394336951593 0.350916343665721 -161.371427609401 0.603002935961193 -19.470055685449 
                               0.350508109547341 -161.435557171846 0.35091634366572 -161.371427609404 0.868334385254497 -104.235672506827 0.000177466546930754 -87.1493583093202 
                               0.603656549102136 160.415559302103 0.603002935961191 -19.4700556854478 0.000177466546964047 -87.1493582979117 0.52152328669866 14.7633177942804 
11.3                           0.194460970183959 -20.3794338333417 0.690897687761605 -46.8550738130103 0.348617191964247 -164.307162670207 0.602752346882999 157.846854017542 
                               0.690897687761619 -46.8550738130105 0.195757471313621 -20.2871675871152 0.349035853968741 -164.239214165363 0.60209002803707 -22.0365571886783 
                               0.348617191964256 -164.307162670205 0.349035853968738 -164.239214165366 0.8698528039304  -107.439502264013 0.000179977666989922 -93.490887079919 
                               0.602752346883003 157.846854017541 0.602090028037066 -22.0365571886767 0.000179977667034245 -93.4908870646078 0.523619741361505 12.2430218680681 
11.325                         0.194535054674307 -22.7213681576028 0.692623186998374 -49.4270125017142 0.346720982389446 -167.183095744681 0.601840974278275 155.278700891949 
                               0.692623186998392 -49.4270125017145 0.195838883475499 -22.6298733407942 0.347150168630479 -167.111133493372 0.60117035058188 -24.6024698916242 
                               0.346720982389457 -167.183095744677 0.347150168630476 -167.111133493376 0.871364600185965 -110.653877572385 0.000183240973561158 -99.899476623797 
                               0.601840974278279 155.278700891948 0.601170350581874 -24.6024698916223 0.000183240973616166 -99.8994766047675 0.525720643473682 9.72335813029834 
11.35                          0.194614402026456 -25.0582687082948 0.694345887138282 -51.9976045487551 0.344818521728254 -170.063714394671 0.600922407528888 152.711022851425 
                               0.694345887138304 -51.9976045487555 0.195924186205385 -24.9674473532813 0.345258340534323 -169.987531799228 0.600243888642321 -27.1678721666226 
                               0.344818521728266 -170.063714394666 0.345258340534319 -169.987531799233 0.872870441896146 -113.879507381541 0.000187308166762221 -106.351109117639 
                               0.600922407528892 152.711022851423 0.600243888642314 -27.1678721666204 0.000187308166826647 -106.351109095466 0.527825901572547 7.20430716498038 
11.375                         0.194700025321345 -27.3900354616628 0.696065988118309 -54.5669003309224 0.34290878409658 -172.949387623007 0.599996626517372 150.143741463043 
                               0.696065988118333 -54.5669003309228 0.196014350391198 -27.2997901504738 0.343359356969403 -172.868765639793 0.599310629971655 -29.732843792684 
                               0.342908784096594 -172.949387623002 0.343359356969398 -172.868765639798 0.87437100766233 -117.117121826413 0.000192225281667421 -112.821716031901 
                               0.599996626517377 150.14374146304  0.599310629971647 -29.7328437926818 0.00019222528173884 -112.821716007623 0.529935414432053 4.68585048379826 
11.4                           0.194792983091965 -29.7165728943417 0.697783699256893 -57.1349521605392 0.340990675757693 -175.840495505152 0.59906361496871 147.576776926979 
                               0.697783699256919 -57.1349521605397 0.196110393788278 -29.6268068450167 0.341452138622552 -175.755201963797 0.598370565196097 -32.2974659597273 
                               0.340990675757707 -175.840495505148 0.341452138622547 -175.755201963802 0.875866981809004 -120.367472349128 0.000198031682471382 -119.288396845352 
                               0.599063614968714 147.576776926977 0.598370565196088 -32.297465959725 0.000198031682545916 -119.288396820537 0.532049070396359 2.16797058063119 
11.425                         0.194894380467271 -32.0377904718193 0.699499239205238 -59.7018143132522 0.339063034230015 -178.73742922337 0.598123360656003 145.01004807699  
                               0.699499239205263 -59.7018143132527 0.196213382202048 -31.9484076212619 0.339535538740372 -178.647218117354 0.597423687987821 -34.8618212643201 
                               0.339063034230029 -178.737429223365 0.339535538740367 -178.647218117359 0.877359048633809 -123.631331729185 0.000204759342303349 -125.730541054959 
                               0.598123360656007 145.010048076987 0.597423687987812 -34.8618212643179 0.000204759342375294 -125.730541031741 0.534166746678364 -0.34934901088149 
11.45                          0.195005370357879 -34.3536031643811 0.70121283590103 -62.2675430497076 0.337124627597855 178.359408938329 0.597175855611124 142.443472389819 
                               0.70121283590105 -62.267543049708 0.196324430702956 -34.2645082470277 0.337608342492419 178.454798189829 0.596469995244815 -37.4259936963334 
                               0.337124627597867 178.359408938333 0.337608342492415 178.454798189824 0.878847885835168 -126.909494006109 0.000212432373365324 -132.13073624402 
                               0.597175855611127 142.443472389817 0.596469995244808 -37.4259936963314 0.000212432373426674 -132.130736225113 0.536288308623008 -2.86612365664773 
11.475                         0.195127154691353 -36.6639319904567 0.702924726523075 -64.8321966307895 0.335174154060597 175.449605642786 0.596221096340521 139.876966004164 
                               0.702924726523088 -64.8321966307897 0.196444704881119 -36.5750306119514 0.335669266569973 175.550448961735 0.595509487277836 -39.990068615913 
                               0.335174154060605 175.449605642788 0.33566926656997 175.550448961733 0.88033415703744 -130.202774277099 0.000221066719425545 -138.475383440426 
                               0.596221096340524 139.876966004163 0.595509487277831 -39.9900686159117 0.000221066719465369 -138.475383429112 0.538413608935407 -5.38236755822532 
11.5                           0.195260985706312 -38.9687045873457 0.704635157445199 -67.3958353260938 0.333210241759646 172.532736596355 0.595259084046314 137.310443749787 
                               0.704635157445198 -67.3958353260936 0.196575422149582 -38.8799032922711 0.333716959058401 172.639326041107 0.594542168004683 -42.5541327201799 
                               0.333210241759648 172.532736596355 0.3337169590584  172.639326041106 0.881818503329736 -133.512008350369 0.000230669885762074 -144.754989145195 
                               0.595259084046316 137.310443749787 0.594542168004682 -42.5541327201795 0.00023066988576572 -144.754989145277 0.540542486874101 -7.89809368564905 
