! Generated from PyAEDT SolutionData; AEDT ExportNetworkData workaround
# GHz S MA R 50
9 0.486979982269 23.5309933036 0.271639651221 -46.2278430464 0.546794160679 -5.51977759969 0.624562681082 43.4029564862 0.271639651221 -46.2278430464 0.486932696708 23.5940443531 0.546543723053 -5.45603781255 0.624818699747 -136.542617893 0.546794160679 -5.51977759969 0.546543723053 -5.45603781255 0.634275955347 169.158722778 0.000342207996242 101.543952117 0.624562681082 43.4029564862 0.624818699747 -136.542617893 0.000342207996241 101.543952117 0.468532744577 -149.663521511
9.025 0.484956266514 20.472157959 0.27114245019 -49.8837881319 0.549237947881 -10.1097114579 0.624209039555 40.5431865652 0.27114245019 -49.8837881319 0.484924410563 20.5342071489 0.548981430175 -10.0461416033 0.62445940022 -139.401810174 0.549237947881 -10.1097114579 0.548981430175 -10.0461416033 0.630045969948 163.256399709 0.000347993228366 96.1363633376 0.624209039555 40.5431865652 0.62445940022 -139.401810174 0.000347993228372 96.1363633378 0.4694820654 -152.320067665
9.05 0.482967333119 17.424490515 0.270678992364 -53.5262056646 0.551621095688 -14.6856225741 0.623850683443 37.6910703271 0.270678992364 -53.5262056646 0.482951389567 17.485656473 0.551358165253 -14.6222155981 0.624095419482 -142.253306764 0.551621095688 -14.6856225741 0.551358165253 -14.6222155981 0.625874945721 157.371375855 0.000353657574032 90.7237163093 0.623850683443 37.6910703271 0.624095419482 -142.253306764 0.00035365757404 90.7237163096 0.47044139391 -154.971264179
9.075 0.481011681469 14.3876105612 0.270249661674 -57.1554812813 0.553945938924 -19.2476323465 0.623487641794 34.8464681163 0.270249661674 -57.1554812814 0.481012121233 14.4480194379 0.55367625704 -19.184379935 0.623726808125 -145.097247101 0.553945938924 -19.2476323465 0.55367625704 -19.184379935 0.621761572789 151.503968664 0.00035919572722 85.3064412097 0.623487641794 34.8464681163 0.623726808125 -145.097247101 0.000359195727228 85.3064412099 0.471410541482 -157.617215015
9.1 0.479087683843 11.3611568521 0.269854765694 -60.7720106511 0.556214864129 -23.7958750355 0.623119941994 32.0092435486 0.269854765694 -60.7720106511 0.479104965102 11.4209422326 0.555938086412 -23.7327675946 0.623353614601 -147.933767346 0.556214864129 -23.7958750355 0.555938086412 -23.7327675946 0.617704209125 145.6544447 0.00036460272473 79.8849054314 0.623119941994 32.0092435486 0.623353614601 -147.933767346 0.000364602724736 79.8849054316 0.472389325595 -160.25802179
9.125 0.47719360363 8.34478792685 0.269494530481 -64.3761971186 0.558430297723 -28.3304973101 0.622747609736 29.1792634121 0.269494530481 -64.3761971186 0.477228170958 8.40409073698 0.558146074532 -28.2675239493 0.622975885391 -150.763000499 0.558430297723 -28.3304973101 0.558146074532 -28.2675239493 0.613700914465 139.823022609 0.000369873920569 74.4594136809 0.622747609736 29.1792634121 0.622975885391 -150.763000499 0.000369873920572 74.459413681 0.47337756958 -162.893783844
9.15 0.475327612341 5.33818261049 0.269169097135 -67.9684495234 0.560594694787 -32.8516578002 0.622370669004 26.3563975695 0.269169097135 -67.9684495234 0.475379895823 5.39715101664 0.560302671641 -32.7888063163 0.622593665144 -153.5850765 0.560594694787 -32.8516578002 0.560302671641 -32.7888063163 0.609749482001 134.009875635 0.000375004960181 69.0302085624 0.622370669004 26.3563975695 0.622593665144 -153.5850765 0.000375004960181 69.0302085625 0.474375102376 -165.524598311
9.175 0.473487805489 2.34104040673 0.268878519796 -71.5491801857 0.562710528484 -37.3595266541 0.621989142069 23.5405188632 0.268878519796 -71.5491801857 0.473558219851 2.39982971029 0.562410346475 -37.2967835168 0.622206996801 -156.400122343 0.562710528484 -37.3595266541 0.562410346475 -37.2967835168 0.605847467883 128.215133741 0.00037999175523 63.597471539 0.621989142069 23.5405188632 0.622206996801 -156.400122343 0.000379991755227 63.597471539 0.475381758314 -168.150560185
9.2 0.471672217416 -0.64691820612 0.268622764859 -75.1188030495 0.564780280084 -41.8542850993 0.621603049498 20.7315030213 0.268622764859 -75.1188030495 0.471761161153 -0.588145680773 0.564471576301 -41.7916354387 0.621815921705 -159.208262172 0.564780280084 -41.8542850993 0.564471576301 -41.7916354387 0.601992218593 122.438885354 0.000384830459532 58.1613241637 0.621603049498 20.7315030213 0.621815921705 -159.208262172 0.000384830459527 58.1613241637 0.476397376905 -170.771762386
9.225 0.469878835143 -3.6259515669 0.268401711173 -78.6777319763 0.566806429607 -46.3361250077 0.621212410174 17.9292285676 0.268401711173 -78.6777319763 0.469986689665 -3.56702659086 0.566488837556 -46.2735526028 0.621420479689 -162.009617381 0.566806429607 -46.3361250077 0.566488837556 -46.2735526028 0.598180896286 116.681178814 0.000389517446614 52.721829483 0.621212410174 17.9292285676 0.621420479689 -162.009617381 0.000389517446607 52.721829483 0.477421802647 -173.388295823
9.25 0.468105611307 -6.59629670216 0.268215151054 -82.2263791794 0.56879144705 -50.8052484627 0.620817241323 15.1335767329 0.268215151054 -82.2263791794 0.46823274011 -6.53704326718 0.568464597074 -50.7427357319 0.621020709156 -164.804306713 0.56879144705 -50.8052484627 0.568464597074 -50.7427357319 0.594410502228 110.942023553 0.000394049289236 47.2789935229 0.620817241323 15.1335767329 0.621020709156 -164.804306713 0.000394049289227 47.2789935229 0.478454884847 -176.000249457
9.275 0.466350476275 -9.55816926771 0.268062791942 -85.7651537922 0.570737784195 -55.2618673308 0.620417558541 12.3444313696 0.268062791942 -85.7651537922 0.466497224128 -9.4984047183 0.570401303895 -55.1993953229 0.620616647147 -167.592446347 0.570737784195 -55.2618673308 0.570401303895 -55.1993953229 0.590677898461 105.221391062 0.000398422741138 41.8327667787 0.620417558541 12.3444313696 0.620616647147 -167.592446347 0.000398422741129 41.8327667787 0.47949647745 -178.607710357
9.3 0.464611349467 -12.5117635537 0.267944258564 -89.2944605621 0.572647866969 -59.7062028343 0.620013375842 9.5616788683 0.267944258564 -89.2944605621 0.464778041642 -12.4512987265 0.572301381622 -59.6437512223 0.620208329387 -170.374149995 0.572647866969 -59.7062028343 0.572301381622 -59.6437512223 0.586979827841 99.5192156843 0.000402634721135 36.383045639 0.620013375842 9.56167886829 0.620208329387 -170.374149995 0.000402634721126 36.383045639 0.480546438882 178.789236235
9.325 0.462886149987 -15.4572525469 0.267859095491 -92.8146986628 0.574524088346 -64.1384851288 0.619604705694 6.78520807732 0.267859095491 -92.8146986628 0.463073091518 -15.3958919172 0.574167221318 -64.0760322039 0.619795790335 -173.149528978 0.574524088346 -64.1384851288 0.574167221318 -64.0760322039 0.583312932589 93.8353952806 0.00040668229962 30.9296736866 0.619604705694 6.78520807732 0.619795790335 -173.149528978 0.000406682299611 30.9296736867 0.481604631907 176.190506854
9.35 0.461172806589 -18.3947880439 0.26780676998 -96.3262606173 0.576368801759 -68.5589528829 0.619191559067 4.0149102251 0.26780676998 -96.3262606173 0.461380281577 -18.33232988 0.576001174921 -68.4964755508 0.619379063218 -175.91869232 0.576368801759 -68.5589528829 0.576001174921 -68.4964755508 0.579673771509 88.1697917937 0.000410562687454 25.4724428283 0.619191559067 4.0149102251 0.619379063218 -175.91869232 0.000410562687446 25.4724428283 0.482670923485 173.596019756
9.375 0.459469267047 -21.3245008097 0.267786675019 -99.8295313248 0.578184315013 -72.9678528624 0.618773945484 1.25067884471 0.267786675019 -99.8295313248 0.459697538011 -21.2607373351 0.577805549148 -72.9053266406 0.618958180051 -178.681746818 0.578184315013 -72.9678528624 0.577805549148 -72.9053266406 0.576058835984 82.522231755 0.000414273227175 20.0110942153 0.618773945484 1.25067884471 0.618958180051 -178.681746818 0.000414273227168 20.0110942154 0.483745184651 171.00569486
9.4 0.457773506976 -24.2465007774 0.26779813251 -103.324887184 0.579972884665 -77.3654395189 0.618351873071 -1.50759029881 0.26779813251 -103.324887184 0.458022814259 -24.1812183402 0.57958259987 -77.3028385351 0.618533171658 178.561202871 0.579972884665 -77.3654395189 0.57958259987 -77.3028385351 0.572464564895 76.8925067525 0.000417811386415 14.5453189265 0.618351873071 -1.50759029881 0.618533171658 178.561202871 0.000417811386409 14.5453189266 0.484827290391 168.419453702
9.425 0.456083538149 -27.1608772836 0.267840396528 -106.812695308 0.581736710848 -81.7519745829 0.617925348607 -4.25999927872 0.267840396528 -106.812695308 0.456354099376 -27.0938565346 0.581334526938 -81.6892715756 0.618104067684 175.810054165 0.581736710848 -81.7519745829 0.581334526938 -81.6892715756 0.568887358568 71.2803738842 0.000421174753391 9.07475839185 0.617925348607 -4.25999927872 0.618104067684 175.810054165 0.000421174753387 9.07475839189 0.485917119533 165.837219383
9.45 0.454397416353 -30.0676993356 0.267912656605 -110.293312818 0.583477932527 -86.127726663 0.617494377584 -7.00664807442 0.267912656605 -110.293312818 0.454689425949 -29.998715414 0.583063469426 -86.0648929827 0.617670896597 173.064706478 0.583477932527 -86.127726663 0.583063469426 -86.0648929827 0.565323591853 65.685556215 0.000424361034354 3.59900454254 0.617494377584 -7.00664807442 0.617670896597 173.064706478 0.000424361034351 3.59900454256 0.487014554645 163.258916518
9.475 0.452713248815 -32.9670159072 0.268014041014 -113.767086225 0.585198623148 -90.4929708515 0.617058964253 -9.74763463699 0.268014041014 -113.767086225 0.453026877598 -32.8958386349 0.584771501282 -90.4299764634 0.617233685684 170.325061155 0.585198623148 -90.4929708515 0.584771501282 -90.4299764634 0.561769626436 60.1077432486 0.000427368052841 -1.88240032171 0.617058964253 -9.74763463699 0.617233685684 170.325061155 0.000427368052839 -1.8824003217 0.488119481936 160.68447119
9.5 0.451029201256 -35.8588562594 0.268143620017 -117.234350867 0.586900786669 -94.8479883363 0.616619111687 -12.4830549525 0.268143620017 -117.234350867 0.451364596085 -35.7852503431 0.586460627347 -94.7848018248 0.61679246105 167.591021405 0.586900786669 -94.8479883363 0.586460627347 -94.7848018248 0.558221822452 54.5465914245 0.00043019375065 -7.36996395298 0.616619111687 -12.4830549525 0.61679246105 167.591021405 0.000430193750649 -7.36996395298 0.489231791168 158.113810905
9.525 0.449343504585 -38.7432302833 0.268300409052 -120.695430428 0.58858635394 -99.1930660221 0.616174821831 -15.2130031031 0.268300409052 -120.695430428 0.449700788085 -38.6669555249 0.588132779732 -99.1296545956 0.616347247602 164.862492236 0.58858635394 -99.1930660221 0.588132779732 -99.1296545956 0.554676549495 49.0017246424 0.000432836190447 -12.8642448652 0.616174821831 -15.2130031031 0.616347247602 164.862492236 0.000432836190447 -12.8642448652 0.490351375569 155.546864547
9.55 0.44765446127 -41.6201288628 0.268483371855 -124.150636506 0.590257179415 -103.528496158 0.615726095558 -17.9375713264 0.268483371855 -124.150636506 0.448033731635 -41.5409403782 0.589789814527 -103.464825656 0.615898069033 162.139380394 0.590257179415 -103.528496158 0.589789814527 -103.464825656 0.551130197071 43.4727348175 0.000435293559966 -18.365853334 0.615726095558 -17.9375713264 0.615898069033 162.139380394 0.000435293559966 -18.365853334 0.491478131756 152.983562332
9.575 0.445960451432 -44.4895242544 0.268691423498 -127.600268241 0.59191503817 -107.854575977 0.615272932723 -20.6568500723 0.268691423498 -127.600268241 0.446361782299 -44.4071727001 0.591433508805 -107.790610878 0.615444947804 159.421594306 0.59191503817 -107.854575977 0.591433508805 -107.790610878 0.547579184569 37.959182463 0.000437564177814 -23.8754526854 0.615272932723 -20.6568500723 0.615444947804 159.421594306 0.000437564177816 -23.8754526855 0.492611959658 150.423835769
9.6 0.444259938664 -47.351370484 0.268923433335 -131.044611988 0.593561623211 -112.171607341 0.61481533222 -23.370928059 0.268923433335 -131.044611988 0.444683379071 -47.2656022923 0.59306555793 -112.107310773 0.614987905121 156.709044021 0.593561623211 -112.171607341 0.59306555793 -112.107310773 0.54401997079 32.4605972968 0.000439646500925 -29.3937608734 0.61481533222 -23.370928059 0.614987905121 156.709044021 0.000439646500926 -29.3937608735 0.493752762451 147.867617616
9.625 0.442551475623 -50.2056037576 0.269178227868 -134.483941039 0.595198543039 -116.479896404 0.614353292031 -26.0798923261 0.269178227868 -134.483941039 0.442997050046 -50.1161613797 0.594687573111 -116.415230149 0.614526960906 154.001641157 0.595198543039 -116.479896404 0.594687573111 -116.415230149 0.54044906309 26.9764788647 0.000441539133756 -34.9215523453 0.614353292031 -26.0798923261 0.614526960906 154.001641157 0.000441539133758 -34.9215523453 0.494900446488 145.314841841
9.65 0.440833709416 -53.0521428873 0.269454593522 -137.918515384 0.596827319465 -120.779753275 0.613886809282 -28.7838282873 0.269454593522 -137.918515384 0.441301417885 -52.9587650438 0.596301079211 -120.714677789 0.614062133771 151.299298848 0.596827319465 -120.779753275 0.596301079211 -120.714677789 0.536863026183 21.5062971733 0.000443240839404 -40.459660197 0.613886809282 -28.7838282873 0.614062133771 151.299298848 0.000443240839406 -40.459660197 0.49605492124 142.765443587
9.675 0.439105386789 -55.8908897306 0.269751279328 -141.348581499 0.598449385649 -125.071491704 0.613415880296 -31.4828197806 0.269751279328 -141.348581499 0.439595205097 -55.7933116708 0.597907512777 -125.005966123 0.613593440986 148.601931694 0.598449385649 -125.071491704 0.597907512777 -125.005966123 0.533258490639 16.0494933222 0.000444750552803 -46.0089786208 0.613415880296 -31.4828197806 0.613593440986 148.601931694 0.000444750552805 -46.0089786208 0.497216099235 140.219359126
9.7 0.43736535917 -58.7217296454 0.270066999546 -144.774372176 0.600066084342 -129.355428774 0.61294050064 -34.1769491181 0.270066999546 -144.774372176 0.43787723915 -58.6196834139 0.599508220276 -129.289410929 0.613120898447 145.909455715 0.600066084342 -129.355428774 0.599508220276 -129.289410929 0.529632161118 10.6054801273 0.000446067396301 -51.5704656496 0.61294050064 -34.1769491181 0.613120898447 145.909455715 0.000446067396303 -51.5704656495 0.498383896008 137.67652583
9.725 0.435612587556 -61.5445319604 0.270400436201 -148.196106368 0.601678666326 -133.631884604 0.612460665178 -36.8662971334 0.270400436201 -148.196106368 0.436146457457 -61.4377466707 0.60110445652 -133.565331035 0.61264452064 143.221788299 0.601678666326 -133.631884604 0.60110445652 -133.565331035 0.525980824388 5.17364272387 0.000447190697874 -57.1451462036 0.612460665178 -36.8662971334 0.61264452064 143.221788299 0.000447190697876 -57.1451462035 0.499558230043 135.136882131
9.75 0.433846147292 -64.3591504636 0.270750241573 -151.613989059 0.603288289015 -137.901182069 0.611976368117 -39.5509432291 0.270750241573 -151.613989059 0.434401912226 -64.2473525799 0.602697383263 -137.834048041 0.612164320609 140.538848166 0.603288289015 -137.901182069 0.602697383263 -137.834048041 0.522301357156 -0.246660860986 0.000448120012359 -62.7341154468 0.611976368117 -39.5509432291 0.612164320609 140.538848166 0.000448120012361 -62.7341154467 0.500739022726 132.600367489
9.775 0.432065232746 -67.1654239115 0.271115040636 -155.028211152 0.604896015231 -142.163646532 0.611487603058 -42.230965422 0.271115040636 -155.028211152 0.432642775215 -67.0483375367 0.604288067961 -142.095886052 0.611680309919 137.86055532 0.604896015231 -142.163646532 0.604288067961 -142.095886052 0.518590733751 -5.65609917458 0.000448855146081 -68.3385424596 0.611487603058 -42.230965422 0.611680309919 137.86055532 0.000448855146083 -68.3385424595 0.501926198296 130.066922357
9.8 0.430269161891 -69.9631765616 0.271493433456 -158.438949365 0.606502812111 -146.419605588 0.610994363037 -44.9064403883 0.271493433456 -158.438949365 0.430868342402 -69.8405237328 0.605877482672 -146.351171419 0.611192498621 135.186831009 0.606502812111 -146.419605588 0.605877482672 -146.351171419 0.514846033713 -11.0553668544 0.000449396185323 -73.959674235 0.610994363037 -44.9064403883 0.611192498621 135.186831009 0.000449396185325 -73.9596742349 0.503119683804 127.536488146
9.825 0.428457380832 -72.7522187342 0.271883997581 -161.846366136 0.608109550161 -150.669388824 0.610496640569 -47.577443507 0.271883997581 -161.846366136 0.429078038574 -72.6237197245 0.607466503092 -150.600232501 0.610700895217 132.51759769 0.608109550161 -150.669388824 0.607466503092 -150.600232501 0.511064449308 -16.445184201 0.000449743529131 -79.5988400028 0.610496640569 -47.577443507 0.610700895217 132.51759769 0.000449743529133 -79.5988400027 0.50431940906 125.009007197
9.85 0.426629468262 -75.5323474075 0.272285290423 -165.250609536 0.609717002427 -154.913327587 0.609994427688 -50.2440489035 0.272285290423 -165.250609536 0.427271421865 -75.3977210333 0.609055907715 -154.843399442 0.610205506624 129.852778987 0.609717002427 -154.913327587 0.609055907715 -154.843399442 0.507243293036 -21.8262968151 0.000449897926976 -85.2574558824 0.609994427688 -50.2440489035 0.610205506624 129.852778987 0.000449897926977 -85.2574558823 0.505525306601 122.484422749
9.875 0.424785139878 -78.303346852 0.272695851643 -168.65181317 0.611325843784 -159.151754781 0.609487715989 -52.9063294913 0.272695851643 -168.65181317 0.425448188234 -78.1623107869 0.610646377107 -159.081003952 0.609706338147 127.192299659 0.611325843784 -159.151754781 0.610646377107 -159.081003952 0.503380005156 -27.1994753062 0.000449860521869 -90.9370298606 0.609487715989 -52.9063294913 0.609706338147 127.192299659 0.00044986052187 -90.9370298604 0.506737311641 119.962678907
9.9 0.422924252752 -81.0649893134 0.273114205585 -172.050096087 0.612936650338 -163.385004657 0.608976496659 -55.5643570138 0.273114205585 -172.050096087 0.4236081759 -80.9172604065 0.612238493287 -163.313379113 0.609203393444 124.536085567 0.612936650338 -163.385004657 0.612238493287 -163.313379113 0.499472161297 -32.5655150761 0.000449632899555 -96.6391670797 0.608976496659 -55.5643570138 0.609203393444 124.536085567 0.000449632899556 -96.6391670796 0.507955362037 117.443720615
9.925 0.421046809661 -83.8170357501 0.273538863751 -175.445562669 0.614549898924 -167.61341264 0.60846076051 -58.2182020853 0.273538863751 -175.445562669 0.421751369722 -83.6623303491 0.613832739209 -167.540859196 0.6086966745 121.884063636 0.614549898924 -167.61341264 0.613832739209 -167.540859196 0.495517480185 -37.9252361819 0.000449217144479 -102.365575413 0.60846076051 -58.2182020853 0.6086966745 121.884063636 0.00044921714448 -102.365575412 0.509179398244 114.927493626
9.95 0.41915296337 -86.5592366366 0.273968327349 -178.838302514 0.616165966715 -171.837315154 0.607940498006 -60.8679342313 0.273968327349 -178.838302514 0.41987790554 -86.3972709147 0.615429498347 -171.763779492 0.608186181599 119.236161833 0.616165966715 -171.837315154 0.615429498347 -171.763779492 0.491513831553 -43.2794832811 0.000448615903266 -108.118071281 0.607940498006 -60.8679342313 0.608186181599 119.236161833 0.000448615903267 -108.118071281 0.51040936328 112.413944474
9.975 0.41724302086 -89.2913328428 0.274401089945 177.771609699 0.617785130915 -176.057049475 0.60741569929 -63.513621928 0.274401089945 177.771609699 0.417988074438 -89.1218231285 0.617029054368 -175.98247616 0.607671913308 116.59230913 0.617785130915 -176.057049475 0.617029054368 -175.98247616 0.487459244275 -48.6291256576 0.000447832456526 -113.898585657 0.60741569929 -63.513621928 0.607671913308 116.59230913 0.000447832456526 -113.898585657 0.511645202688 109.90302045
10 0.41531744749 -92.013056601 0.274835640226 174.384114369 0.619407568567 179.727046408 0.606886354203 -66.155332642 0.274835640226 174.384114369 0.416082326941 -91.8357197097 0.618631590908 179.802713909 0.607153866458 113.95243548 0.619407568567 179.727046408 0.618631590908 179.802713909 0.483351914797 -53.97505733 0.000446870799852 -119.709170161 0.606886354203 -66.155332642 0.607153866458 113.95243548 0.000446870799851 -119.709170161 0.512886864492 107.394669574
10.025 0.413376871062 -94.7241325738 0.275270464924 170.999167155 0.621033356445 175.514633908 0.606352452294 -68.7931328689 0.275270464924 170.999167155 0.414161277104 -94.5386861408 0.620237191445 175.591453208 0.606632036131 111.31647179 0.621033356445 175.514633908 0.620237191445 175.591453208 0.479190215905 -59.3181972381 0.000445735734954 -125.55200312 0.606352452294 -68.7931328689 0.606632036131 111.31647179 0.000445735734954 -125.55200312 0.514134299166 104.88884057
10.05 0.411422085758 -97.4242790375 0.275704051908 167.616739182 0.622662471062 171.305373947 0.605813982834 -71.4270881719 0.275704051908 167.616739182 0.412225706464 -97.2304418495 0.621845839263 171.383403722 0.606106415655 108.684349894 0.622662471062 171.305373947 0.621845839263 171.383403722 0.474972705891 -64.6594895041 0.000444432971929 -131.429395438 0.605813982834 -71.4270881719 0.606106415656 108.684349894 0.000444432971928 -131.429395438 0.515387459589 102.385482839
10.075 0.409454055917 -100.113209195 0.27613489349 164.236817285 0.624294788778 167.09892703 0.605270934818 -74.0572632194 0.27613489349 164.236817285 0.410276567816 -99.9107015204 0.623457417533 167.178227002 0.605576996605 106.056002531 0.624294788778 167.09892703 0.623457417533 167.178227002 0.470698138186 -69.9999037621 0.000442969243721 -137.343796038 0.605270934818 -74.0572632194 0.605576996605 106.056002531 0.00044296924372 -137.343796038 0.516646301009 99.8845464412
10.1 0.407473919592 -102.790632638 0.276561489978 160.859404282 0.625930086031 162.89495331 0.60472329696 -76.6837218231 0.276561489978 160.859404282 0.408314988764 -102.579176551 0.625071709499 162.975584236 0.605043768806 103.431363322 0.625930086031 162.89495331 0.625071709499 162.975584236 0.466365471503 -75.3404355482 0.000441352433897 -143.297796595 0.60472329696 -76.6837218231 0.605043768806 103.431363322 0.000441352433895 -143.297796595 0.517910781003 97.3859820658
10.125 0.405482991828 -105.456256966 0.276982353501 157.484519292 0.627568039682 158.69311263 0.604171057684 -79.3065269747 0.276982353501 157.484519292 0.406342274976 -105.235576669 0.626688398783 158.775136285 0.604506720352 100.810366744 0.627568039682 158.69311263 0.626688398783 158.775136285 0.461973880561 -80.6821067415 0.000439591718862 -149.294135191 0.604171057684 -79.3065269747 0.604506720352 100.810366744 0.000439591718859 -149.294135191 0.519180859436 94.8897410137
10.15 0.403482767585 -108.109789598 0.277396012165 154.112198084 0.629208227507 154.493064538 0.603614205106 -81.9257408831 0.277396012165 154.112198084 0.404359913076 -107.879611728 0.628307069827 154.576543703 0.603965837626 98.1929481157 0.629208227507 154.493064538 0.628307069827 154.576543703 0.457522767425 -86.0259660431 0.000437697725651 -155.335698408 0.603614205106 -81.9257408831 0.603965837626 98.1929481157 0.000437697725649 -155.335698407 0.52045649842 92.3957751734
10.175 0.401474924229 -110.750939773 0.27780101457 150.742493477 0.63085012883 150.294468278 0.603052727008 -84.5414250107 0.27780101457 150.742493477 0.402369573081 -110.510993702 0.62992720847 150.379466732 0.603421105334 95.5790435716 0.63085012883 150.294468278 0.62992720847 150.379466732 0.453011773535 -91.3730894776 0.000435682706392 -161.425521284 0.603052727008 -84.5414250107 0.603421105334 95.5790435716 0.00043568270639 -161.425521284 0.521737662273 89.9040370003
10.2 0.399461323474 -113.379420775 0.278195934735 147.375475784 0.632493125314 146.096982753 0.602486610802 -87.1536401095 0.278195934735 147.375475784 0.400373110289 -113.129438894 0.631548202684 146.183565267 0.602872506541 92.968590046 0.632493125314 146.096982753 0.631548202684 146.183565267 0.448440792455 -96.7245809004 0.00043356073038 -167.566784396 0.602486610802 -87.1536401095 0.602872506541 92.968590046 0.000433560730378 -167.566784396 0.523024317471 87.414479496
10.225 0.397444012681 -115.994952396 0.278579377495 144.011233301 0.63413650194 141.900266463 0.60191584349 -89.7624462567 0.278579377495 144.011233301 0.398372566491 -115.734670378 0.633169343477 141.988498789 0.60232002273 90.3615252533 0.63413650194 141.900266463 0.633169343477 141.988498789 0.443809983385 -102.081572487 0.000431347894541 -173.762807174 0.60191584349 -89.7624462567 0.60232002273 90.3615252533 0.000431347894539 -173.762807174 0.524316432609 84.9270561886
10.25 0.395425225359 -118.597263652 0.278949984411 140.64987285 0.635779448168 137.703977398 0.601340411609 -92.3679028903 0.278949984411 140.64987285 0.39637017039 -118.326420689 0.634789825995 137.793926272 0.601763633859 87.7577876707 0.635779448168 137.703977398 0.634789825995 137.793926272 0.439119785486 -107.445225183 0.000429062552684 179.982963621 0.601340411609 -92.3679028903 0.601763633859 87.7577876707 0.000429062552682 179.982963621 0.525613978349 82.4417211133
10.275 0.393407380748 -121.186095773 0.279306440263 137.291520366 0.637421059323 133.507772904 0.600760301165 -94.9700688433 0.279306440263 137.291520366 0.394368337072 -120.904434786 0.636408750811 133.599506048 0.601203318437 85.1573165207 0.637421059323 133.507772904 0.636408750811 133.599506048 0.434370933013 -112.816729074 0.000426725563464 173.666971527 0.600760301165 -94.9700688433 0.601203318437 85.1573165207 0.000426725563462 173.666971527 0.526916927376 79.9584287934
10.3 0.391393082309 -123.761205481 0.279647480194 133.936321542 0.639060338203 129.311309499 0.600175497564 -97.569002379 0.279647480194 133.936321542 0.392369666378 -123.468473298 0.638025125456 129.404895626 0.600639053613 82.5600517545 0.639060338203 129.311309499 0.638025125456 129.404895626 0.429564471308 -118.197303654 0.000424360556264 167.285575604 0.600175497564 -97.569002379 0.600639053613 82.5600517545 0.000424360556263 167.285575604 0.528225254343 77.4771342223
10.325 0.389385114938 -126.322368574 0.279971897566 130.584442528 0.640696196953 125.114242652 0.599585985522 -100.164761224 0.279971897566 130.584442528 0.390376939979 -126.018316057 0.639637866184 125.209751471 0.600070815274 79.9659340355 0.640696196953 125.114242652 0.639637866184 125.209751471 0.42470177362 -123.588197932 0.000421994213254 160.835084925 0.599585985522 -100.164761224 0.600070815274 79.9659340355 0.000421994213253 160.835084925 0.529538935822 74.9977928455
10.35 0.387386440728 -128.869383824 0.280278552634 127.236070669 0.64232745921 120.916226493 0.598991748973 -102.757402603 0.280278552634 127.236070669 0.388393116993 -128.553765955 0.641245800013 121.013728733 0.599498578159 77.3749047234 0.64232745921 120.916226493 0.641245800013 121.013728733 0.419784558766 -128.990690345 0.000419656564594 154.311804202 0.598991748973 -102.757402603 0.599498578159 77.3749047234 0.000419656564593 154.311804202 0.53085795025 72.5203605439
10.375 0.385400193053 -131.402077201 0.28056638209 123.891415314 0.643952862554 116.71691348 0.598392770955 -105.346983269 0.28056638209 123.891415314 0.386421327905 -131.0746531 0.64284766705 116.816480904 0.59892231599 74.7869058579 0.643952862554 116.71691348 0.64284766705 116.816480904 0.414814909591 -134.40608839 0.000417381292173 147.712092515 0.598392770955 -105.346983269 0.59892231599 74.7869058579 0.000417381292173 147.712092515 0.532182277867 70.0447936165
10.4 0.383429668751 -133.920306424 0.280834409613 120.550708658 0.645571061286 112.515953988 0.597789033488 -107.933559539 0.280834409613 120.550708658 0.384464866578 -133.580839304 0.644442123132 112.617659421 0.598342001616 72.2018801427 0.645571061286 112.515953988 0.644442123132 112.617659421 0.409795292179 -139.835727932 0.000415206035242 141.032437121 0.597789033488 -107.933559539 0.598342001616 72.2018801427 0.000415206035242 141.032437121 0.533511900662 67.5710487645
10.425 0.381478318173 -136.423965843 0.28108175751 117.214206638 0.647180629553 108.312995825 0.597180517442 -110.517187325 0.28108175751 117.214206638 0.382527180121 -136.072222886 0.646027742807 108.416913191 0.597757607175 69.6197709301 0.647180629553 108.312995825 0.646027742807 108.416913191 0.404728575733 -145.280972078 0.000413172688941 134.26954418 0.597180517442 -110.517187325 0.597757607175 69.6197709301 0.000413172688941 134.26954418 0.534846802306 65.0990830754
10.45 0.379549732832 -138.912991651 0.28130765958 113.882189881 0.64878006486 104.107683658 0.596567202384 -113.097922161 0.28130765958 113.882189881 0.380611856346 -138.548743784 0.647603022678 104.21388802 0.597169104272 67.040522204 0.64878006486 104.107683658 0.647603022678 104.21388802 0.399618053041 -150.743209534 0.000411327684001 127.420447805 0.596567202384 -113.097922161 0.597169104272 67.040522204 0.000411327684002 127.420447805 0.536186968088 62.6288540078
10.475 0.377647630386 -141.387367402 0.281511475335 110.55496468 0.65036779198 99.8996583497 0.595949066413 -115.67581924 0.281511475335 110.55496468 0.378722608559 -141.010388977 0.649166385124 100.008225962 0.596576464173 64.4640785633 0.65036779198 99.8996583497 0.649166385124 100.008225962 0.394467461372 -156.223852315 0.00040972223296 120.482638133 0.595949066413 -115.67581924 0.596576464173 64.4640785633 0.000409722232962 120.482638133 0.537532384845 60.160319376
10.5 0.375775836678 -143.847129834 0.281692705733 107.232864008 0.651942167302 95.6885561709 0.595326085983 -118.250933438 0.281692705733 107.232864008 0.3768632574 -143.457198182 0.65071618245 95.7995645411 0.595979658026 61.8903852054 0.651942167302 95.6885561709 0.65071618245 95.7995645411 0.389281003638 -161.724332674 0.000408412525284 113.454207963 0.595326085983 -118.250933438 0.595979658026 61.8903852054 0.000408412525285 113.454207963 0.538883040892 57.693437336
10.525 0.373938264527 -146.292374965 0.281851010605 103.916248567 0.653501483628 91.4740078977 0.594698235702 -120.823319346 0.281851010605 103.916248567 0.375037709449 -145.889269812 0.652250701455 91.5875358589 0.595378657095 59.3193879075 0.653501483628 91.4740078977 0.652250701455 91.5875358589 0.384063369611 -167.246099084 0.00040745985118 106.33401586 0.594698235702 -120.823319346 0.595378657095 59.3193879075 0.000407459851181 106.33401586 0.54023892594 55.2281663706
10.55 0.372138888979 -148.723264425 0.281986227965 100.605507842 0.655043975459 87.255637757 0.594065488121 -123.393031296 0.281986227965 100.605507842 0.373249932282 -148.306767156 0.653768168466 87.3717655538 0.594773433019 56.7510330088 0.655043975459 87.255637757 0.653768168466 87.3717655538 0.37881975692 -172.790611098 0.000406930632118 99.1218614716 0.594065488121 -123.393031296 0.594773433019 56.7510330088 0.000406930632119 99.1218614715 0.541600031022 52.7644652762
10.575 0.370381718696 -151.140031997 0.282098395437 97.3010611693 0.656567824788 83.0330622107 0.593427813505 -125.960123388 0.282098395437 97.3010611693 0.371503925685 -150.709924745 0.655266754854 83.151871599 0.594163958091 54.1852673902 0.656567824788 83.0330622107 0.655266754854 83.151871599 0.373555891507 -178.359332851 0.000406896335717 91.8186661764 0.593427813505 -125.960123388 0.594163958091 54.1852673902 0.000406896335718 91.8186661763 0.542966348406 50.3022931486
10.6 0.368670763162 -153.542990305 0.282187774067 94.0033587851 0.658071167418 78.8058885503 0.592785179576 -128.524649517 0.282187774067 94.0033587851 0.369803688707 -153.099054844 0.656744583036 78.9274629137 0.593550205566 51.6220384539 0.658071167418 78.8058885503 0.656744583036 78.9274629137 0.368278047155 176.04627503 0.000407433254517 84.426649223 0.592785179576 -128.524649517 0.593550205566 51.6220384539 0.000407433254517 84.426649223 0.544337871501 47.8416093701
10.625 0.36700999537 -155.932537611 0.282254874816 90.71288285 0.659552099838 74.5737132782 0.592137551243 -131.086663399 0.282254874816 90.71288285 0.368153182208 -155.474554031 0.658199733006 74.6981377621 0.592932149993 49.0612941014 0.659552099838 74.5737132782 0.658199733006 74.6981377621 0.362993063619 170.424765397 0.000408622132875 76.9494865755 0.592137551243 -131.086663399 0.592932149993 49.0612941014 0.000408622132875 76.9494865755 0.545714594773 45.3823735965
10.65 0.365403309666 -158.309164645 0.282300488084 87.430148414 0.661008686659 70.3361202415 0.591484890311 -133.646218588 0.282300488084 87.430148414 0.366556286589 -157.836909781 0.659630249386 70.4634819079 0.592309767572 46.5029827096 0.661008686659 70.3361202415 0.659630249386 70.4634819079 0.357708362811 164.774716746 0.00041054763443 69.3924372062 0.591484890311 -133.646218588 0.592309767572 46.5029827096 0.000410547634429 69.3924372063 0.547096513634 42.9245457439
10.675 0.363854474362 -160.673461414 0.282325716685 84.1557042948 0.662438968639 66.0926784841 0.590827155157 -136.203368507 0.282325716685 84.1557042948 0.365016754342 -160.186707008 0.661034149011 66.2230664891 0.591683036553 43.9470531053 0.662438968639 66.0926784841 0.661034149011 66.2230664891 0.352431962399 159.094747935 0.000413297654453 61.7624201895 0.590827155157 -136.203368507 0.591683036553 43.9470531053 0.000413297654452 61.7624201897 0.548483624346 40.4680859766
10.7 0.362367078774 -163.026123917 0.282332012747 80.8901338293 0.663840971298 61.8429397738 0.590164300386 -138.758166462 0.282332012747 80.8901338293 0.363538157059 -162.52463448 0.66240942906 61.9764455714 0.591051937652 41.3934545382 0.663840971298 61.8429397738 0.66240942906 61.9764455714 0.347172486085 153.383535853 0.000416962496577 54.0680263117 0.590164300386 -138.758166462 0.591051937652 41.3934545382 0.000416962496575 54.068026312 0.549875923908 38.0129546945
10.725 0.360944474285 -165.367960703 0.282321219092 77.6340554496 0.665212714131 57.5864357544 0.589496276453 -141.310665663 0.282321219092 77.6340554496 0.36212382651 -164.851491041 0.663754075721 57.7231533302 0.590416454522 38.842136651 0.665212714131 57.5864357544 0.663754075721 57.7231533302 0.341939169697 147.639836451 0.000421633950724 46.3194505898 0.589496276453 -141.310665663 0.590416454522 38.842136651 0.000421633950723 46.31945059 0.551273409934 35.5591125208
10.75 0.359589708982 -167.699899205 0.282295615768 74.3881230209 0.666552220403 53.3226746656 0.588823029255 -143.860919243 0.282295615768 74.3881230209 0.360776789367 -167.16819158 0.665066073373 53.4627008029 0.589776574254 36.2930494471 0.666552220403 53.3226746656 0.665066073373 53.4627008029 0.336741862156 141.862509603 0.000427404326628 38.5283373298 0.588823029255 -143.860919243 0.589776574254 36.2930494471 0.000427404326628 38.5283373301 0.552676080538 33.1065202901
10.775 0.358305455412 -170.022991804 0.282257972504 71.1530258657 0.667857527538 49.05113756 0.58814449968 -146.408980269 0.282257972504 71.1530258657 0.359499695104 -169.475772686 0.666343414276 49.1945721452 0.589132287928 33.746143256 0.667857527538 49.05113756 0.666343414276 49.1945721452 0.331591020254 136.050548265 0.000434365512586 30.7075369431 0.58814449968 -146.408980269 0.589132287928 33.746143256 0.000434365512587 30.7075369433 0.554083934195 30.6551390363
10.8 0.357093930889 -172.338421572 0.282211608018 67.929488376 0.669126698042 44.7712739374 0.587460623115 -148.954901761 0.282211608018 67.929488376 0.358294736527 -171.775397934 0.667584108702 44.9182203081 0.588483591217 31.2013686946 0.669126698042 44.7712739374 0.667584108702 44.9182203081 0.326497696084 130.203112428 0.000442608139331 22.8707828385 0.587460623115 -148.954901761 0.588483591217 31.2013686946 0.000442608139333 22.8707828385 0.555496969606 28.2049299809
10.825 0.355956809714 -174.647507686 0.282160457271 64.718269096 0.670357830939 40.482496697 0.586771328904 -151.498736696 0.282160457271 64.718269096 0.357163562293 -174.0683628 0.668786195481 40.6330620401 0.587830485055 28.6586766258 0.670357830939 40.482496697 0.668786195481 40.6330620401 0.321473515928 124.319568339 0.000452220931869 15.0323059829 0.586771328904 -151.498736696 0.587830485055 28.6586766258 0.000452220931873 15.0323059827 0.556915185553 25.7558545209
10.85 0.354895126524 -176.951710515 0.282109147973 61.520159122 0.67154907364 36.1841762933 0.586076539741 -154.04053802 0.282109147973 61.520159122 0.356107180649 -176.356099174 0.669947752847 36.3384721001 0.587172976368 26.1180181119 0.67154907364 36.1841762933 0.669947752847 36.3384721001 0.316530649361 118.399533447 0.000463290326707 7.20641252243 0.586076539741 -154.04053802 0.587172976368 26.1180181119 0.000463290326714 7.20641252186 0.558338580739 23.3078742171
10.875 0.353909169799 -179.252636436 0.282063087909 58.3359796354 0.672698634154 31.8756339533 0.585376171003 -156.58035865 0.282063087909 58.3359796354 0.355125853436 -178.640179541 0.671066909479 32.0337765404 0.586511078892 23.5793443641 0.672698634154 31.8756339533 0.671066909479 32.0337765404 0.311681767398 112.442927487 0.000475900418496 -0.592945353351 0.585376171003 -156.58035865 0.586511078892 23.5793443641 0.000475900418506 -0.592945354334 0.559767153626 20.8609507823
10.9 0.352998364338 178.447957536 0.282028564956 55.1665783322 0.673804793494 27.5561337888 0.58467012999 -159.118251476 0.282028564956 55.1665783322 0.35421897915 179.07767912 0.672141855565 27.7182448945 0.585844814076 21.0426066862 0.673804793494 27.5561337888 0.672141855565 27.7182448945 0.306939988676 106.450030018 0.000490133280939 -8.35257432679 0.58467012999 -159.118251476 0.585844814076 21.0426066861 0.000490133280953 -8.35257432826 0.561200902261 18.4150460694
10.925 0.352161141144 176.148159151 0.282012862036 52.0128244607 0.674865918088 23.224873596 0.583958315074 -161.654269354 0.282012862035 52.0128244607 0.353384963539 176.795611569 0.67317085367 23.3910810647 0.585174212113 18.5077564116 0.674865918088 23.224873596 0.67317085367 23.3910810647 0.302318812946 100.421544661 0.000506069685172 -16.0603930674 0.583958315074 -161.654269354 0.585174212113 18.5077564116 0.000506069685189 -16.0603930694 0.56263982409 15.9701220592
10.95 0.351394792787 173.845896129 0.282024389743 48.8756021022 0.675880471925 18.8809740948 0.583240614727 -164.188465098 0.282024389743 48.8756021022 0.352621075788 174.511600479 0.674152249092 19.0514126637 0.584499313081 15.9747448331 0.675880471925 18.8809740948 0.674152249092 19.0514126637 0.297832041675 94.3586701176 0.000523790218727 -23.7057128346 0.583240614727 -164.188465098 0.584499313081 15.9747448331 0.000523790218748 -23.7057128371 0.56408391576 13.5261408485
10.975 0.350695311691 171.538930868 0.282072839934 45.7558012442 0.676847028056 14.5234662993 0.582516906405 -166.720891462 0.282072839934 45.7558012442 0.351923287768 172.223472277 0.675084479278 14.6982785044 0.583820168261 13.4435231233 0.676847028056 14.5234662993 0.675084479278 14.6982785044 0.293493686326 88.2631779126 0.000543376793199 -31.2794338369 0.582516906405 -166.720891462 0.583820168261 13.4435231233 0.000543376793223 -31.27943384 0.565533172911 11.0830646379
11 0.350057208107 169.224854232 0.282169364292 42.6543060821 0.677764278935 10.1512766432 0.581787055259 -169.251601114 0.282169364292 42.6543060821 0.3512860931 169.928892276 0.675966081746 10.3306138652 0.583136841629 10.9140422441 0.677764278935 10.1512766432 0.675966081746 10.3306138652 0.289317866004 82.1374966606 0.00056491452145 -38.7741550568 0.581787055259 -169.251601114 0.583136841629 10.9140422441 0.000564914521476 -38.7741550602 0.566987589955 8.64085571865
11.025 0.349473303525 166.901077902 0.282326782793 39.5719798484 0.678631044884 5.7632093899 0.581050912639 -171.780646603 0.282326782792 39.5719798484 0.350702301822 167.625358633 0.676795699698 5.94723306528 0.582449411588 8.38625284324 0.678631044884 5.7632093899 0.676795699698 5.94723306528 0.285318697768 75.984802498 0.000588493946796 -46.1842036572 0.581050912639 -171.780646603 0.582449411588 8.38625284324 0.000588493946823 -46.1842036609 0.568447159837 6.19947646041
11.05 0.348934494055 164.564824586 0.282559828072 36.5096452937 0.67944627969 1.35792574489 0.58030831433 -174.308080304 0.282559828072 36.5096452937 0.350162805189 165.310194515 0.677572084263 1.54680877191 0.581757972963 5.86010513312 0.67944627969 1.35792574489 0.677572084263 1.54680877191 0.281510185057 69.8091152432 0.000614213617101 -53.5055964194 0.58030831433 -174.308080304 0.581757972963 5.86010513311 0.000614213617127 -53.5055964233 0.569911873791 3.75888929751
11.075 0.348429476626 162.213115234 0.282885433171 33.4680597291 0.680209071952 -3.0660810644 0.579559078476 -176.833954355 0.282885433171 33.4680597291 0.349656303484 162.980537706 0.678294091869 -2.87215268687 0.581062639347 3.33554874992 0.680209071952 -3.0660810644 0.678294091869 -2.87215268687 0.27790611267 63.6153998419 0.000642183015116 -60.7359494751 0.579559078476 -176.833954355 0.581062639347 3.33554874992 0.00064218301514 -60.7359494789 0.571381721066 1.31905671531
11.1 0.347944428691 159.842752178 0.283323071855 30.4478832678 0.680918640247 -7.51051566483 0.578803003106 -179.358320569 0.283323071855 30.4478832678 0.349168987561 160.633326715 0.678960674683 -7.31134092072 0.580363545851 0.812532585471 0.680918640246 -7.51051566483 0.678960674683 -7.31134092071 0.274519960635 57.4096727928 0.000672525881565 -67.8743539959 0.578803003106 -179.358320569 0.580363545851 0.812532585467 0.000672525881584 -67.8743539993 0.572856688643 -1.12005876429
11.125 0.347462629236 157.450296825 0.283895163055 27.4496385607 0.681574319422 -11.9773165466 0.578039863168 178.11876969 0.283895163055 27.4496385607 0.348684161946 158.265282182 0.679570861237 -11.7726771514 0.579660852366 -1.70899541494 0.681574319422 -11.9773165466 0.679570861237 -11.7726771514 0.271364854593 51.1991135745 0.000705383998473 -74.9212349647 0.578039863168 178.11876969 0.579660852366 -1.70899541494 0.000705383998485 -74.9212349674 0.574336760937 -3.55849459795
11.15 0.346964005041 155.032040207 0.284627553863 24.4736598937 0.682175534186 -16.4686997089 0.577269406951 175.597265659 0.284627553863 24.4736598937 0.348181793513 155.872882127 0.680123723205 -16.2583574539 0.578954747454 -4.22908849919 0.682175534186 -16.4686997089 0.680123723205 -16.2583574539 0.268453577311 44.9921816563 0.000740921536877 -81.8782083394 0.577269406951 175.597265659 0.578954747454 -4.2290884992 0.000740921536879 -81.8782083411 0.575821919471 -5.99628823708
11.175 0.346424580981 152.583964239 0.285550099344 21.5200289607 0.682721754594 -20.9872118812 0.576491351748 173.077117391 0.285550099344 21.5200289607 0.347637964598 153.452329195 0.680618322637 -20.7709054837 0.578245453021 -6.74780141375 0.682721754594 -20.9872118812 0.680618322637 -20.7709054837 0.265798675386 38.7987404945 0.000779330116045 -88.7479494979 0.576491351748 173.077117391 0.578245453021 -6.74780141375 0.000779330116036 -88.7479494983 0.577312142531 -8.43347714505
11.2 0.3458158061 150.10169096 0.286697362332 18.588493932 0.683212425689 -25.5357958367 0.575705378548 170.558276035 0.286697362332 18.588493932 0.347024202383 150.99950764 0.681053631552 -25.313237186 0.577533229962 -9.26519078713 0.683212425689 -25.5357958367 0.681053631552 -25.313237186 0.263412708126 32.6301909647 0.000820834772822 -95.5340834017 0.575705378548 170.558276035 0.577533229962 -9.26519078713 0.000820834772802 -95.5340834006 0.578807404801 -10.8700988159
11.225 0.345103717598 147.580416294 0.288109462864 15.6783675288 0.68364686017 -30.1178710935 0.57491112552 168.040694217 0.288109462864 15.6783675288 0.346306646869 148.509927154 0.681428412289 -29.8887407482 0.576818385024 -11.7813156189 0.68364686017 -30.1178710934 0.681428412289 -29.8887407482 0.261308703466 26.499617854 0.000865701102971 -102.241104843 0.57491112552 168.040694217 0.576818385024 -11.7813156189 0.000865701102941 -102.241104841 0.58030767697 -13.3061907945
11.25 0.34424789148 145.014823866 0.289833115357 12.7883986376 0.684024077925 -34.7374343498 0.574108179974 165.524326554 0.289833115357 12.7883986376 0.34544500641 145.97864996 0.681741041851 -34.5013761046 0.576101279201 -14.2962379119 0.684024077925 -34.7374343498 0.681741041851 -34.5013761046 0.25950091116 20.4219540661 0.000914243916505 -108.874335752 0.574108179974 165.524326554 0.576101279201 -14.2962379119 0.000914243916467 -108.874335748 0.581812925314 -15.7417906997
11.275 0.343200109952 142.398973079 0.291922902878 9.91661044538 0.684342568781 -39.3991854437 0.573296068382 163.00913036 0.291922902878 9.91661044537 0.344391231262 143.400196595 0.681989255794 -39.155799725 0.575382338037 -16.8100235024 0.684342568781 -39.3991854437 0.681989255794 -39.155799725 0.258005979907 14.4141675741 0.000966837853101 -115.439925995 0.573296068382 163.00913036 0.575382338037 -16.8100235024 0.000966837853058 -115.439925989 0.583323111248 -18.1769362487
11.3 0.341902649147 139.726153882 0.294442852723 7.06009598906 0.684599943487 -44.1086866104 0.572474243954 160.495066624 0.294442852724 7.06009598905 0.343087809281 140.768424603 0.682169775638 -43.8575223895 0.574662064357 -19.3227431653 0.684599943487 -44.1086866104 0.682169775638 -43.8575223895 0.256844738397 8.49547494253 0.00102393054143 -121.944904579 0.572474243954 160.495066624 0.574662064356 -19.3227431653 0.00102393054139 -121.944904571 0.584838190845 -20.6116652865
11.325 0.340286052824 136.988698259 0.297468397257 4.21475918742 0.684792420702 -48.8725655872 0.571642071136 157.982101369 0.297468397257 4.2147591874 0.341465550308 138.076372848 0.682277766184 -48.6131103926 0.573941054017 -21.8344741064 0.684792420702 -48.8725655872 0.682277766185 -48.6131103926 0.25604483892 2.6875807601 0.00108605907098 -128.39728977 0.571642071136 157.982101369 0.573941054017 -21.8344741064 0.00108605907095 -128.397289762 0.58635811433 -23.0460158182
11.35 0.33826620272 134.177735235 0.301088830145 1.37498550204 0.684914071019 -53.6987770099 0.570798806242 155.470207569 0.301088830145 1.37498550202 0.339440671346 135.316062296 0.682306041942 -53.430444482 0.573220015455 -24.3453020068 0.68491407102 -53.6987770099 0.682306041942 -53.430444482 0.255644639358 -2.98506835058 0.00115387079443 -134.806269677 0.570798806242 155.470207568 0.573220015455 -24.3453020068 0.00115387079441 -134.806269669 0.587882825529 -25.4800260473
11.375 0.335740415695 131.282871904 0.30541040256 -1.46677913524 0.684955697276 -58.5969420943 0.5699435733 152.959367888 0.30541040256 -1.46677913526 0.336910915018 132.478242155 0.682243899469 -58.3190563184 0.572499793931 -26.8553238617 0.684955697277 -58.5969420943 0.682243899469 -58.3190563184 0.255698873963 -8.49504843988 0.00122814981709 -141.182469611 0.5699435733 152.959367888 0.572499793931 -26.8553238617 0.0012281498171 -141.182469604 0.589412261289 -27.9137344204
11.4 0.332582178489 128.291777414 0.310560248516 -4.3205703848 0.684903163949 -63.578794554 0.56907533414 150.44957863 0.310560248517 -4.32057038482 0.333750316165 129.552068478 0.682075385177 -63.2905701209 0.57178140149 -29.3646519775 0.684903163949 -63.578794554 0.682075385177 -63.2905701209 0.256286922673 -13.8118168205 0.00130985098742 -147.538329773 0.56907533414 150.44957863 0.57178140149 -29.3646519775 0.00130985098744 -147.538329767 0.590946350854 -30.347179681
11.425 0.328633952546 125.189639954 0.316691384452 -7.19960928705 0.684734881405 -68.6587722475 0.568192851817 147.940855494 0.316691384452 -7.19960928707 0.32980205592 126.524702167 0.681776700051 -68.3592885628 0.571066053642 -31.8734196776 0.684734881405 -68.6587722475 0.681776700051 -68.3592885628 0.257524869549 -18.901815699 0.0014001438162 -153.888627496 0.568192851817 147.940855494 0.571066053642 -31.8734196776 0.00140014381624 -153.888627492 0.592485015208 -32.7804009336
11.45 0.323697212261 121.95845936 0.32398909369 -10.1212254332 0.684417975577 -73.8548109083 0.56729464712 145.433242095 0.32398909369 -10.1212254332 0.324868579016 123.380817923 0.681312266186 -73.5429786406 0.570355213426 -34.3817895593 0.684417975577 -73.8548109083 0.681312266186 -73.5429786406 0.259583087357 -23.7291041053 0.00150046955815 -160.251194022 0.56729464712 145.433242095 0.570355213426 -34.3817895593 0.00150046955821 -160.25119402 0.594028166385 -35.2134377226
11.475 0.317518472403 118.576132853 0.332679071795 -13.1080823682 0.683902382446 -79.1894211147 0.566378949543 142.926822673 0.332679071795 -13.1080823682 0.318697752854 120.102033299 0.680628687239 -78.863937706 0.569650642408 -36.8899656012 0.683902382446 -79.1894211147 0.680628687239 -78.863937706 0.262711837426 -28.2570197705 0.00161261570217 -166.647899171 0.566378949543 142.926822673 0.569650642408 -36.8899656012 0.00161261570221 -166.647899171 0.595575706737 -37.6463301292
11.5 0.309769443587 115.015297862 0.343037743553 -16.1898257411 0.683111615263 -84.6911662153 0.565443648307 140.421741307 0.343037743553 -16.1898257411 0.310963251142 116.666318323 0.679645341888 -84.3504558765 0.568954455284 -39.3982111428 0.683111615263 -84.6911662153 0.679645341888 -84.3504558765 0.267278332216 -32.4517083922 0.00173881327154 -173.106012093 0.565443648307 140.421741307 0.568954455284 -39.3982111428 0.00173881327154 -173.106012092 0.597127528196 -40.0791188921
