! Generated from PyAEDT SolutionData; AEDT ExportNetworkData workaround
# GHz S MA R 50
9 0.662180873309 30.1797521582 0.278922113939 -76.304475771 0.541495699702 -2.22172791216 0.436464606335 30.7212199486 0.278922113939 -76.304475771 0.660969520538 29.9638339438 0.543468622544 -2.16528452985 0.435848142805 -149.230046652 0.541495699702 -2.22172791216 0.543468622544 -2.16528452985 0.641422467376 170.199860628 0.00121731654643 107.543899995 0.436464606335 30.7212199486 0.435848142805 -149.230046652 0.00121731654643 107.543899995 0.787104543228 -168.457223091
9.025 0.660310309693 27.1502090942 0.279095924852 -79.7987119025 0.543814108982 -6.74886160383 0.436303587555 27.9727169098 0.279095924852 -79.7987119025 0.65908268343 26.9356496229 0.545767623004 -6.69288457916 0.435720144882 -151.97852695 0.543814108982 -6.74886160385 0.545767623004 -6.69288457915 0.637503548493 164.289597759 0.00122086722306 103.5913336 0.436303587555 27.9727169098 0.435720144882 -151.97852695 0.00122086722303 103.591333596 0.787264631013 -170.883834529
9.05 0.658471723218 24.1300400536 0.279277884268 -83.2777787415 0.546076964611 -11.2622983303 0.436138712388 25.2317250682 0.279277884268 -83.2777787415 0.657228703206 23.9169270418 0.548010253772 -11.2067680119 0.435588403186 -154.719481889 0.546076964611 -11.2622983304 0.548010253772 -11.2067680118 0.633637083186 158.39575041 0.00122432932531 99.6470862982 0.436138712388 25.2317250683 0.435588403185 -154.719481889 0.00122432932527 99.6470862928 0.787428852906 -173.304584204
9.075 0.656663514006 21.1189283975 0.27946941355 -86.7419571685 0.548286212657 -15.7620793712 0.435970154464 22.4981155402 0.27946941355 -86.7419571685 0.655405978603 20.9073526192 0.550198469747 -15.706974295 0.435453091343 -157.45303974 0.548286212657 -15.7620793712 0.550198469747 -15.706974295 0.629822783801 152.518908766 0.00122769816205 95.7115353918 0.435970154463 22.4981155402 0.435453091342 -157.45303974 0.001227698162 95.7115353854 0.787597005967 -175.719574636
9.1 0.654883961597 18.1165748171 0.279671851672 -90.1915575542 0.550443927768 -20.2482691167 0.435798080596 19.7717620599 0.279671851673 -90.1915575542 0.653612784897 17.9066302861 0.552334354188 -20.1935659925 0.435314378561 -160.17932597 0.550443927768 -20.2482691168 0.552334354188 -20.1935659925 0.626059820408 146.659571966 0.00123096935881 91.7850525293 0.435798080596 19.7717620599 0.43531437856 -160.17932597 0.00123096935875 91.7850525225 0.787768894635 -178.128906202
9.125 0.653131245044 15.1226974577 0.279886451025 -93.6269161003 0.552552290303 -24.7209533269 0.435622650984 17.0525409516 0.279886451025 -93.6269161003 0.651847294265 14.9144816096 0.554420095889 -24.6666270214 0.435172429602 -162.898463309 0.552552290303 -24.720953327 0.554420095889 -24.6666270214 0.622346879444 140.81815453 0.00123413885895 87.8680061765 0.435622650984 17.0525409516 0.435172429601 -162.898463309 0.00123413885889 87.86800617 0.78794433048 179.467322805
9.15 0.651403461532 12.1370319577 0.280114374118 -97.0483913778 0.554613564886 -29.1802374909 0.435444019417 14.3403310961 0.280114374118 -97.0483913778 0.650107594654 11.9306458291 0.556457967761 -29.1262610108 0.435027404783 -165.610571818 0.554613564886 -29.180237491 0.556457967761 -29.1262610108 0.618682220145 134.994992395 0.00123720292618 83.9607639938 0.435444019417 14.3403310961 0.435027404783 -165.610571818 0.00123720292613 83.960763988 0.788123131952 177.069016104
9.175 0.649698643606 9.15933141125 0.280356691127 -100.456361069 0.556630080431 -33.6262452869 0.435262333482 11.6350138938 0.280356691127 -100.456361069 0.648391707239 8.95487981519 0.558450306905 -33.5725897601 0.434879460003 -168.315768952 0.556630080431 -33.6262452869 0.558450306905 -33.5725897601 0.615063728178 129.190348538 0.00124015814867 80.0636951104 0.435262333482 11.6350138938 0.434879460003 -168.315768952 0.00124015814863 80.0636951055 0.788305124147 174.676079373
9.2 0.648014775078 6.18936626484 0.280614378173 -103.851218917 0.558604211656 -38.0591171393 0.435077734767 8.93647322404 0.280614378173 -103.851218917 0.646697602545 5.98695795996 0.56039949616 -38.0057517967 0.434728746786 -171.014169628 0.558604211656 -38.0591171393 0.56039949616 -38.0057517966 0.611488966063 123.404418158 0.00124300144505 76.1771722908 0.435077734767 8.93647322404 0.434728746785 -171.014169628 0.00124300144501 76.1771722868 0.788490138564 172.28842018
9.225 0.646349805705 3.22692415499 0.280888316268 -107.233371883 0.560538362072 -42.4790088714 0.434890359072 6.2445954008 0.280888316268 -107.233371883 0.645023215319 3.02667200749 0.562307947138 -42.4259010279 0.434575412344 -173.705886295 0.560538362072 -42.4790088714 0.562307947138 -42.4259010279 0.607955220117 117.637333424 0.00124573007246 72.3015739871 0.434890359072 6.2445954008 0.434575412344 -173.705886295 0.00124573007244 72.3015739842 0.788678012874 169.905947927
9.25 0.6447016647 0.271809694959 0.281179290854 -110.603237508 0.562434948436 -46.8860904488 0.434700336613 3.55926912692 0.281179290854 -110.603237508 0.643366458224 0.0738308315439 0.564178084708 -46.8332054857 0.434419599661 -176.391028998 0.562434948436 -46.8860904488 0.564178084708 -46.8332054857 0.604459543786 111.889167798 0.00124834163701 68.4372862746 0.434700336613 3.55926912693 0.434419599661 -176.391028998 0.00124834163699 68.4372862727 0.788868590689 167.528573795
9.275 0.643068273159 -2.6761557829 0.281487991849 -113.961241478 0.564296386612 -51.2805448093 0.434507792227 0.880385445806 0.28148799185 -113.961241478 0.641725234431 -2.87173983229 0.566012332903 -51.2278461572 0.434261447582 -179.069705447 0.564296386612 -51.2805448093 0.566012332903 -51.2278461572 0.600998797323 106.159939937 0.00125083410662 64.5847046661 0.434507792227 0.880385445808 0.434261447582 -179.069705447 0.00125083410661 64.584704665 0.789061721342 165.15621068
9.3 0.641447555471 -5.61713452268 0.281815014141 -117.307815382 0.566125078795 -55.6625667761 0.434312845576 -1.79216230823 0.281815014141 -117.307815382 0.640097449175 -5.81019769358 0.567813102174 -55.6100158998 0.434101090918 178.257978917 0.566125078795 -55.6625667761 0.567813102174 -55.6100158998 0.597569683867 100.449617204 0.00125320582661 60.7442358036 0.434312845576 -1.79216230823 0.434101090917 178.257978917 0.00125320582661 60.7442358033 0.789257259664 162.788773142
9.325 0.639837449776 -8.55127267279 0.282160858464 -120.64339466 0.567923402034 -60.0323620474 0.434115611343 -4.45847856065 0.282160858464 -120.64339466 0.638481020357 -8.74168424737 0.569582777949 -59.9799184321 0.433938660557 175.591920858 0.567923402034 -60.0323620474 0.569582777949 -59.9799184321 0.594168782031 94.7581188221 0.00125545553814 56.9162990261 0.434115611343 -4.45847856065 0.433938660557 175.591920858 0.00125545553814 56.9162990264 0.789455065773 160.426177352
9.35 0.638235917536 -11.4787006406 0.282525932599 -123.968416732 0.569693697976 -64.3901462588 0.433916199437 -7.1186655482 0.282525932599 -123.968416732 0.636873888232 -11.6663251425 0.571323710408 -64.3377673987 0.433774283587 172.932019278 0.569693697976 -64.3901462588 0.571323710408 -64.3377673987 0.590792575166 89.0853186855 0.00125758239952 53.1013278109 0.433916199437 -7.1186655482 0.433774283588 172.932019278 0.00125758239953 53.1013278117 0.789655004858 158.068341039
9.375 0.636640952282 -14.3995334693 0.282910552846 -127.283319293 0.571438263764 -68.7361441123 0.43371471518 -9.77282337078 0.282910552846 -127.283319293 0.635274024272 -14.5842305726 0.573038205413 -68.683785502 0.43360808342 170.278175157 0.571438263765 -68.7361441123 0.573038205413 -68.683785502 0.587437477508 83.4310478723 0.0012595860108 49.2997710883 0.43371471518 -9.77282337078 0.43360808342 170.278175157 0.00125958601081 49.2997710894 0.789856946983 155.715183435
9.4 0.63505058759 -17.3138712324 0.283314945721 -130.588538778 0.573159344005 -73.0705885676 0.433511259504 -12.4210500436 0.283314945721 -130.588538778 0.633679439244 -17.4954956861 0.574728516494 -73.0182036954 0.433440179918 167.630291485 0.573159344005 -73.0705885676 0.574728516494 -73.0182036954 0.584099857413 77.7950968871 0.00126146644142 45.5120944275 0.433511259504 -12.4210500436 0.433440179918 167.630291485 0.00126146644144 45.5120944288 0.790060766876 153.366625233
9.425 0.633462904355 -20.2217994417 0.283739249838 -133.884508973 0.574859123722 -77.3937200888 0.433305929137 -15.063441549 0.283739249838 -133.884508973 0.632088190563 -20.4002010097 0.576396837837 -77.3412604337 0.433270689529 164.988273208 0.574859123722 -77.3937200888 0.576396837837 -77.3412604337 0.580776057946 72.1772176648 0.0012632242614 41.7387810911 0.433305929137 -15.063441549 0.433270689529 164.988273208 0.00126322426142 41.7387810924 0.790266343741 151.022588533
9.45 0.631876037392 -23.1233894648 0.284183517926 -137.171659764 0.576539722221 -81.7057859445 0.433098816791 -17.7000918884 0.284183517926 -137.171659764 0.630498388985 -23.2984128833 0.578045298167 -81.6532009756 0.433099725419 162.352027161 0.576539722221 -81.7057859445 0.578045298167 -81.6532009756 0.577462415041 66.5771253675 0.00126486057593 37.9803329555 0.433098816791 -17.7000918885 0.433099725419 162.352027161 0.00126486057595 37.9803329568 0.790473561065 148.6829968
9.475 0.630288181443 -26.0186989505 0.28464771897 -140.450416029 0.578203187787 -86.0070395531 0.432890011338 -20.3310931337 0.28464771897 -140.450416029 0.628908204674 -26.1901839007 0.579675955464 -85.9542767331 0.432927397606 159.721462017 0.578203187787 -86.0070395531 0.579675955464 -85.9542767331 0.574155273486 60.994500002 0.00126637706359 34.2372712932 0.432890011338 -20.3310931337 0.432927397606 159.721462017 0.00126637706361 34.2372712944 0.790682306428 146.347774816
9.5 0.628697596618 -28.9077722557 0.285131740428 -143.721196641 0.57985149313 -90.2977398713 0.432679597996 -22.9565354775 0.285131740428 -143.721196641 0.627315872704 -29.0755533559 0.581290792431 -90.2447446625 0.432753813093 157.096488225 0.57985149313 -90.2977398713 0.581290792431 -90.2447446625 0.570851000973 55.4289878846 0.00126777601836 30.5101374099 0.432679597996 -22.9565354775 0.432753813093 157.096488225 0.00126777601837 30.5101374109 0.790892471325 144.016848638
9.525 0.627102613329 -31.7906408749 0.285635390506 -146.98441359 0.581486531517 -94.5781508208 0.432467658497 -25.5765072836 0.285635390506 -146.98441359 0.625719698046 -31.9545476889 0.58289171264 -94.5248666952 0.432579076 154.477017956 0.581486531517 -94.5781508208 0.58289171264 -94.5248666952 0.567546000435 49.8802029761 0.00126906039543 26.7994931292 0.432467658497 -25.5765072836 0.432579076 154.477017956 0.00126906039544 26.7994931301 0.791103950986 141.690145556
9.55 0.625501636749 -34.6673238674 0.286158400469 -150.240471204 0.583110113504 -98.8485407489 0.432254271265 -28.1910951363 0.286158400469 -150.240471204 0.624118060069 -34.8271809316 0.584480537281 -98.7949092012 0.432403287695 151.86296505 0.583110113504 -98.8485407489 0.584480537281 -98.7949092012 0.564236720873 44.347728107 0.00127023386113 23.105921115 0.432254271265 -28.1910951363 0.432403287695 151.86296505 0.00127023386114 23.1059211156 0.791316644204 139.367594052
9.575 0.623893150865 -37.5378282813 0.286700426974 -153.489765471 0.584723964221 -103.10918192 0.432039511578 -30.8003838884 0.286700426974 -153.489765471 0.622509416626 -37.6934551498 0.586059002465 -103.055142485 0.43222654692 149.254244964 0.584723964221 -103.10918192 0.586059002465 -103.055142485 0.560919666899 38.8311161099 0.00127130084684 19.4300250169 0.432039511578 -30.8003838884 0.43222654692 149.254244964 0.00127130084685 19.4300250173 0.791530453166 137.049123762
9.6 0.622275722133 -40.4021495719 0.287261054399 -156.732683437 0.586329721134 -107.360350036 0.43182345174 -33.4044567093 0.287261054399 -156.732683437 0.62089230774 -40.5533608799 0.587628756996 -107.305840309 0.43204894992 146.650774719 0.586329721134 -107.360350036 0.587628756996 -107.305840309 0.557591407151 33.3298908723 0.00127226660732 15.7724294245 0.43182345174 -33.4044567093 0.43204894992 146.650774719 0.00127226660733 15.7724294246 0.791745283287 134.734665437
9.625 0.620648002809 -43.2602720141 0.287839797163 -159.969602691 0.587928932237 -111.602323776 0.431606161237 -36.0033951314 0.287839797163 -159.969602691 0.619265358953 -43.4068775597 0.589191360577 -111.547279438 0.431870590561 144.052472853 0.587928932237 -111.602323776 0.589191360577 -111.547279438 0.55424858176 27.8435483214 0.00127313728332 12.1337796086 0.431606161237 -36.0033951314 0.431870590561 144.052472853 0.00127313728332 12.1337796085 0.791961043052 132.424150904
9.65 0.619008733969 -46.1121691071 0.288436102023 -163.200890919 0.58952305461 -115.83538437 0.431387706898 -38.5972790956 0.288436102023 -163.200890919 0.617627284361 -46.2539739512 0.590748282384 -115.779739213 0.431691560451 141.459259374 0.58952305461 -115.83538437 0.590748282384 -115.779739213 0.550887909028 22.3715573479 0.00127391996874 8.51474102764 0.431387706898 -38.5972790956 0.431691560451 141.459259374 0.00127391996874 8.51474102743 0.792177643859 130.117513036
9.675 0.617356748271 -48.9578039703 0.289049350339 -166.426905515 0.591113453313 -120.059815178 0.431168153053 -41.1861869968 0.289049350339 -166.426905515 0.615976889387 -49.0946085544 0.592300899971 -120.00350114 0.431511949053 138.87105571 0.591113453313 -120.059815178 0.592300899971 -120.00350114 0.547506191443 16.9133606737 0.00127462278248 4.91599856963 0.431168153053 -41.1861869968 0.431511949053 138.87105571 0.00127462278248 4.9159985693 0.792394999865 127.814685715
9.7 0.615690972498 -51.7971297309 0.289678860297 -169.647993262 0.592701400556 -124.275901299 0.430947561678 -43.7701957272 0.289678860297 -169.647993262 0.614313073319 -51.9287300137 0.59385049845 -124.218848497 0.431331843799 136.287784668 0.592701400556 -124.275901299 0.59385049845 -124.218848497 0.544100321155 11.4683756669 0.00127525494488 1.33825549767 0.430947561678 -43.7701957272 0.431331843799 136.287784668 0.00127525494488 1.33825549724 0.792613027839 125.515603797
9.725 0.614010429893 -54.6300899029 0.290323889092 -172.864490051 0.594288075114 -128.483929193 0.430725992552 -46.3493807199 0.290323889092 -172.864490051 0.612634831656 -54.7562775136 0.595398269921 -128.426065962 0.431151330195 133.709370391 0.594288075114 -128.483929193 0.595398269921 -128.426065962 0.540667285026 6.0359951036 0.00127582685903 -2.21776793852 0.430725992552 -46.3493807199 0.431151330195 133.709370391 0.00127582685902 -2.21776793901 0.792831647018 123.220203085
9.75 0.612314242358 -57.4566187577 0.290983635047 -176.076720654 0.595874561957 -132.684186313 0.430503503397 -48.923815991 0.290983635047 -176.076720654 0.610941258286 -57.5771811667 0.596945313112 -132.625439251 0.430970491928 131.13573831 0.595874561957 -132.684186313 0.596945313112 -132.625439251 0.537204169352 0.615587876112 0.00127635019683 -5.75133626801 0.430503503397 -48.923815991 0.430970491928 131.13573831 0.00127635019682 -5.75133626851 0.793050778969 120.928420295
9.775 0.610601632506 -60.276641686 0.291657239688 -179.284998535 0.597461852055 -136.876960766 0.430280150023 -51.493574181 0.291657239688 -179.284998535 0.609231547534 -60.3913623934 0.598492633198 -136.817254777 0.430789410965 128.566815113 0.597461852055 -136.876960766 0.598492633198 -136.817254777 0.53370816434 -4.79350035623 0.0012768379898 -9.26170098855 0.430280150023 -51.493574181 0.430789410965 128.566815113 0.00127683798979 -9.26170098904 0.793270347444 118.640193027
9.8 0.608871925628 -63.0900755543 0.292343789757 177.510374302 0.599050842335 -141.062540971 0.430055986465 -54.0587265961 0.292343789757 177.510374302 0.607504996112 -63.1987342941 0.600041141768 -141.001799315 0.430608167652 126.002528696 0.599050842335 -141.062540971 0.600041141768 -141.001799315 0.530176568406 -10.1919465772 0.00127730472459 -12.7481032341 0.430055986465 -54.0587265961 0.430608167652 126.002528696 0.00127730472458 -12.7481032346 0.793490278257 116.355459737
9.825 0.607124551586 -65.8968290545 0.293042319156 174.309107436 0.600642335777 -145.241215341 0.429831065118 -56.6193432481 0.293042319156 174.309107436 0.605761004989 -65.9992020153 0.601591656934 -145.179359688 0.430426840805 123.442808133 0.600642335777 -145.241215341 0.601591656934 -145.179359688 0.526606792386 -15.5804498904 0.00127776644292 -16.2097769772 0.429831065118 -56.6193432481 0.430426840805 123.442808133 0.00127776644291 -16.2097769776 0.793710499147 114.07415971
9.85 0.605359046662 -68.6968030505 0.293751810838 171.110922119 0.602237041613 -149.413271977 0.429605436872 -59.1754928937 0.293751810838 171.110922119 0.603999081215 -68.7926631114 0.603144903533 -149.350222463 0.43024550781 120.887583633 0.602237041613 -149.413271977 0.603144903533 -149.350222463 0.522996363699 -20.9597310674 0.00127824084576 -19.6459528283 0.429605436872 -59.1754928937 0.43024550781 120.887583633 0.00127824084575 -19.6459528286 0.793930939655 111.796233033
9.875 0.60357505538 -71.4898909225 0.294471198628 167.915551352 0.603835575619 -153.578998368 0.429379151236 -61.7272430742 0.294471198628 167.915551352 0.602218839722 -71.5790079042 0.604701513439 -153.514673656 0.430064244702 118.336786509 0.603835575619 -153.578998368 0.604701513439 -153.514673656 0.519342930517 -26.3305321749 0.00127874740121 -23.0558624964 0.429379151236 -61.7272430742 0.430064244702 118.336786509 0.0012787474012 -23.0558624967 0.794151531001 109.521620571
9.9 0.601772332327 -74.2759789113 0.295199368977 164.72273993 0.605438460492 -157.738681112 0.429152256463 -64.2746601539 0.295199368977 164.72273993 0.600420005107 -74.3581198412 0.606262025945 -157.672998452 0.429883126262 115.790349141 0.605438460492 -157.738681112 0.606262025945 -157.672998452 0.515644266014 -31.6936162862 0.00127930745572 -26.4387439797 0.429152256463 -64.2746601539 0.429883126262 115.790349141 0.00127930745571 -26.4387439798 0.794372205964 107.250263939
9.925 0.599950743997 -77.0549464665 0.295935162656 161.532244478 0.607046126294 -161.892605642 0.428924799671 -66.8178093581 0.295935162656 161.532244478 0.59860241344 -77.1298758574 0.607826888208 -161.825480942 0.429702226098 113.248204942 0.607046126294 -161.892605642 0.607826888208 -161.825480942 0.511898272708 -37.0497672837 0.0012799443477 -29.7938475507 0.428924799671 -66.8178093581 0.429702226098 113.248204942 0.0012799443477 -29.7938475507 0.794592898765 104.982105483
9.95 0.598110270647 -79.8266665995 0.296677376379 158.343833467 0.608658910948 -166.04105597 0.428696826954 -69.3567548113 0.296677376379 158.343833467 0.596766014089 -79.8941467412 0.609396455764 -165.97240386 0.429521616729 110.710288329 0.608658910948 -166.04105597 0.609396455764 -165.97240386 0.508102986978 -42.3997897589 0.00128068352283 -33.1204426048 0.428696826954 -69.3567548113 0.429521616729 110.710288329 0.00128068352283 -33.1204426048 0.794813544959 102.717088254
9.975 0.596251008206 -82.5910062462 0.297424764371 155.157287227 0.610277060797 -170.184314438 0.428468383498 -71.8915595746 0.297424764371 155.157287227 0.594910871582 -82.6507975089 0.610970993078 -170.114048348 0.429341369671 108.176534688 0.610277060797 -170.184314438 0.610970993078 -170.114048348 0.504256583755 -47.7445090152 0.00128155264973 -36.41782543 0.428468383498 -71.8915595746 0.429341369671 108.176534688 0.00128155264973 -36.4178254299 0.795034081318 100.455155985
10 0.594373170233 -85.3478266419 0.298176039864 151.972397943 0.611900731196 -174.322661485 0.428239513683 -74.4222856836 0.298176039864 151.972397943 0.593037167518 -85.3996877908 0.612550674152 -174.250693716 0.42916155552 105.646880344 0.611900731196 -174.322661485 0.612550674152 -174.250693716 0.500357381478 -53.0847711792 0.00128258173475 -39.6853279509 0.428239513683 -74.4222856836 0.42916155552 105.646880344 0.00128258173476 -39.6853279507 0.795254445731 98.1962530761
10.025 0.592477089915 -88.096983713 0.29892987654 148.788969654 0.613529987158 -178.456375426 0.428010261183 -76.9489941851 0.29892987654 148.788969654 0.591145202524 -88.1406722328 0.61413558316 -178.382617229 0.428982244034 103.121262533 0.613529987158 -178.456375426 0.61413558316 -178.382617229 0.49640384731 -58.4214434251 0.00128380323427 -42.9223274876 0.428010261183 -76.9489941851 0.428982244034 103.121262533 0.00128380323428 -42.9223274874 0.795474577095 95.9403245658
10.05 0.590563222135 -90.8383284886 0.299684909918 145.606818243 0.615164804028 177.414267765 0.427780669064 -79.4717451748 0.299684909918 145.606818243 0.589235398263 -90.8736009174 0.615725715126 177.489906104 0.428803504217 100.599619373 0.615164804028 177.414267765 0.615725715126 177.489906104 0.4923946027 -63.7554143165 0.00128525216246 -46.1282575494 0.427780669064 -79.4717451748 0.428803504217 100.599619373 0.00128525216246 -46.1282575492 0.79569441522 93.6873161174
10.075 0.588632145582 -93.5717075369 0.300439738686 142.425771428 0.616805068205 173.288994642 0.427550779869 -81.9905978341 0.300439738686 142.425771428 0.587308299496 -93.5983198078 0.617320976639 173.366603724 0.428625404407 98.081889834 0.616805068205 173.288994642 0.617320976639 173.366603724 0.488328429298 -69.0875942673 0.00128696619245 -49.3026196635 0.427550779869 -81.9905978341 0.428625404407 98.081889834 0.00128696619245 -49.3026196633 0.795913900727 91.4371739976
10.1 0.586684564912 -96.296963431 0.301192925981 139.24566876 0.618450577894 169.167534485 0.427320635702 -84.5056104673 0.301192925981 139.24566876 0.58536457618 -96.3146712211 0.618921186599 169.247205707 0.428448012359 95.568013712 0.618450577894 169.167534485 0.618921186599 169.247205707 0.484204275302 -74.4189161263 0.00128898574843 -52.444996206 0.427320635702 -84.5056104673 0.428448012359 95.568013712 0.00128898574844 -52.4449962058 0.796132974955 89.1898450591
10.125 0.584721312948 -99.0139352481 0.301943000638 136.066361623 0.620101043904 165.049619465 0.427090278304 -87.0168405388 0.301943000638 136.066361623 0.583405025606 -99.0224943323 0.620526076995 165.131444935 0.428271395332 93.057931602 0.620101043904 165.049619465 0.620526076995 165.131444935 0.480021262257 -79.7503358841 0.0012913540859 -55.5550641686 0.427090278304 -87.0168405388 0.428271395332 93.057931602 0.0012913540859 -55.5550641684 0.796351579868 86.9452767222
10.15 0.582743352898 -101.722459108 0.302688458389 132.887713239 0.621756090476 160.934984814 0.426859749122 -89.5243447104 0.302688458389 132.887713239 0.581430574555 -101.721625718 0.622135293732 161.019057257 0.428095620187 90.5515848719 0.621756090476 160.934984814 0.622135293732 161.019057257 0.47577869238 -85.0828335037 0.00129411735708 -58.6326097489 0.426859749122 -89.5243447104 0.428095620187 90.5515848719 0.00129411735708 -58.6326097488 0.796569657969 84.7034169585
10.175 0.580751780589 -104.422368756 0.303427763041 129.709598686 0.62341525617 156.823368973 0.42662908937 -92.0281788782 0.303427763041 129.709598686 0.57944228146 -104.41189994 0.623748397482 156.90978164 0.427920753471 88.0489156363 0.62341525617 156.823368973 0.623748397482 156.90978164 0.471476056447 -90.417413874 0.00129732465842 -61.6775436027 0.42662908937 -92.0281788782 0.427920753471 88.0489156363 0.00129732465842 -61.6775436026 0.796787152208 82.4642142742
10.2 0.57874782668 -107.113496192 0.304159347633 126.531904931 0.625077994782 152.714513733 0.426398340083 -94.5283982101 0.304159347633 126.531904931 0.577441338548 -107.093150179 0.625364864588 152.803360305 0.427746861524 85.549866732 0.625077994782 152.714513733 0.625364864588 152.803360305 0.467113042306 -95.7551078818 0.00130102805682 -64.68991654 0.426398340083 -94.5283982101 0.427746861524 85.549866732 0.00130102805682 -64.6899165399 0.797004005906 80.2276176945
10.225 0.576732858841 -109.795672357 0.30488161558 123.354530877 0.626743676325 148.608164364 0.426167542161 -97.025057183 0.30488161558 123.354530877 0.575429073943 -109.76520892 0.62698408801 148.699538858 0.427574010573 83.0543816926 0.626743676325 148.608164364 0.62698408801 148.699538858 0.46268954406 -101.0969736 0.00130528259127 -67.6699353851 0.426167542161 -97.025057183 0.427574010573 83.0543816926 0.00130528259127 -67.669935385 0.797220162665 77.9935767481
10.25 0.574708383863 -112.46872788 0.305592941819 120.177387424 0.628411588059 144.504069737 0.425936736407 -99.5182096206 0.305592941819 120.177387424 0.5734069537 -112.427908692 0.628605378324 144.598066404 0.427402266841 80.5624047241 0.628411588059 144.504069737 0.628605378324 144.598066404 0.458205671999 -106.444097583 0.00131014624666 -70.6179786584 0.425936736407 -99.5182096206 0.427402266841 80.5624047241 0.00131014624666 -70.6179786584 0.797435566297 75.7620414526
10.275 0.572676049667 -115.132493885 0.30629167396 117.000397554 0.630080935587 140.401982431 0.425705963555 -102.00790873 0.30629167396 117.000397554 0.571376583731 -115.081082882 0.630227964776 140.49869566 0.427231696656 78.073880681 0.630080935587 140.401982431 0.630227964776 140.49869566 0.453661763309 -111.797596267 0.00131567989676 -73.5346116714 0.425705963555 -102.00790873 0.427231696656 78.073880681 0.00131567989676 -73.5346116714 0.797650160742 73.5329623003
10.3 0.570637647179 -117.786802875 0.306976133473 113.823496446 0.631750844014 136.301658832 0.425475264286 -104.494207141 0.306976133473 113.823496446 0.569339711595 -117.724566599 0.631850996399 136.401183047 0.427062366572 75.5887550419 0.631750844014 136.301658832 0.631850996399 136.401183047 0.44905839365 -117.158617457 0.0013219472136 -76.4206005685 0.425475264286 -104.494207141 0.427062366572 75.5887550419 0.0013219472136 -76.4206005685 0.797863889999 71.3062902445
10.325 0.568595112022 -120.431489687 0.307644616904 110.646631605 0.633420359191 132.202859225 0.425244679237 -106.97715694 0.307644616904 110.646631605 0.567298228106 -120.358197634 0.633473543203 132.305288785 0.426894343482 73.1069738854 0.633420359191 132.202859225 0.633473543203 132.305288785 0.444396389629 -122.528341894 0.00132901454135 -79.2769247984 0.425244679237 -106.97715694 0.426894343482 73.1069738854 0.00132901454134 -79.2769247985 0.798076698052 69.0819766857
10.35 0.566550525982 -123.066392528 0.308295397147 107.469763029 0.635088449033 128.105347873 0.425014248997 -109.456809713 0.308295397147 107.469763029 0.56525416871 -122.98181748 0.635094597438 128.210776968 0.426727694755 70.6284838668 0.635088449033 128.105347873 0.635094597438 128.210776968 0.439676842242 -127.907984876 0.00133695073311 -82.1047874597 0.425014248997 -109.456809713 0.426727694755 70.6284838668 0.00133695073311 -82.1047874598 0.798288528802 66.8599734595
10.375 0.564506118203 -125.6913541 0.308926724792 104.292863409 0.636754004936 124.008893091 0.424784014099 -111.933216576 0.308926724792 104.292863409 0.563209714592 -125.595272442 0.63671307495 124.11741564 0.426562488368 68.1532321934 0.636754004936 124.008893091 0.63671307495 124.11741564 0.434901121337 -133.298797932 0.00134582695043 -84.9056229463 0.424784014099 -111.933216576 0.426562488368 68.1532321934 0.00134582695043 -84.9056229463 0.798499325997 64.6402328235
10.4 0.562464266044 -128.306222812 0.309536829558 101.115918355 0.638415843297 119.913267304 0.424554014988 -114.406428219 0.309536829558 101.115918355 0.561167193442 -128.198414844 0.638327816627 120.024976854 0.426398793048 65.6811666007 0.638415843297 119.913267304 0.638327816627 120.024976854 0.430070891136 -138.70207049 0.00135571642598 -87.6811013272 0.424554014988 -114.406428219 0.426398793048 65.6811666007 0.00135571642598 -87.6811013273 0.798709033175 62.4227074453
10.425 0.560427495551 -130.91085409 0.310123921832 97.9389266679 0.640072707144 115.818247108 0.424324291992 -116.876494937 0.310123921832 97.9389266679 0.559129079835 -130.79110431 0.639937589957 115.93323673 0.426236678422 63.2122353283 0.640072707144 115.818247108 0.639937589957 115.93323673 0.425188126865 -144.11913155 0.00136669419162 -90.4331289309 0.424324291992 -116.876494937 0.426236678422 63.2122353283 0.00136669419162 -90.433128931 0.79891759359 60.2073503912
10.45 0.558398481469 -133.50511178 0.310686194334 94.7619006514 0.641723267894 111.72361331 0.424094885266 -119.343466672 0.310686194334 94.7619006514 0.557097995155 -133.373209157 0.641541090701 111.841975494 0.426076215181 60.7463870948 0.641723267894 111.72361331 0.641541090701 111.841975494 0.420255132527 -149.551351278 0.00137883677491 -93.1638446707 0.424094885266 -119.343466672 0.426076215181 60.7463870948 0.00137883677491 -93.1638446707 0.799124950162 57.9941151141
10.475 0.556380046726 -136.088869653 0.311221823938 91.5848664618 0.64336612725 107.629150967 0.423865834742 -121.807393045 0.311221823938 91.5848664618 0.55507670699 -135.944607877 0.643136944701 107.750977522 0.425917475243 58.2835710726 0.64336612725 107.629150967 0.643136944701 107.750977522 0.415274559835 -155.000142518 0.00139222186906 -95.8756117556 0.423865834742 -121.807393045 0.425917475243 58.2835710726 0.00139222186905 -95.8756117557 0.799331045411 55.7829554431
10.5 0.554375161325 -138.662013021 0.311728973645 88.4078645095 0.64499981925 103.534649409 0.423637180044 -124.268323394 0.311728973645 88.4078645095 0.553068127931 -138.505190722 0.644723709828 103.660031364 0.425760531932 55.8237368625 0.64499981925 103.534649409 0.644723709828 103.660031364 0.41024942832 -160.466962134 0.00140692798223 -98.5710045652 0.423637180044 -124.268323394 0.425760531932 55.8237368625 0.00140692798223 -98.5710045652 0.799535821402 53.5738255721
10.525 0.552386940551 -141.22444044 0.312205794763 85.2309499067 0.646622812476 99.4399022572 0.423408960412 -126.726306809 0.312205794763 85.2309499067 0.551075313694 -141.05486139 0.646299878092 99.56892976 0.425605460167 53.3668344672 0.646622812476 99.4399022572 0.646299878092 99.56892976 0.405183146599 -165.953312128 0.00142303407387 -101.252790632 0.423408960412 -126.726306809 0.425605460167 53.3668344672 0.00142303407387 -101.252790632 0.799739219687 51.3666800498
10.55 0.550418642414 -143.776065535 0.312650429281 82.0541929682 0.648233512459 95.3447074279 0.423181214594 -129.181392167 0.312650429281 82.0541929682 0.549101460483 -143.59353881 0.647863877926 95.4774696454 0.42545233666 50.9128142641 0.648233512459 95.3447074279 0.647863877926 95.4774696454 0.40007953479 -171.460740454 0.00144061918645 -103.923907868 0.423181214594 -129.181392167 0.42545233666 50.9128142641 0.00144061918645 -103.923907868 0.799941181254 49.1614737692
10.575 0.548473664251 -146.31681891 0.313061012489 78.8776797664 0.649830264265 91.2488671234 0.422953980738 -131.633628164 0.313061012489 78.8776797664 0.547149901504 -146.121159032 0.64941407666 91.3854521471 0.425301240126 48.4616269767 0.649830264265 91.2488671234 0.64941407666 91.3854521471 0.394942847993 -176.99084143 0.0014597620821 -106.587437364 0.422953980738 -131.633628164 0.425301240126 48.4616269767 0.0014597620821 -106.587437364 0.80014164647 46.9581619573
10.6 0.546555538384 -148.84665017 0.313435675837 75.7015127445 0.651411355318 87.152187809 0.42272729626 -134.083063351 0.313435675837 75.7015127445 0.545224102549 -148.637677202 0.650948783199 87.2926825606 0.425152251503 46.013223646 0.651411355318 87.152187809 0.650948783199 87.2926825606 0.389777800785 177.454744366 0.00148054089407 -109.246572298 0.42272729626 -134.083063351 0.425152251503 46.013223646 0.00148054089407 -109.246572298 0.800340555029 44.7567001657
10.625 0.544667926748 -151.365530023 0.313772550086 72.5258113909 0.652975018432 83.0544801747 0.422501197705 -136.529746166 0.313772550086 72.5258113909 0.543327656549 -151.143069638 0.652466250934 83.1989703145 0.425005454189 43.5675555995 0.652975018432 83.0544801747 0.652466250934 83.1989703145 0.384589592575 171.874330855 0.00150303280293 -111.904583674 0.422501197705 -136.529746166 0.425005454189 43.5675555995 0.00150303280294 -111.904583674 0.800537845902 42.5570442608
10.65 0.542814614401 -153.873452475 0.314069768733 69.3507129771 0.654519435123 78.9555590765 0.422275720586 -138.973724962 0.314069768733 69.3507129771 0.541464277012 -153.637335979 0.653964680887 79.1041289153 0.42486093429 41.1245744193 0.654519435123 78.9555590765 0.653964680887 79.1041289153 0.379383933664 166.266188015 0.00152731374741 -114.564783752 0.422275720586 -138.973724962 0.42486093429 41.1245744193 0.00152731374742 -114.564783752 0.800733457282 40.3591504141
10.675 0.540999501813 -156.370437096 0.314325471765 66.1763733646 0.656042739167 74.8552434585 0.422050899214 -141.415048042 0.314325471765 66.1763733646 0.539637790249 -156.120501415 0.655442225121 75.0079758721 0.424718780878 38.6842319083 0.656042739167 74.8552434585 0.655442225121 75.0079758721 0.374167071782 160.628544441 0.00155345817868 -117.230488183 0.422050899214 -141.415048042 0.424718780878 38.6842319083 0.00155345817868 -117.230488183 0.800927326537 38.1629750929
10.7 0.539226595859 -158.856531353 0.314537809736 63.0029678825 0.657543020465 70.7533562485 0.421826766509 -143.853763684 0.314537809736 63.0029678825 0.537852126301 -158.59261897 0.656896990431 70.9103325968 0.424579086277 36.2464800552 0.657543020465 70.7533562485 0.656896990431 70.9103325968 0.368945818802 154.959591092 0.00158153886618 -119.904977893 0.421826766509 -143.853763684 0.424579086277 36.2464800552 0.00158153886618 -119.904977893 0.801119390153 35.9684750513
10.725 0.537499999411 -161.331812979 0.314704948203 59.8306922817 0.659018329209 66.6497242273 0.421603353795 -146.289920171 0.314704948203 59.8306922817 0.536111308487 -161.053771831 0.658327042326 66.8110242772 0.42444194635 33.8112709964 0.659018329209 66.6497242273 0.658327042326 66.8110242772 0.363727577269 149.257486494 0.00161162676158 -122.591461793 0.421603353795 -146.289920171 0.42444194635 33.8112709964 0.00161162676157 -122.591461793 0.801309583688 33.7756073207
10.75 0.535823899482 -163.796392386 0.314825072516 56.6597637703 0.660466680376 62.5441778646 0.421380690579 -148.723565816 0.314825072516 56.6597637703 0.534419441486 -163.50407571 0.659730409331 62.7098797177 0.424307460811 31.3785569765 0.660466680376 62.5441778646 0.659730409331 62.7098797177 0.358520366257 143.520363646 0.00164379092569 -125.293041345 0.421380690579 -148.723565816 0.424307460811 31.3785569765 0.00164379092568 -125.293041345 0.801497841715 31.5843292007
10.775 0.53420255382 -166.250415071 0.314896393003 53.4904221347 0.661886058563 58.436551119 0.421158804316 -151.154748987 0.314896393003 53.4904221347 0.532780697901 -165.943681204 0.661105087617 58.6067311448 0.42417573356 28.9482903064 0.661886058563 58.436551119 0.661105087617 58.6067311448 0.353332846005 137.746338952 0.00167809852194 -128.012677919 0.421158804316 -151.154748987 0.42417573356 28.9482903064 0.00167809852194 -128.012677919 0.80168409777 29.3945982503
10.8 0.532640275927 -168.694064013 0.31491715055 50.3229309545 0.663274423185 54.3266811964 0.420937720146 -153.58351813 0.31491715055 50.3229309545 0.531199303235 -168.372776141 0.662449045971 54.5014139709 0.42404687303 26.5204233173 0.663274423185 54.3266811964 0.662449045971 54.5014139709 0.348174340599 131.933523495 0.00171461487788 -130.753163721 0.420937720146 -153.58351813 0.42404687303 26.5204233173 0.00171461487788 -130.753163721 0.801868284296 27.2063722786
10.825 0.531141418451 -171.12756203 0.314885622597 47.1575789178 0.664629714042 50.2144082609 0.420717460628 -156.009921792 0.314885622597 47.1575789178 0.529679519263 -170.791587882 0.66376023113 50.3937665116 0.423920992556 24.0949083138 0.664629714042 50.2144082609 0.66376023113 50.3937665116 0.343054857874 126.080037028 0.00175340361498 -133.517096928 0.420717460628 -156.009921792 0.423920992556 24.0949083138 0.00175340361498 -133.517096928 0.802050332585 25.0196093358
10.85 0.52971035494 -173.551174056 0.314800129566 43.9946812458 0.66594985727 46.0995750925 0.420498045437 -158.43400864 0.314800129566 43.9946812458 0.52822562576 -173.200385552 0.665036573479 46.2836296507 0.423798210775 21.6716975214 0.66594985727 46.0995750925 0.665036573479 46.2836296507 0.337985105509 120.18402504 0.00179452684562 -136.306861441 0.420498045437 -158.43400864 0.423798210775 21.6716975214 0.00179452684561 -136.30686144 0.802230172719 22.834267704
10.875 0.528351459953 -175.965209331 0.314659041754 40.8345812374 0.667232771682 41.9820266856 0.420279491055 -160.855827478 0.314659041754 40.8345812374 0.526841900606 -175.59948217 0.666275993122 42.1708464462 0.423678652043 19.250743032 0.667232771682 41.9820266856 0.666275993122 42.1708464462 0.33297650213 114.243679292 0.00183804543514 -139.12461148 0.420279491055 -160.855827478 0.423678652043 19.250743032 0.00183804543514 -139.12461148 0.802407733506 20.6503058882
10.9 0.527069087568 -178.37002344 0.314460786694 37.6776519463 0.668476375511 37.8616097807 0.420061810434 -163.275427261 0.314460786694 37.6776519463 0.525532598295 -177.989236644 0.667476406331 38.0552616703 0.423562446883 16.8319967449 0.668476375511 37.8616097807 0.667476406331 38.0552616703 0.328041182046 108.257262185 0.00188401932628 -141.972261076 0.420061810434 -163.275427261 0.423562446883 16.8319967449 0.00188401932628 -141.972261076 0.802582942415 18.4676826071
10.925 0.525867548341 179.233979788 0.314203857042 34.5242980043 0.669678593541 33.7381723221 0.419845012629 -165.692857115 0.314203857042 34.5242980043 0.52430192689 179.629944392 0.668635732372 33.936721276 0.423449732461 14.4154103028 0.669678593541 33.7381723221 0.668635732372 33.936721276 0.323191992018 102.223135303 0.00193250792288 -144.851478288 0.419845012629 -165.692857115 0.423449732461 14.4154103028 0.00193250792288 -144.851478288 0.802755725501 16.2863567834
10.95 0.52475108478 176.846346596 0.313886819007 31.3749576092 0.670837364644 29.6115628338 0.419629102417 -168.108166342 0.313886819007 31.3749576092 0.523154023512 177.257604937 0.669751900706 29.8150717837 0.423340653096 12.0009350245 0.670837364644 29.6115628338 0.669751900706 29.8150717837 0.318442478304 96.139792387 0.00198357053022 -147.763683889 0.419629102417 -168.108166342 0.423340653096 12.0009350245 0.00198357053023 -147.763683889 0.802926007333 14.1062875348
10.975 0.523723845466 174.466571816 0.313508321403 28.230104695 0.671950649691 25.4816297054 0.41941407988 -170.521404433 0.313508321403 28.2301046949 0.522092928468 174.893238192 0.670822858542 25.6901595771 0.423235360803 9.58852183104 0.671950649691 25.4816297054 0.670822858542 25.6901595771 0.313806862004 90.0058969085 0.00203726684943 -150.710054103 0.41941407988 -170.521404433 0.423235360803 9.58852183104 0.00203726684944 -150.710054104 0.803093710912 11.927434164
11 0.52278985792 172.094097647 0.313067105371 25.09025131 0.673016439835 21.3482203792 0.419199939959 -172.932621073 0.313067105371 25.09025131 0.52112255812 172.536285387 0.671846578748 21.5618301034 0.423134015875 7.17812116698 0.673016439835 21.3482203792 0.671846578748 21.5618301034 0.309300000609 83.8203242497 0.00209365752447 -153.691526918 0.419199939959 -172.932621073 0.423134015875 7.17812116698 0.00209365752449 -153.691526918 0.803258757583 9.74975614902
11.025 0.521953000378 169.728312679 0.312562014891 21.9559502276 0.674032765152 17.2111804305 0.418986671974 -175.341866142 0.312562014891 21.9559502276 0.520246676646 170.186134849 0.672821068069 17.4299269651 0.423036787506 4.76968291587 0.674032765152 17.2111804305 0.672821068069 17.4299269651 0.304937333547 77.5822082835 0.00215280474121 -156.708811449 0.418986671974 -175.341866142 0.423036787506 4.76968291587 0.00215280474123 -156.70881145 0.803421066936 7.57321313336
11.05 0.521216972604 167.36855121 0.311992008189 18.8277978207 0.674997703596 13.0703525303 0.418774259105 -177.749189721 0.311992008189 18.8277978207 0.519468866814 167.842121359 0.673744375653 13.2942908981 0.422943854465 2.36315630885 0.674997703596 13.0703525303 0.673744375653 13.2942908981 0.300734809531 71.2909918793 0.00221477287935 -159.762399819 0.418774259105 -177.749189721 0.422943854465 2.36315630885 0.00221477287937 -159.76239982 0.803580556713 5.39776491557
11.075 0.520585265896 165.014092828 0.311356170228 15.7064372354 0.67590939025 8.92557528245 0.418562677835 179.845357918 0.311356170228 15.7064372354 0.518792499908 165.503525776 0.674614601824 9.15475862371 0.422855405811 -0.0415101735754 0.67590939025 8.92557528245 0.674614601824 9.15475862371 0.296708793599 64.9464805277 0.00227962921947 -162.852581014 0.418562677835 179.845357918 0.422855405811 -0.0415101735752 0.0022796292195 -162.852581015 0.803737142686 3.22337143895
11.1 0.520061132406 162.66416228 0.310653726473 12.5925619011 0.676766026822 4.7766819257 0.418351897347 177.441726317 0.310653726473 12.592561901 0.518220704893 163.169574945 0.675429907074 5.0111615671 0.422771641673 -2.44436890726 0.676766026822 4.7766819257 0.675429907074 5.0111615671 0.29287595203 58.5488978846 0.00234744470903 -165.979456241 0.418351897347 177.441726317 0.422771641673 -2.44436890726 0.00234744470906 -165.979456242 0.803890738541 1.04999278078
11.125 0.519647553852 160.317929602 0.30988405823 9.48691942141 0.677565891348 0.623498889729 0.418141878861 175.039864848 0.30988405823 9.4869194214 0.517756336905 160.839441861 0.676188521222 0.863324432066 0.422692774087 -4.84547323818 0.677565891348 0.623498889731 0.676188521222 0.863324432065 0.289253113747 52.098941603 0.00241829479273 -169.142955325 0.418141878861 175.039864848 0.422692774087 -4.84547323818 0.00241829479275 -169.142955326 0.804041255748 -1.12241085856
11.15 0.519347209673 157.974510485 0.309046719911 6.39031589276 0.678307348038 -3.53415580285 0.417932574934 172.639722731 0.309046719911 6.39031589275 0.517401945053 158.512246082 0.676888752677 -3.28893637757 0.422619027899 -7.24487760491 0.678307348038 -3.53415580285 0.676888752677 -3.28893637758 0.285857107487 45.5978373659 0.00249226031461 -172.342853784 0.417932574934 172.639722731 0.422619027899 -7.24487760491 0.00249226031462 -172.342853785 0.804188603412 -3.29387916689
11.175 0.519162444556 155.632966859 0.30814145867 3.30362069845 0.678988857217 -7.69647429906 0.417723928688 170.241249068 0.30814145867 3.30362069845 0.51715973947 156.187054353 0.677528997747 -7.44581449909 0.422550641747 -9.64263767034 0.678988857217 -7.69647429906 0.677528997747 -7.4458144991 0.282704574931 39.0473886018 0.00256942850075 -175.578790259 0.417723928688 170.241249068 0.422550641747 -9.64263767033 0.00256942850075 -175.57879026 0.804332688121 -5.46445173171
11.2 0.519095235218 153.292307644 0.307168236996 0.227771830667 0.67960898528 -11.8636608519 0.417515872982 167.844392874 0.307168236996 0.22777183067 0.517031557438 153.862881415 0.678107749918 -11.607515524 0.422487869122 -12.0388104633 0.67960898528 -11.8636608519 0.678107749918 -11.607515524 0.279811761105 32.4500189898 0.00264989403349 -178.850284053 0.417515872982 167.844392874 0.422487869122 -12.0388104633 0.00264989403349 -178.850284053 0.804473413772 -7.63416805208
11.225 0.519147156149 150.951489619 0.306127258989 -2.83621821156 0.680166414596 -16.0359339396 0.417308329521 165.449103135 0.306127258989 -2.83621821155 0.517018828302 151.538690958 0.678623609036 -15.7742590923 0.422430979525 -14.4334545308 0.680166414596 -16.0359339396 0.678623609036 -15.7742590923 0.277194284708 25.8088046247 0.00273376022993 177.843247393 0.417308329521 165.449103135 0.422430979525 -14.4334545308 0.00273376022991 177.843247394 0.804610681388 -9.80306755073
11.25 0.519319343928 148.60941838 0.305019001206 -5.88725590487 0.68065995328 -20.2135285771 0.417101207911 163.055328867 0.305019001206 -5.88725590485 0.517122536727 149.213396671 0.679075290292 -19.9462811768 0.422380259719 -16.8266301017 0.68065995328 -20.2135285771 0.679075290292 -19.9462811768 0.274866892524 19.1274926517 0.00282114033927 174.502471193 0.417101207911 163.055328867 0.422380259719 -16.8266301017 0.00282114033923 174.502471195 0.804744388917 -11.9711895865
11.275 0.519612459517 146.264949311 0.303844249225 -8.92415953337 0.681088544756 -24.3966988283 0.416894404654 160.6630192 0.303844249225 -8.92415953334 0.517343183749 146.885863365 0.679461632943 -24.1238365658 0.4223360151 -19.2183992623 0.681088544756 -24.3966988283 0.679461632943 -24.1238365658 0.272843203598 12.4105033777 0.00291215897605 171.12812195 0.416894404654 160.6630192 0.4223360151 -19.2183992623 0.002912158976 171.128121953 0.804874431006 -14.1385734672
11.3 0.520026647792 143.916888552 0.302604141293 -11.9456513598 0.681451277012 -28.5857205273 0.416687802099 158.272123484 0.302604141293 -11.9456513598 0.517680744848 144.554908127 0.67978160866 -28.3072015532 0.42229857119 -21.6088261447 0.681451277012 -28.5857205273 0.67978160866 -28.3072015532 0.271135450342 5.66291334962 0.00300695370833 167.720984906 0.416687802099 158.272123484 0.42229857119 -21.6088261447 0.00300695370826 167.720984911 0.805000698772 -16.3052584626
11.325 0.520561493364 141.563993906 0.301300220772 -14.9503491611 0.681747391472 -32.7808942167 0.416481267375 155.882591409 0.301300220772 -14.950349161 0.518134624179 142.219301493 0.680034329418 -32.496676842 0.422268275272 -23.9979771289 0.681747391472 -32.7808942167 0.680034329418 -32.496676842 0.269754224989 -1.1095823153 0.00310567682249 164.281879288 0.416481267375 155.882591409 0.422268275271 -23.9979771289 0.00310567682241 164.281879294 0.805123079533 -18.4712838178
11.35 0.521215971566 139.204975685 0.299934499463 -17.9367572075 0.681976291378 -36.9825483104 0.416274651314 153.494373162 0.299934499463 -17.9367572074 0.518703603877 139.877768636 0.680219054828 -36.6925906711 0.422245498174 -26.3859210595 0.681976291378 -36.9825483104 0.680219054828 -36.6925906711 0.268708240649 -7.90072897691 0.00320849728938 160.811641741 0.416274651314 153.494373162 0.422245498174 -26.3859210596 0.00320849728928 160.811641748 0.805241456535 -20.636688767
11.375 0.521988393289 136.838497491 0.298509534303 -20.9032568452 0.682137549613 -41.1910424878 0.416067787418 151.107419609 0.298509534304 -20.9032568451 0.519385787275 137.528990593 0.680335198809 -40.8953021691 0.422230636237 -28.7727294776 0.682137549613 -41.1910424878 0.680335198809 -40.8953021691 0.268004116581 -14.7037922255 0.00331560295964 157.311109738 0.416067787418 151.107419609 0.422230636237 -28.7727294776 0.00331560295955 157.311109745 0.805355708641 -22.8015125474
11.4 0.52287634221 134.46317696 0.297028520454 -23.848096963 0.682230915848 -45.4067713255 0.415860490898 148.721682509 0.297028520454 -23.8480969629 0.520178534722 135.171605575 0.68038233551 -45.1052049436 0.42222411346 -31.1584768682 0.682230915847 -45.4067713256 0.68038233551 -45.1052049436 0.26764619695 -21.5116562499 0.00342720302022 153.781104805 0.415860490898 148.721682509 0.42222411346 -31.1584768682 0.00342720302014 153.781104814 0.805465710006 -24.9657944135
11.425 0.523876602802 132.077586544 0.295495404317 -26.7693847923 0.682256322942 -49.630168172 0.415652557846 146.337114762 0.295495404318 -26.7693847922 0.52107839066 132.804210454 0.680360204377 -49.3227309101 0.422226383874 -33.543240926 0.682256322942 -49.6301681721 0.680360204377 -49.3227309101 0.267636411336 -28.3169373439 0.00354353074828 150.222415384 0.415652557847 146.337114762 0.422226383874 -33.5432409261 0.00354353074821 150.222415393 0.80557132972 -27.1295736514
11.45 0.524985077467 129.680254437 0.293915020616 -29.6650777365 0.682213892509 -53.8617092706 0.41544376461 143.953670688 0.293915020616 -29.6650777364 0.522081000593 130.42536255 0.680268714272 -53.5483543653 0.422237934147 -35.9271028377 0.682213892509 -53.8617092706 0.680268714272 -53.5483543653 0.267974183588 -35.1121078804 0.0036648466045 146.635779106 0.41544376461 143.953670688 0.422237934147 -35.9271028377 0.00366484660445 146.635779113 0.805672431425 -29.2928895935
11.475 0.526196691102 127.269665789 0.292293258214 -32.5329772601 0.682103939552 -58.1019181342 0.415233867414 141.571306331 0.292293258214 -32.53297726 0.523181016667 128.033581874 0.680107946555 -57.7825963093 0.422259286457 -38.3101475838 0.682103939552 -58.1019181342 0.680107946555 -57.7825963093 0.268656393379 -41.8896252235 0.003791441714 143.021864238 0.415233867414 141.571306331 0.422259286457 -38.3101475838 0.00379144171397 143.021864243 0.8057688729 -31.4557816333
11.5 0.527505281502 124.844264434 0.290637259842 -35.3707263355 0.681926976109 -62.3513701758 0.415022602317 139.18997979 0.290637259842 -35.3707263355 0.52437199076 125.627354056 0.67987815703 -62.0260290183 0.422291001671 -40.6924642597 0.681926976109 -62.3513701758 0.67987815703 -62.0260290183 0.269677392237 -48.6420596416 0.00392364179068 139.381250036 0.415022602317 139.18997979 0.422291001671 -40.6924642597 0.00392364179069 139.381250036 0.805860505614 -33.6182892403
