! Generated from PyAEDT SolutionData; AEDT ExportNetworkData workaround
# GHz S MA R 50
9 0.253451792024 145.086807803 0.546575382918 -171.561069167 0.466919232373 -77.548654621 0.647305160144 42.8824859081 0.546575382918 -171.561069167 0.252860660935 144.867031249 0.46721410083 -77.4507541589 0.647323582859 -137.088831643 0.466919232373 -77.548654621 0.46721410083 -77.4507541589 0.750797285644 -150.027145176 0.000922115170474 -64.2862345546 0.647305160144 42.8824859081 0.647323582859 -137.088831643 0.000922115170474 -64.2862345546 0.40245168459 -128.28385557
9.025 0.251592261474 142.280784631 0.547540175255 -174.376730455 0.467424404371 -81.8171856802 0.646849775918 39.9740890338 0.547540175255 -174.376730455 0.251026346928 142.061918692 0.467725556268 -81.7192119826 0.646852375894 -139.997739352 0.467424404371 -81.8171856802 0.467725556268 -81.7192119826 0.75016134149 -155.835738 0.000919466409683 -68.8670173021 0.646849775918 39.9740890338 0.646852375894 -139.997739352 0.000919466409726 -68.867017296 0.403938764457 -130.979849067
9.05 0.249757541725 139.484627194 0.548520031135 -177.185298529 0.467895190949 -86.0787820241 0.646389637574 37.0735569378 0.548520031135 -177.185298529 0.249215879013 139.266844946 0.468202708915 -85.9807539806 0.646376638761 -142.898748374 0.467895190949 -86.0787820241 0.468202708914 -85.9807539806 0.749568169087 -161.639233387 0.000916752114961 -73.4244474533 0.646389637574 37.0735569378 0.646376638761 -142.898748374 0.000916752115033 -73.4244474436 0.40543413284 -133.670942354
9.075 0.247947630728 136.697853006 0.549514965817 -179.987018576 0.468331876796 -90.3333550792 0.645924727964 34.1807451022 0.549514965817 -179.987018576 0.24742938719 136.481318467 0.468645832285 -90.2352921726 0.645896387603 -145.792005905 0.468331876796 -90.3333550792 0.468645832285 -90.2352921726 0.749017418729 -167.436768155 0.000913985651382 -77.9581835389 0.645924727964 34.1807451022 0.645896387603 -145.792005905 0.000913985651472 -77.9581835273 0.406937668088 -136.357232351
9.1 0.246162449885 133.920019718 0.550524885006 177.217871003 0.468734857138 -94.5808226174 0.645455031846 31.2955120181 0.550524885006 177.217871003 0.245666886717 133.704882605 0.469055310737 -94.4827448871 0.64541163443 -148.677655795 0.468734857138 -94.5808226174 0.469055310737 -94.4827448871 0.748508608506 -173.227563433 0.000911179904032 -82.4679141115 0.645455031847 31.2955120181 0.64541163443 -148.677655795 0.000911179904129 -82.4679140994 0.408449252966 -139.038814016
9.125 0.244401876609 131.150717375 0.551549592162 174.429139133 0.469104636602 -98.8211088621 0.644980535417 28.4177191526 0.551549592162 174.429139133 0.243928314766 130.937110462 0.469431638312 -98.7230368677 0.644922387627 -151.555838639 0.469104636602 -98.8211088621 0.469431638312 -98.7230368677 0.74804112601 -179.010918322 0.000908347381853 -86.9533543378 0.644980535418 28.4177191526 0.644922387627 -151.555838639 0.000908347381949 -86.953354326 0.409968774555 -141.715780386
9.15 0.2426657639 128.389560665 0.552588795691 171.64656253 0.469441827507 -103.054144661 0.644501225899 25.5472309081 0.552588795691 171.64656253 0.242213556056 128.177599069 0.469775416993 -102.956099445 0.644428652393 -154.426691856 0.469441827508 -103.054144661 0.469775416993 -102.956099445 0.747614230288 175.213796179 0.000905500318612 -91.4142437852 0.6445012259 25.5472309081 0.644428652393 -154.426691856 0.000905500318701 -91.4142437743 0.41149612414 -144.388222618
9.175 0.240953949407 125.636181764 0.553642115979 168.8699261 0.469747147592 -107.279867715 0.644017091188 22.6839145757 0.553642115979 168.8699261 0.240522458604 125.425963504 0.470087354411 -107.181870764 0.643930431122 -157.290349784 0.469747147592 -107.279867715 0.470087354411 -107.181870764 0.747227054092 169.447142923 0.000902650768322 -95.8503453248 0.644017091188 22.6839145757 0.643930431122 -157.290349784 0.000902650768401 -95.8503453153 0.413031197121 -147.05623003
9.2 0.239266256634 122.890224211 0.554709092279 166.099023272 0.47002141719 -111.498222854 0.643528119543 19.8276402845 0.554709092279 166.099023272 0.238854841343 122.681831455 0.470368261003 -111.400296061 0.643427723737 -160.14694376 0.47002141719 -111.498222854 0.470368261003 -111.400296061 0.746878606463 163.689623937 0.000899810692975 -100.261445052 0.643528119543 19.8276402845 0.643427723737 -160.14694376 0.00089981069304 -100.261445044 0.414573892907 -149.719890149
9.225 0.237602490851 120.151338001 0.555789189415 163.333656274 0.470265555899 -115.709162353 0.64303429933 16.9782809455 0.555789189414 163.333656274 0.237210495554 119.944838557 0.470619046664 -115.611327979 0.642920527969 -162.996602211 0.470265555899 -115.709162353 0.470619046664 -115.611327979 0.74656777572 157.941685278 0.000896992040906 -104.647353118 0.64303429933 16.9782809455 0.642920527969 -162.996602211 0.000896992040956 -104.647353112 0.416124114828 -152.379288748
9.25 0.23596243195 117.419175969 0.556881804313 160.573636347 0.470480578766 -119.912646272 0.642535618796 14.135712193 0.556881804313 160.573636347 0.23558918207 117.214624711 0.470840716921 -119.814926905 0.6424088396 -165.839450742 0.470480578766 -119.912646272 0.470840716921 -119.814926905 0.746293332893 152.203721391 0.000894206814601 -109.00790535 0.642535618796 14.135712193 0.6424088396 -165.839450742 0.000894206814636 -109.007905344 0.41768177004 -155.034509895
9.275 0.234345826014 114.693391368 0.55798627234 157.818783916 0.470667592025 -124.108642826 0.642032065886 11.2998123231 0.55798627234 157.818783916 0.233990626007 114.490831407 0.471034368662 -124.011061339 0.641892652662 -168.675612214 0.470667592025 -124.108642826 0.471034368662 -124.011061339 0.746053935639 146.476078941 0.000891467127162 -113.342965541 0.642032065886 11.2998123231 0.641892652662 -168.675612214 0.000891467127183 -113.342965538 0.419246769439 -157.685635993
9.3 0.232752376917 111.973636525 0.559101873442 155.068928701 0.470827788432 -128.297128753 0.641523628089 8.47046223013 0.559101873442 155.068928701 0.232414510446 111.773100048 0.471201185469 -128.199708269 0.641371959604 -171.505206839 0.470827788432 -128.297128753 0.471201185469 -128.199708269 0.745848132662 140.759060123 0.000888785247058 -117.65242829 0.641523628089 8.47046223013 0.641371959604 -171.505206839 0.000888785247066 -117.652428287 0.420819027566 -160.332747827
9.325 0.231181738854 109.259562367 0.560227838087 152.323909792 0.470962442242 -132.478089702 0.641010292313 5.64754534135 0.560227838087 152.323909792 0.230860470161 109.061071131 0.471342432585 -132.380853548 0.640846751431 -174.32835225 0.470962442242 -132.478089702 0.471342432585 -132.380853548 0.745674368674 135.052925467 0.000886173631121 -121.936222246 0.641010292313 5.64754534135 0.640846751431 -174.32835225 0.000886173631118 -121.936222244 0.422398462533 -162.975924602
9.35 0.229633510299 106.550818645 0.561363352999 149.58357568 0.471072903864 -136.651520613 0.640492044783 2.83094755129 0.561363352999 149.58357568 0.229328086136 106.354384163 0.471459451577 -136.554492279 0.640317017816 -177.145163593 0.471072903864 -136.651520613 0.471459451577 -136.554492279 0.745530989877 129.357896147 0.000883644946068 -126.194313658 0.640492044783 2.83094755129 0.640317017816 -177.145163593 0.000883644946057 -126.194313657 0.423984995929 -165.615243993
9.375 0.228107229635 103.84705467 0.562507566684 146.847784244 0.471160594257 -140.817426085 0.639968870967 0.0205571550824 0.562507566684 146.847784244 0.227816881299 103.652678137 0.471553654729 -140.720629184 0.639782747185 -179.955753598 0.471160594257 -140.817426085 0.471553654729 -140.720629184 0.745416249966 123.674155837 0.000881212079066 -130.426710105 0.639968870967 0.0205571550813 0.639782747185 -179.955753598 0.000881212079049 -130.426710104 0.425578552745 -168.250782179
9.4 0.226602372482 101.147920384 0.563659594744 144.116402712 0.471226999102 -144.975820738 0.639440755513 -2.78373521811 0.563659594744 144.116402712 0.226326317692 100.955592429 0.471626519222 -144.879278963 0.639243926784 177.239767339 0.471226999102 -144.975820738 0.471626519222 -144.879278963 0.745328316626 118.00185215 0.000878888138077 -134.633464277 0.639440755513 -2.78373521811 0.639243926784 177.239767339 0.000878888138056 -134.633464276 0.427179061293 -170.88261389
9.425 0.225118350617 98.4530676594 0.564818524974 141.389307584 0.471273662805 -149.126729555 0.638907682209 -5.58203667146 0.564818524974 141.389307584 0.224855795091 98.2627679629 0.47167958114 -149.030466637 0.638700542736 174.441291087 0.471273662805 -149.126729555 0.47167958114 -149.030466637 0.745265278478 112.341097702 0.000876686442885 -138.814677734 0.638907682209 -5.58203667146 0.638700542736 174.441291087 0.000876686442862 -138.814677734 0.428786453126 -173.510812448
9.45 0.223654512287 95.7621516925 0.565983422248 138.666384525 0.471302182377 -153.2701882 0.638369633951 -8.37445210635 0.565983422248 138.666384525 0.223404650985 95.5738485414 0.471714429359 -153.174227867 0.638152580067 171.648711701 0.471302182377 -153.2701882 0.471714429359 -153.174227867 0.745225152431 106.691970849 0.000874620507802 -142.970504521 0.638369633951 -8.37445210635 0.638152580067 171.648711701 0.000874620507779 -142.970504521 0.430400662962 -176.135449799
9.475 0.222210143695 93.0748324218 0.567153333185 135.947528239 0.47131420124 -157.406243318 0.63782659273 -11.1610842874 0.567153333185 135.947528239 0.221972161748 92.8884822354 0.471732699357 -157.31060925 0.63760002274 168.861925355 0.47131420124 -157.406243318 0.471732699357 -157.31060925 0.745205891361 101.054516142 0.000872704017143 -147.101154564 0.63782659273 -11.1610842874 0.63760002274 168.861925355 0.000872704017122 -147.101154565 0.432021628613 -178.756596563
9.5 0.220784471419 90.3907759108 0.5683272906 133.23264231 0.471311402996 -161.534952796 0.637278539624 -13.9420339064 0.5683272906 133.23264231 0.220557544787 90.2063227723 0.471736066996 -161.439668588 0.637042853659 166.080830277 0.471311402996 -161.534952796 0.471736066996 -161.439668588 0.745205392072 95.4287445625 0.000870950794575 -151.206896774 0.637278539624 -13.9420339064 0.637042853659 166.080830277 0.000870950794557 -151.206896774 0.433649290903 178.625677938
9.525 0.21937666553 87.7096556514 0.569504317728 130.521639031 0.47129550521 -165.656386007 0.636725454798 -16.7173996455 0.569504317728 130.521639031 0.219159961473 87.527030866 0.471726242313 -165.561475125 0.636481054679 163.305326676 0.47129550521 -165.656386007 0.471726242313 -165.561475125 0.745221503427 89.8146335635 0.000869374767443 -155.288061779 0.636725454798 -16.7173996456 0.636481054679 163.305326676 0.000869374767428 -155.288061779 0.435283593601 176.011305639
9.55 0.217985843222 85.0311537636 0.570683432244 127.81443921 0.471268253241 -169.770624019 0.636167317512 -19.4872782385 0.570683432244 127.81443921 0.217778520635 84.8502754552 0.471704963358 -169.676109759 0.635914606601 160.535316685 0.471268253241 -169.770624019 0.471704963358 -169.676109759 0.745252034604 84.212126981 0.000867989927152 -159.345044248 0.636167317512 -19.4872782385 0.635914606601 160.535316685 0.000867989927141 -159.345044248 0.43692448335 173.400219695
9.575 0.216611072746 82.3549620782 0.571863650056 125.110971962 0.471231414158 -173.877759771 0.635604106135 -22.2517645306 0.571863650056 125.110971962 0.216412282441 82.1757348312 0.471673990121 -173.783665218 0.635343489168 157.770704299 0.471231414158 -173.877759771 0.471673990121 -173.783665218 0.745294763361 78.6211348469 0.000866810286613 -163.378304733 0.635604106135 -22.2517645306 0.635343489168 157.770704299 0.000866810286606 -163.378304733 0.438571909588 170.792354452
9.6 0.215251377533 79.6807830968 0.573043988883 122.41117449 0.471186770775 -177.977898224 0.635035798163 -25.010951538 0.573043988883 122.41117449 0.215060262507 79.5030976442 0.471635098574 -177.884246212 0.634767681049 155.011395311 0.471186770775 -177.977898224 0.471635098574 -177.884246212 0.745347444256 73.0415331439 0.000865849835689 -167.388371024 0.635035798163 -25.010951538 0.634767681049 155.011395311 0.000865849835686 -167.388371024 0.44022582449 168.187645407
9.625 0.213905740359 77.0083308304 0.574223471622 119.714991856 0.471136115823 177.928843526 0.634462370237 -27.7649305036 0.574223471622 119.714991856 0.213721436098 76.832063786 0.471590074855 178.022030451 0.634187159827 152.257297261 0.471136115823 177.928843526 0.471590074855 178.022030451 0.745407816721 67.4731635363 0.000865122495485 -171.375838952 0.634462370237 -27.7649305036 0.634187159827 152.257297261 0.000865122495485 -171.375838952 0.441886182887 165.586029181
9.65 0.212573107472 74.337331523 0.575401129506 117.02237674 0.471081246303 173.842336154 0.633883798168 -30.5137909535 0.575401129506 117.02237674 0.212394742322 74.1623451533 0.471540709625 173.935035773 0.633601901981 149.508319379 0.471081246303 173.842336154 0.471540709625 173.935035773 0.745473612938 61.9158331029 0.000864642072221 -175.341372648 0.633883798168 -30.5137909535 0.633601901981 149.508319379 0.000864642072224 -175.341372648 0.443552942205 162.987443486
9.675 0.211252392598 71.6675242675 0.57657600505 114.3332892 0.471023958019 169.762438047 0.633300056957 -33.2576207498 0.57657600505 114.3332892 0.211079088227 71.4936662987 0.47148879261 169.854628509 0.633011882869 146.764372531 0.471023958019 169.762438047 0.47148879261 169.854628509 0.74554256543 56.3693140969 0.000864422211346 -179.285704234 0.633300056957 -33.2576207498 0.633011882869 146.764372531 0.000864422211352 -179.285704234 0.445226062392 160.391827094
9.7 0.209942480787 68.9986615251 0.577747154797 111.647696425 0.470966040314 165.688995268 0.632711120822 -35.9965061433 0.577747154797 111.647696425 0.209773352745 68.8257649797 0.471436107346 165.780655123 0.63241707671 144.025369171 0.470966040314 165.688995268 0.471436107346 165.780655123 0.745612414334 50.8333437507 0.00086447635242 176.790367067 0.632711120822 -35.9965061433 0.63241707671 144.025369171 0.000864476352426 176.790367067 0.446905505853 157.79911981
9.725 0.20864223204 66.3305095594 0.578913651873 108.965572485 0.470909271032 161.621841547 0.632116963223 -38.7305318237 0.578913651873 108.965572485 0.208476390437 66.1583926164 0.471384426142 161.712949782 0.631817456566 141.29122329 0.470909271032 161.621841547 0.471384426142 161.712949782 0.745680914282 45.307624139 0.000864817685215 172.885976384 0.632116963223 -38.7305318237 0.631817456566 141.29122329 0.000864817685223 172.885976384 0.448591237382 155.209262444
9.75 0.207350484716 63.6628487957 0.580074588339 106.286898092 0.470855411686 157.560798284 0.631517556886 -41.4597809684 0.580074588339 106.286898092 0.207187035007 63.4913146698 0.471335505258 157.65133436 0.631212994321 138.56185037 0.470855411686 157.560798284 0.471335505258 157.65133436 0.745745840879 39.7918221076 0.000865459107411 169.000195224 0.631517556886 -41.4597809684 0.631212994321 138.56185037 0.000865459107419 169.000195225 0.450283224092 152.622196782
9.775 0.206066058688 60.995474118 0.58122907738 103.61166035 0.470806202865 153.505674586 0.630912873824 -44.1843352897 0.58122907738 103.61166035 0.205904102568 60.8243109531 0.471291080315 153.595618469 0.63060366067 135.837167338 0.470806202865 153.505674586 0.471291080315 153.595618469 0.745804996742 34.2855692747 0.000866413184141 165.132034042 0.630912873824 -44.1843352897 0.63060366067 135.837167338 0.000866413184149 165.132034042 0.45198143535 150.037865564
9.8 0.204787758243 58.3281951148 0.582376255305 100.939852524 0.470763359858 149.456267304 0.630302885362 -46.9042750809 0.582376255305 100.939852524 0.204626394657 58.1571758882 0.471252861923 149.545599498 0.6299894251 133.117092524 0.470763359858 149.456267304 0.471252861923 149.545599498 0.745856217078 28.7884621032 0.000867692109627 161.280445338 0.630302885362 -46.9042750809 0.6299894251 133.117092524 0.000867692109634 161.280445338 0.453685842711 147.456212456
9.825 0.203514374739 55.6608362837 0.583515283396 98.2714738077 0.470728568496 145.412361097 0.629687562162 -49.6196792603 0.583515283396 98.2714738077 0.203352700983 55.489718717 0.471222531527 145.501062674 0.629370255878 130.401545618 0.470728568496 145.412361097 0.471222531527 145.501062674 0.745897374814 23.3000620414 0.000869307671049 157.444327268 0.629687562162 -49.6196792603 0.629370255878 130.401545618 0.000869307671055 157.444327268 0.455396419846 144.877182029
9.85 0.202244688998 52.9932372069 0.584645349606 95.6065291006 0.470703481209 141.373728498 0.629066874239 -52.330625414 0.584645349606 95.6065291006 0.202081801921 52.8217636819 0.471201737465 141.46178113 0.628746120039 127.690447628 0.470703481209 141.373728498 0.471201737465 141.46178113 0.745926385281 17.8198957271 0.00087127121477 153.622527709 0.629066874239 -52.330625414 0.628746120039 127.690447628 0.000871271214775 153.622527709 0.457113142477 142.300719736
9.875 0.200977473473 50.3252527062 0.585765670117 92.9450287998 0.470689713273 137.340129994 0.628440790981 -55.037189838 0.585765670117 92.9450287998 0.200812470764 50.1531501822 0.471192091223 137.427515978 0.628116983374 124.983720846 0.470689713273 137.340129994 0.471192091223 137.427515978 0.745941210468 12.3474552446 0.000873593614986 149.813848765 0.628440790981 -55.037189838 0.628116983374 124.983720846 0.000873593614989 149.813848765 0.458835988311 139.726771887
9.9 0.199711494168 47.6567529878 0.586875490783 90.2869885995 0.470688839253 133.311314105 0.627809281172 -57.7394475781 0.586875490783 90.2869885995 0.199543475722 47.4837329198 0.471195163873 133.398016392 0.627482810427 122.281288804 0.470688839253 133.311314105 0.471195163873 133.398016392 0.74593986287 6.8821984267 0.000876285244856 146.017051654 0.627809281172 -57.7394475781 0.627482810427 122.281288804 0.000876285244858 146.017051653 0.460564936966 137.155285634
9.925 0.198445512348 44.9876237876 0.587974088464 87.6324293054 0.470702389599 129.287017475 0.627172313005 -60.437472469 0.587974088464 87.6324293054 0.198273581698 44.8133820423 0.471212482676 129.373019691 0.626843564486 119.583076244 0.470702389599 129.287017475 0.471212482676 129.373019691 0.745920408987 1.42354918764 0.000879355950145 142.230861927 0.627172313005 -60.437472469 0.626843564486 119.583076244 0.000879355950146 142.230861927 0.462299969909 134.586208944
9.95 0.197178286033 42.3177665239 0.589060772274 84.9813766625 0.47073184739 125.266964954 0.6265298541 -63.1313371727 0.589060772274 84.9813766625 0.197001551853 42.1419832943 0.471245527827 125.352251426 0.626199207582 116.889009077 0.47073184739 125.266964954 0.471245527827 125.352251426 0.745880972485 -4.02910212426 0.000882815025377 138.453974975 0.6265298541 -63.1313371727 0.626199207582 116.889009077 0.000882815025377 138.453974975 0.464041070378 132.019490586
9.975 0.195908571299 39.6470984697 0.590134884762 82.3338611988 0.470778645208 121.250869681 0.625881871517 -65.8211132151 0.590134884762 82.3338611988 0.195726148959 39.4694381854 0.471295729329 121.335425459 0.625549700486 114.199014356 0.470778645208 121.250869681 0.471295729329 121.335425459 0.7458197371 -9.47639836849 0.000886671192513 134.685061745 0.625881871517 -65.8211132151 0.625549700486 114.199014356 0.000886671192511 134.685061745 0.465788223321 129.455080111
10 0.194635123404 36.9755529524 0.591195803048 79.689918085 0.470844162096 117.238433167 0.625228331773 -68.5068710223 0.591195803048 79.689918085 0.194446136567 36.795664185 0.471364463952 117.322244041 0.62489500271 111.513020238 0.470844162096 117.238433167 0.471364463952 117.322244041 0.745734949323 -14.9190152616 0.000890932582115 130.922774614 0.625228331773 -68.5068710223 0.62489500271 111.513020238 0.000890932582112 130.922774614 0.467541415316 126.892927832
10.025 0.193356697739 34.3030795905 0.592242939927 77.0495870104 0.470929720592 113.229345366 0.624569200853 -71.1886799555 0.592242939927 77.0495870104 0.193160280002 34.1205949544 0.471453052272 113.312397885 0.624235072516 108.830955952 0.470929720592 113.229345366 0.471453052272 113.312397885 0.745624920932 -20.3576610471 0.00089560671699 127.16575335 0.624569200853 -71.1886799555 0.624235072516 108.830955952 0.000895606716987 127.16575335 0.469300634506 124.332984808
10.05 0.192072050636 31.6296445783 0.593275744977 74.4129120767 0.4710365838 109.223284743 0.623904444223 -73.8666083457 0.593275744977 74.4129120767 0.1918673472 31.4441806246 0.471562755744 109.305566229 0.623569866916 106.152751775 0.4710365838 109.223284743 0.471562755744 109.305566229 0.745488031436 -25.7930761976 0.000900700498234 123.412631089 0.623904444223 -73.8666083457 0.623569866916 106.152751775 0.000900700498231 123.412631089 0.471065870521 121.775202832
10.075 0.190779940035 28.955231028 0.594293705691 71.7799417092 0.471165952472 105.219918325 0.623234026838 -76.5407235267 0.594293705691 71.7799417092 0.190566109401 28.7663881311 0.471694773783 105.301416888 0.622899341687 103.478338994 0.471165952472 105.219918325 0.471694773783 105.301416888 0.745322730493 -31.2260331612 0.000906220193621 119.662040253 0.623234026838 -76.5407235267 0.622899341687 103.478338994 0.000906220193618 119.662040253 0.472837114406 119.21953441
10.1 0.189479126042 26.2798393808 0.59529634865 69.1507285849 0.47131896206 101.218901749 0.622557913159 -79.2110918684 0.59529634865 69.1507285849 0.189255341715 26.0872016175 0.47185024082 101.299606295 0.622223451375 100.807649884 0.47131896206 101.218901749 0.47185024082 101.299606295 0.745127540375 -36.6573361622 0.000912171428226 115.91261835 0.622557913159 -79.2110918684 0.622223451375 100.807649884 0.000912171428223 115.91261835 0.474614358544 116.665932747
10.125 0.188168371384 23.6034878978 0.596283240777 66.5253295789 0.471496679717 97.2198792949 0.621876067157 -81.8777788085 0.596283240777 66.5253295789 0.187933823579 23.406622917 0.472030223306 97.2997795368 0.621542149318 98.1406176759 0.471496679717 97.2198792949 0.472030223306 97.2997795368 0.744901058555 -42.0878210633 0.00091855917714 112.163013577 0.621876067157 -81.8777788085 0.621542149318 98.1406176759 0.000918559177137 112.163013577 0.47639759658 114.114351735
10.15 0.186846441778 20.9262132443 0.597253990699 63.9038057274 0.471700101191 93.2224839026 0.621188452325 -84.5408488846 0.597253990699 63.9038057274 0.186600339129 20.7246721269 0.472235716616 93.3015703646 0.620855387658 95.4771765316 0.471700101191 93.2224839026 0.472235716616 93.3015703646 0.744641960479 -47.5183552971 0.000925387760116 108.411890156 0.621188452325 -84.5408488846 0.620855387658 95.4771765316 0.000925387760114 108.411890156 0.478186823343 111.56474594
10.175 0.185512106252 18.2480711798 0.598208250231 61.2862222074 0.471930147604 89.2263371811 0.620495031686 -87.2003657649 0.598208250231 61.2862222074 0.185253677491 18.0413882875 0.472467641819 89.3046012022 0.620163117359 92.8172615164 0.471930147604 89.2263371811 0.472467641819 89.3046012022 0.744349002599 -52.9498378721 0.000932660837916 104.657933363 0.620495031686 -87.2003657649 0.620163117359 92.8172615164 0.000932660837913 104.657933363 0.479982034766 109.017070583
10.2 0.184164137418 15.5691373684 0.599145716036 58.6726483316 0.472187662044 85.2310493999 0.619795767801 -89.8563922789 0.599145716036 58.6726483316 0.183892633035 15.3568301805 0.472726842287 85.3084831341 0.619465288236 90.1608085743 0.472187662044 85.2310493999 0.472726842287 85.3084831341 0.74402102575 -58.3831994551 0.000940381410082 100.899854168 0.619795767801 -89.8563922789 0.619465288236 90.1608085743 0.00094038141008 100.899854168 0.481783227802 106.471281535
10.225 0.18280131174 12.889508326 0.600066131471 56.0631575585 0.472473405956 81.236219469 0.619090622774 -92.508990447 0.600066131471 56.0631575585 0.182516005591 12.6710772625 0.473014080089 81.3128158825 0.618761848976 87.5077545023 0.472473405956 81.236219469 0.473014080089 81.3128158825 0.74365695893 -63.8194025308 0.000948551813842 97.1363934586 0.619090622774 -92.508990447 0.618761848976 87.5077545023 0.000948551813841 97.1363934586 0.483590400343 103.927335297
10.25 0.181422409809 10.2093025197 0.600969288668 53.4578275149 0.472788055282 77.2414349055 0.618379558264 -95.1582215108 0.600969288668 53.4578275149 0.181122600673 9.98423075025 0.473330032131 77.3171877709 0.618052747171 84.8580369263 0.472788055282 77.2414349055 0.473330032131 77.3171877709 0.743255823579 -69.2594416392 0.000957173723746 93.3663258023 0.618379558264 -95.1582215108 0.618052747171 84.8580369263 0.000957173723745 93.3663258023 0.485403551134 101.385188994
10.275 0.180026216663 7.52866164053 0.60185503087 50.8567400303 0.4731321963 73.2462717878 0.617662535487 -97.8041459618 0.60185503087 50.8567400303 0.179711229723 7.29641487744 0.47367528601 73.3211756746 0.617337929351 82.211594277 0.4731321963 73.2462717878 0.47367528601 73.3211756746 0.742816738414 -74.7043436849 0.000966248151637 89.5884627093 0.617662535487 -97.8041459618 0.617337929351 82.211594277 0.000966248151636 89.5884627093 0.487222679684 98.844800362
10.3 0.178611522187 4.84775206719 0.602723255067 48.2599811805 0.473506321135 69.2502946988 0.616939515222 -100.44682357 0.602723255067 48.2599811805 0.17828071042 4.60777834147 0.474050335528 69.3243449613 0.616617341019 79.5683657666 0.473506321135 69.2502946988 0.474050335528 69.3243449613 0.742338924916 -80.1551683141 0.000975775446465 85.8016553891 0.616939515222 -100.44682357 0.616617341019 79.5683657666 0.000975775446465 85.8016553891 0.489047786178 96.3061277332
10.325 0.177177121615 2.16676654537 0.603573914957 45.6676413384 0.473910822882 65.2530566603 0.616210457814 -103.086313414 0.603573914957 45.6676413384 0.176829867073 1.91849596473 0.474455575827 65.3262494207 0.615890926693 76.9282913661 0.473910822882 65.2530566603 0.474455575827 65.3262494207 0.741821713541 -85.6130083516 0.000985755293447 82.0047969814 0.616210457814 -103.086313414 0.615890926693 76.9282913661 0.000985755293447 82.0047969814 0.490878871386 93.7691300303
10.35 0.175721816191 -0.514073893876 0.60440702428 43.0798152285 0.474345990302 61.2540990587 0.615475323184 -105.722673906 0.60440702428 43.0798152285 0.175357531155 -0.771229406197 0.474891298091 61.3264311874 0.615158629957 74.2913117822 0.474345990302 61.2540990587 0.474891298091 61.3264311874 0.741264550739 -91.0789902873 0.000996186711997 78.1968242652 0.615475323184 -105.722673906 0.615158629957 74.2913117822 0.000996186711997 78.1968242652 0.492715936565 91.2337667528
10.375 0.174244414026 -3.19451774918 0.605222660545 40.4966019833 0.474812002043 57.2529515669 0.614734070823 -108.355962822 0.605222660545 40.4966019833 0.173862542001 -3.46116473552 0.475357683781 57.3244206579 0.614420393503 71.6573684352 0.474812002043 57.2529515669 0.475357683781 57.3244206579 0.740667006876 -96.5542748001 0.00100706805185 74.3767188561 0.614734070823 -108.355962822 0.614420393503 71.6573684352 0.00100706805185 74.3767188561 0.494558983364 88.6999979678
10.4 0.172743731194 -5.87428056764 0.606020969199 37.9181051966 0.475308920345 53.2491320627 0.613986659802 -110.986237328 0.606020969199 37.9181051966 0.172343747732 -6.1510443375 0.475854798346 53.3197364054 0.613676159193 69.0264034372 0.475308920345 53.2491320627 0.475854798346 53.3197364054 0.740028785125 -102.040057305 0.00101839698676 70.5435079105 0.613986659802 -110.986237328 0.613676159193 69.0264034372 0.00101839698676 70.5435079105 0.496408013724 86.1677842997
10.425 0.171218593139 -8.55304213436 0.606802168271 35.3444329702 0.475836684161 49.2421465491 0.613233048767 -113.613554009 0.606802168271 35.3444329702 0.170800006458 -8.84056708667 0.47638258436 49.3118850951 0.612925868119 66.3983595703 0.475836684161 49.2421465491 0.47638258436 49.3118850951 0.739349731453 -107.537568505 0.00103017050515 66.6962643654 0.613233048767 -113.613554009 0.612925868119 66.3983595703 0.00103017050515 66.6962643654 0.498263029777 83.6370869203
10.45 0.169667836443 -11.2304432965 0.607566553524 32.7756979502 0.476395101667 45.231489079 0.612473195941 -116.237968893 0.607566553524 32.7756979502 0.169230187809 -11.5293932622 0.476940854043 45.3003614048 0.612169460667 63.7731802647 0.476395101667 45.231489079 0.476940854043 45.3003614048 0.738629845759 -113.048074935 0.00104238489709 62.8341067501 0.612473195941 -116.237968893 0.612169460667 63.7731802647 0.00104238489709 62.8341067501 0.500124033736 81.1078675392
10.475 0.168090311026 -13.9060823819 0.608314504155 30.2120173452 0.476983842101 41.2166416899 0.611707059124 -118.859537479 0.608314504155 30.2120173452 0.167633174876 -14.217140986 0.477529281112 41.284647954 0.611406876594 61.1508095771 0.476983842101 41.2166416899 0.477529281112 41.284647954 0.737869294295 -118.572879463 0.00105503573696 58.9561986099 0.611707059124 -118.859537479 0.611406876594 61.1508095771 0.00105503573696 58.9561986099 0.501991027788 78.5800883943
10.5 0.166484882868 -16.579511168 0.609046489077 27.6535129236 0.477602426876 37.197074352 0.610934595689 -121.478314762 0.609046489077 27.6535129236 0.166007866627 -16.9033822086 0.478147391909 37.2642152473 0.610638055101 58.5311921692 0.477602426876 37.197074352 0.478147391909 37.2642152473 0.737068423445 -124.113321744 0.0010681178612 55.0617475918 0.610934595689 -121.478314762 0.610638055101 58.5311921692 0.0010681178612 55.0617475918 0.503864013982 76.0537122421
10.525 0.16485043732 -19.2502303532 0.60976307382 25.1003109806 0.478250219931 33.1722449375 0.610155762576 -124.094355261 0.60976307382 25.1003109806 0.164353180892 -19.5876381954 0.478794555764 33.238521638 0.609862934924 55.9142732861 0.478250219931 33.1722449375 0.478794555764 33.238521638 0.73622777498 -129.670778579 0.00108162534058 51.1500042404 0.610155762576 -124.094355261 0.609862934924 55.9142732861 0.00108162534058 51.1500042405 0.505742994111 73.5287023488
10.55 0.163185883129 -21.9176844763 0.610464928071 22.5525422696 0.478926417261 29.141599216 0.609370516295 -126.707713042 0.610464928071 22.5525422696 0.162668058 -22.269374455 0.479469974545 29.2070133178 0.609081454427 53.2999987342 0.478926417261 29.141599216 0.479469974545 29.2070133178 0.735348102876 -135.246664164 0.00109555144646 47.2202605594 0.609370516295 -126.707713042 0.609081454427 53.2999987342 0.00109555144646 47.2202605595 0.507627969593 71.0050224805
10.575 0.161490157265 -24.5812562261 0.611152833908 20.0103418878 0.479630035588 25.1045708838 0.60857881291 -129.318441744 0.611152833908 20.0103418878 0.160951465196 -24.9479950531 0.480172671334 25.16912434 0.608293551695 50.688314859 0.479630035588 25.1045708838 0.480172671334 25.16912434 0.734430391815 -140.842430201 0.0011098886105 43.2718483919 0.60857881291 -129.318441744 0.608293551695 50.688314859 0.0011098886105 43.2718483919 0.509518941344 68.4826368943
10.6 0.159762230681 -27.2402600775 0.611827694717 17.4738491078 0.48035990012 21.060581635 0.607780608043 -131.926594605 0.611827694717 17.4738491078 0.159202401935 -27.6228362418 0.480901478214 21.1242766846 0.607499164648 48.0791685226 0.48035990012 21.060581635 0.480901478214 21.1242766846 0.733475877449 -146.459565807 0.00112462837738 39.3041376744 0.607780608043 -131.926594605 0.607499164648 48.0791685226 0.00112462837738 39.3041376745 0.51141590965 65.9615103286
10.625 0.158001115158 -29.8939351831 0.612490544855 14.9432071447 0.481114631376 17.0090412841 0.606975856861 -134.532224482 0.612490544855 14.9432071447 0.157419906204 -30.2931593344 0.481655023099 17.0718803735 0.606698231154 45.4725070805 0.481114631376 17.0090412841 0.481655023099 17.0718803735 0.732486068522 -152.099597226 0.00113976135027 35.3165346183 0.606975856861 -134.532224482 0.606698231154 45.4725070805 0.00113976135027 35.3165346183 0.513318874031 63.4416079939
10.65 0.156205871368 -32.5414374459 0.613142560034 12.4185628464 0.481892631023 12.9493479486 0.60616451407 -137.135383882 0.613142560034 12.4185628464 0.155603062023 -32.9581427441 0.482431715594 13.0113336465 0.60589068915 42.8682783583 0.481892631023 12.9493479486 0.482431715594 13.0113336465 0.731462770948 -157.764087255 0.00115527712847 31.308479868 0.60616451407 -137.135383882 0.60589068915 42.8682783583 0.00115527712847 31.308479868 0.515227833105 60.9228955631
10.675 0.154375618347 -35.1818306907 0.613785068465 9.90006629482 0.48269206672 8.88088830416 0.605346533913 -139.736124981 0.613785068465 9.90006629482 0.153751008288 -35.6168731012 0.483229731848 8.94202320929 0.605076476775 40.2664306268 0.48269206672 8.88088830416 0.483229731848 8.94202320929 0.730408113882 -163.454634375 0.00117116423725 27.2794466871 0.605346533913 -139.736124981 0.605076476775 40.2664306268 0.00117116423725 27.2794466871 0.517142784439 58.405339162
10.7 0.152509544567 -37.814076847 0.614419562728 7.38787030366 0.483510855933 4.80303792402 0.604521870159 -142.334499648 0.614419562728 7.38787030366 0.151862949154 -38.268335355 0.484046998394 4.86332456415 0.604255532506 37.6669125772 0.483510855933 4.80303792402 0.484046998394 4.86332456415 0.729324577862 -169.172871505 0.00118741004947 23.2289392154 0.604521870159 -142.334499648 0.604255532506 37.6669125772 0.00118741004947 23.2289392153 0.519063724399 55.8889053594
10.725 0.150606920822 -40.4370250529 0.615047712379 4.88212979735 0.484346648737 0.715161715016 0.603690476103 -144.930559468 0.615047712379 4.88212979735 0.149938166178 -40.911401761 0.484881174957 0.774602438396 0.60342779531 35.0696732944 0.484346648737 0.715161715016 0.484881174957 0.774602438396 0.728215025022 -174.920464341 0.00120400069898 19.1564908391 0.603690476103 -144.930559468 0.60342779531 35.0696732944 0.00120400069898 19.156490839 0.520990647991 53.373561157
10.75 0.148667115182 -43.0493995834 0.615671377231 2.38300105379 0.485196809593 -3.38338553369 0.602852304564 -147.524355768 0.615671377231 2.38300105379 0.147976032445 -43.5448196488 0.485729636253 -3.32478867605 0.602593204793 32.4746622301 0.485196809593 -3.38338553369 0.485729636253 -3.32478867605 0.727082731372 179.300890793 0.00122092098573 15.0616627136 0.602852304564 -147.524355768 0.602593204793 32.4746622301 0.00122092098573 15.0616627136 0.5229235487 50.8592739789
10.775 0.146689610276 -45.6497865068 0.616292621277 -0.10935920717 0.486058398152 -7.49325847437 0.602007307887 -150.115939637 0.616292621277 -0.10935920717 0.145976028966 -46.1671978615 0.486589452803 -7.43550385568 0.601751701364 29.8818291737 0.486058398152 -7.49325847437 0.486589452803 -7.43550385568 0.725931421073 173.489469646 0.00123815427247 10.9440424728 0.602007307887 -150.115939637 0.601751701364 29.8818291737 0.00123815427247 10.9440424727 0.524862418311 48.3460116614
10.8 0.144674023208 -48.2366189763 0.616913727162 -2.59479490948 0.486928149114 -11.6151203794 0.601155437948 -152.705361945 0.616913727162 -2.59479490948 0.143937763642 -48.7769917561 0.48745737081 -11.558206934 0.600903226412 27.2911242224 0.486928149114 -11.6151203794 0.48745737081 -11.558206934 0.72476530261 167.643523381 0.00125568237333 6.80324315705 0.601155437948 -152.705361945 0.600903226412 27.2911242224 0.00125568237333 6.803243157 0.526807246733 45.8337424412
10.825 0.142620128447 -50.8081610667 0.617537211092 -5.07315190169 0.48780245124 -15.7496421565 0.600296646169 -155.292673374 0.617537211092 -5.07315190169 0.141860993113 -51.3724866598 0.488329791179 -15.693569527 0.600047722473 24.7024977491 0.48780245124 -15.7496421565 0.488329791179 -15.693569527 0.723589106659 161.761282622 0.0012734854343 2.6389023912 0.600296646169 -155.292673374 0.600047722473 24.7024977491 0.0012734854343 2.63890239119 0.528758021807 43.3224349448
10.85 0.140527884052 -53.3624900857 0.618165838045 -7.54427945492 0.488677325603 -19.8975011801 0.599430883536 -157.877924431 0.618165838045 -7.54427945492 0.139745647898 -53.9517796834 0.489202747785 -19.8422698766 0.599185133427 22.1159003693 0.488677325603 -19.8975011801 0.489202747785 -19.8422698766 0.722408125385 155.840962316 0.00129154180584 -1.54931816012 0.599430883536 -157.877924431 0.599185133427 22.1159003693 0.00129154180583 -1.54931816008 0.530714729107 40.8120581759
10.875 0.138397461643 -55.8974773073 0.618802637084 -10.0080320005 0.489548403245 -24.0593799195 0.59855810063 -160.461165473 0.618802637084 -10.0080320005 0.137591861193 -56.5127598112 0.490071885131 -24.0049914894 0.598315404678 19.5312829051 0.489548403245 -24.0593799195 0.490071885131 -24.0049914894 0.721228252799 149.880767496 0.00130982790802 -5.76173303073 0.59855810063 -160.461165473 0.598315404678 19.5312829051 0.00130982790802 -5.76173303062 0.53267735173 38.3025815038
10.9 0.13622928055 -58.4107671162 0.619450916533 -12.4642711299 0.490410902404 -28.2359643385 0.597678247662 -163.042446732 0.619450916533 -12.4642711299 0.135400001808 -59.0530862204 0.490932435594 -28.1824215501 0.597438483362 16.9485963474 0.490410902404 -28.2359643385 0.490932435594 -28.1824215501 0.720056025677 143.878900057 0.00132831808872 -9.99863285631 0.597678247662 -163.042446732 0.597438483362 16.9485963474 0.00132831808872 -9.99863285612 0.534645870075 35.7939746496
10.925 0.134024046624 -60.8997546077 0.620114278737 -14.9128678798 0.491259605569 -32.4279420469 0.596791274533 -165.621818331 0.620114278737 -14.9128678798 0.133170711722 -61.5701648256 0.491779196472 -32.3752490862 0.596554318544 14.3677918159 0.491259605569 -32.4279420469 0.491779196472 -32.3752490862 0.718898664404 137.833566656 0.00134698447524 -14.2602839124 0.596791274533 -165.621818331 0.596554318544 14.3677918159 0.00134698447524 -14.2602839121 0.536620261607 33.2862076736
10.95 0.131782796199 -63.3615617685 0.62079663402 -17.3537053223 0.49208883664 -36.636000177 0.595897130893 -168.199330306 0.62079663402 -17.3537053223 0.130904948769 -64.0611231204 0.492606507154 -36.5841628588 0.595662861424 11.7888205164 0.49208883664 -36.636000177 0.492606507154 -36.5841628588 0.717764112932 131.742987853 0.00136579682051 -18.5469272538 0.595897130893 -168.199330306 0.595662861424 11.7888205164 0.00136579682051 -18.5469272534 0.538600500614 30.7792509604
10.975 0.129506945748 -65.7930124816 0.621502213439 -19.7866814784 0.49289243855 -40.860822962 0.594995766236 -170.775032631 0.621502213439 -19.7866814784 0.128604035037 -66.5227834893 0.493408226736 -40.809848957 0.594764065555 9.21163369449 0.49289243855 -40.860822962 0.493408226736 -40.809848957 0.716661076877 125.605408624 0.00138472234455 -22.8587774195 0.594995766236 -170.775032631 0.594764065555 9.21163369449 0.00138472234456 -22.858777419 0.540586557944 28.2730752047
11 0.12719834774 -68.1906067595 0.622235579796 -22.2117125706 0.493663751777 -45.1030889921 0.594087129998 -173.348975235 0.622235579796 -22.2117125706 0.126269711523 -68.9516353139 0.494177712526 -45.0529880703 0.593857887048 6.63618258767 0.493663751777 -45.1030889921 0.494177712526 -45.0529880703 0.715599058518 119.419110347 0.00140372557286 -27.1960206606 0.594087129998 -173.348975235 0.593857887048 6.63618258768 0.00140372557286 -27.19602066 0.542578400727 25.7676513953
11.025 0.124859353232 -70.5504948346 0.623001636332 -24.6287366207 0.494395594255 -49.3634681234 0.593171171696 -175.921208026 0.623001636332 -24.6287366207 0.123904199654 -71.3438064016 0.49490779994 -49.314252415 0.592944284792 4.06241837272 0.494395594255 -49.3634681234 0.49490779994 -49.314252415 0.714588387278 113.18242441 0.00142276817319 -31.5588126471 0.593171171696 -175.921208026 0.592944284792 4.06241837272 0.00142276817319 -31.5588126465 0.544575992081 23.2629507992
11.05 0.122492881644 -72.868452034 0.623805632413 -27.0377173954 0.495080243247 -53.6426180176 0.592247841081 -178.491780906 0.623805632413 -27.0377173954 0.121510270202 -73.6950345541 0.495590784358 -53.5943022939 0.592023220666 1.49029211033 0.495080243247 -53.6426180176 0.495590784358 -53.5943022939 0.713640243962 106.893747536 0.00144180879316 -35.9472756018 0.592247841081 -178.491780906 0.592023220666 1.49029211033 0.00144180879317 -35.9472756011 0.546579290803 20.7589449444
11.075 0.120102498088 -75.1398557668 0.624653165436 -29.4386486893 0.495709419881 -57.9411802917 0.591317088327 178.939256199 0.624653165436 -29.4386486893 0.119091320074 -76.0006404719 0.496218405631 -57.8937822653 0.591094659752 -1.08024531429 0.495709419881 -57.9411802917 0.496218405631 -57.8937822653 0.712766676769 100.551558926 0.00146080290129 -40.361494805 0.591317088327 178.939256199 0.591094659752 -1.08024531428 0.0014608029013 -40.3614948044 0.548588251036 18.255605602
11.1 0.117692498437 -77.3596664765 0.625550178105 -31.8315589232 0.4962742771 -62.2597762597 0.590378864257 176.371853328 0.625550178105 -31.8315589231 0.116651457333 -78.2555037092 0.49678183599 -62.2133169076 0.590158570542 -3.64924325483 0.4962742771 -62.2597762597 0.49678183599 -62.2133169076 0.71198060681 94.1544393146 0.00147970263512 -44.8015144124 0.590378864257 176.371853328 0.590158570542 -3.64924325483 0.00147970263513 -44.8015144118 0.550602821912 15.7529047675
11.125 0.115268002044 -79.5224150865 0.62650295013 -34.2165160195 0.496765391891 -66.5990022532 0.589433120603 173.805960457 0.62650295013 -34.2165160195 0.114195594544 -80.4540440606 0.49727167223 -66.5535061626 0.589214925146 -6.2167513717 0.496765391891 -66.5990022532 0.49727167223 -66.5535061626 0.711295820564 87.7010919701 0.0014984566606 -49.2673325224 0.589433120603 173.805960457 0.589214925146 -6.2167513717 0.00149845666061 -49.2673325218 0.552622947183 13.2508146409
11.15 0.112835051621 -81.6222003201 0.627518083387 -36.5936324991 0.497172762744 -70.9594245128 0.588479810315 171.241527486 0.627518083387 -36.5936324991 0.111729550219 -82.5902116275 0.497677933111 -70.9149202521 0.588263699484 -8.78281970433 0.497172762744 -70.9594245128 0.497677933111 -70.9149202521 0.710726946435 81.1903656638 0.00151701004817 -53.758895433 0.588479810315 171.241527486 0.588263699484 -8.78281970433 0.00151701004817 -53.7588954326 0.554648564817 10.7493076066
11.175 0.110400719186 -83.6527003256 0.628602479482 -38.9630707192 0.497485813398 -75.3415736484 0.587518887913 168.678504212 0.628602479482 -38.9630707192 0.109260157583 -84.6574898976 0.497990063021 -75.298094165 0.587304873475 -11.3474987483 0.497485813398 -75.3415736484 0.497990063021 -75.298094165 0.710289412325 74.621279559 0.00153530417173 -58.2760910294 0.587518887913 168.678504212 0.587304873475 -11.3474987483 0.00153530417173 -58.2760910293 0.55667960657 8.24835621166
11.2 0.107973216122 -85.6072042871 0.629763308728 -41.325048152 0.497693403963 -79.7459386773 0.586550309893 166.116840316 0.629763308728 -41.325048152 0.106795379094 -86.6489174943 0.498196943016 -79.7035217236 0.586338431211 -13.910839538 0.497693403963 -79.7459386773 0.498196943016 -79.7035217236 0.709999380957 67.9930499179 0.00155327663821 -62.818741252 0.586550309893 166.116840316 0.586338431211 -13.910839538 0.0015532766382 -62.8187412522 0.558715997531 5.7479331435
11.225 0.105562004278 -87.4786711258 0.631007969548 -43.6798425735 0.49778385063 -84.1729606577 0.585574035196 163.556485342 0.631007969548 -43.6798425735 0.104344424102 -88.5571358144 0.498286910418 -84.1316492473 0.58536436112 -16.4728937337 0.49778385063 -84.1729606577 0.498286910418 -84.1316492473 0.709873659581 61.3051184387 0.00157086125635 -67.3865936081 0.585574035196 163.556485342 0.58536436112 -16.4728937337 0.00157086125634 -67.3865936087 0.560757655637 3.24801120651
11.25 0.103177903471 -89.2598238963 0.632344037439 -46.027797008 0.49774495516 -88.623025948 0.584590025731 160.997388678 0.632344037439 -46.027797008 0.101917865534 -90.3744714937 0.498247788175 -88.5828688432 0.584382656104 -19.0337137159 0.49774495516 -88.6230259481 0.498247788175 -88.5828688432 0.70992958069 54.5571819497 0.00158798805485 -71.9793117092 0.584590025731 160.997388678 0.584382656104 -19.0337137159 0.00158798805483 -71.9793117101 0.56280449115 0.748563297927
11.275 0.100833188795 -90.9432898992 0.63377920283 -48.3693242439 0.497564045385 -93.0964591366 0.583598246977 158.43949954 0.63377920283 -48.3693242439 0.0995277495319 -92.0930643928 0.498066925215 -93.0575113699 0.58339331367 -21.593352684 0.497564045385 -93.0964591366 0.498066925215 -93.0575113699 0.710184850582 47.7492230786 0.00160458336107 -76.5964648433 0.583598246977 158.43949954 0.58339331367 -21.593352684 0.00160458336103 -76.5964648446 0.564856406106 -1.75043761735
11.3 0.0985416686792 -92.5217975323 0.635321197388 -50.7049107142 0.497228027898 -97.5935157041 0.58259866865 155.882766959 0.635321197388 -50.7049107142 0.0971876895283 -93.7050532743 0.497731248967 -97.5558391344 0.582396336023 -24.1518647627 0.497228027898 -97.5935157041 0.497731248967 -97.5558391344 0.710657362946 40.8815414086 0.00162056995248 -81.2375166264 0.58259866865 155.882766959 0.582396336023 -24.1518647627 0.00162056995243 -81.2375166281 0.566913293722 -4.24901853272
11.325 0.0963187317802 -93.9884410102 0.636977708719 -53.035119514 0.496723454049 -102.114374497 0.581591265457 153.327139764 0.636977708719 -53.035119514 0.094912933191 -95.2028320811 0.497227331165 -102.078038402 0.581391730144 -26.7093051137 0.496723454049 -102.114374497 0.497227331165 -102.078038402 0.711364975278 33.9547845095 0.00163586729397 -85.9018128202 0.581591265457 153.327139764 0.581391730144 -26.7093051137 0.00163586729391 -85.9018128223 0.568975037761 -6.74720642667
11.35 0.0941813475942 -95.3370225764 0.638756283824 -55.3605923136 0.496036600185 -106.65913011 0.580576017929 150.772566575 0.638756283824 -55.3605923136 0.0927203872468 -96.5793889882 0.496541467866 -106.624211815 0.580379507833 -29.2657300552 0.496036600185 -106.65913011 0.496541467866 -106.624211815 0.712325246815 26.9699781228 0.00165039187423 -90.5885684559 0.580576017929 150.772566575 0.580379507833 -29.2657300552 0.00165039187415 -90.5885684582 0.571041511858 -9.24502829039
11.375 0.0921480026276 -96.5624778034 0.640664222214 -57.6820499256 0.49515356289 -111.227785298 0.579552913354 148.218995786 0.640664222213 -57.6820499256 0.0906285815926 -97.8287371797 0.495659774462 -111.194370848 0.579359685717 -31.8211971883 0.49515356289 -111.227785298 0.495659774462 -111.194370848 0.713555137882 19.9285546658 0.0016640576541 -95.2968544625 0.579552913354 148.218995786 0.579359685717 -31.8211971883 0.00166405765401 -95.2968544649 0.573112578797 -11.742511156
11.4 0.0902385515136 -97.6613820045 0.642708460192 -60.0002912918 0.494060369689 -115.820243559 0.578521946794 145.666375569 0.642708460191 -60.0002912918 0.0886575509349 -98.9464394046 0.494568296117 -115.788428422 0.578332285227 -34.3757655304 0.49406036969 -115.820243559 0.494568296116 -115.788428422 0.715070672073 12.8323791351 0.00167677663896 -100.025584066 0.578521946794 145.666375569 0.578332285227 -34.3757655305 0.00167677663887 -100.025584069 0.575188089745 -14.2396821255
11.425 0.0884739616659 -98.6325237926 0.644895448479 -62.3161906846 0.492743105305 -120.436302043 0.577483122217 143.114653865 0.644895448478 -62.3161906846 0.086828610365 -99.9302165774 0.493253133756 -120.406191857 0.577297332524 -36.9294956573 0.492743105306 -120.436302043 0.493253133755 -120.406191857 0.71688656453 5.68377142401 0.0016884595848 -104.773499298 0.577483122217 143.114653865 0.577297332523 -36.9294956574 0.00168845958471 -104.7734993 0.577267883424 -16.7365683999
11.45 0.0868759320644 -99.4775151732 0.647231026045 -64.6306929602 0.491188053122 -125.075644971 0.576436453727 140.563778386 0.647231026044 -64.6306929602 0.0851640020804 -100.780613332 0.491700585238 -125.047356334 0.576254858386 -39.4824498522 0.491188053122 -125.075644971 0.491700585238 -125.047356334 0.719015821714 -1.51447595359 0.0016990168446 -109.539158014 0.576436453727 140.563778386 0.576254858386 -39.4824498522 0.00169901684452 -109.539158016 0.579351785242 -19.2331973095
11.475 0.0854663729628 -100.201387272 0.649720293667 -66.9448067646 0.489381850986 -129.737837765 0.575381966907 138.013696628 0.649720293666 -66.9448067646 0.0836863954737 -101.501671011 0.489897300867 -129.711499054 0.575204898045 -42.0346922635 0.489381850986 -129.737837765 0.489897300867 -129.711499054 0.721469320458 -8.75908572199 0.00170835935732 -114.320921915 0.575381966907 138.013696628 0.575204898045 -42.0346922635 0.00170835935727 -114.320921916 0.581439606354 -21.7295963431
11.5 0.0842667448301 -100.813099886 0.652367491318 -69.2595956732 0.48731165988 -134.422322087 0.574319700283 135.464355879 0.652367491318 -69.2595956732 0.0824182335334 -102.10153378 0.487830451772 -134.39807432 0.574147490961 -44.5862890719 0.48731165988 -134.422322087 0.487830451772 -134.39807432 0.724255376535 -16.0462901972 0.00171639977592 -119.116946088 0.574319700283 135.464355879 0.574147490961 -44.5862890719 0.00171639977592 -119.116946088 0.583531142667 -24.2257931789
