! Touchstone file exported from HFSS 2025.2.4
!        File:           C:/Users/chaoy/Documents/single_magictee_v3_4_hreactive_latest/single_magictee_v3_4_hreactive.aedt
!        Generated:      02:33:53 PM Sep 22, 2026
!        Design:         SingleMagicT_v3_4_HReactiveCell
!        Project:        single_magictee_v3_4_hreactive
!
! Variables:
!        f_adapt = 10.2GHz
!        h_cap_height = 9mm
!        h_cap_len = 2.5mm
!        h_terminal_ridge_w = 4.572mm
!        h_throat_a = 20.4mm
!        h_throat_len = 5.5mm
!        ridge_g1 = 7.672mm
!        ridge_g2 = 5.8mm
!        ridge_l1 = 9.872mm
!        ridge_l2 = 8.857mm
!        ridge_w = 4.572mm
!        terminal_ridge_len = 7.5mm
!        wg_a = 22.86mm
!        wg_b = 10.16mm
!
!Data is not renormalized
# GHz S MA
! Terminal data exported
! Port[1] = P1_CollinearMinusX
! Port[2] = P2_CollinearPlusX
! Port[3] = P3_HArm_Ridged
! Port[4] = P4_EArm
9                              0.23327321427176 150.208716761219 0.531106953881098 -174.724007888455 0.479078112262853 61.4977977139162 0.658781582463508 45.9934748027868 
                               0.531106953881099 -174.724007888455 0.236899994890941 150.102117184036 0.478421493603212 61.2206976775304 0.657964034289326 -134.324645474749 
                               0.479078112262853 61.4977977139162 0.478421493603211 61.2206976775305 0.735930038791621 128.031568415404 0.00200369990172974 -71.9960654221039 
                               0.658781582463509 45.9934748027868 0.657964034289327 -134.324645474749 0.00200369990173029 -71.9960654221272 0.364809733114804 -115.366355200629 
9.025                          0.231146810957874 147.392401856867 0.531373753673693 -177.528753216276 0.480383180905045 58.0060106815912 0.658368359360018 43.0866639857249 
                               0.531373753673676 -177.528753216276 0.234766958023587 147.29101950355  0.479720892159094 57.7280457185111 0.657572111784767 -137.231615395699 
                               0.480383180905032 58.0060106815885 0.479720892159107 57.7280457185133 0.734245922818622 123.781359098056 0.00201379585252069 -75.7328168357749 
                               0.65836835936009 43.0866639857245 0.65757211178485 -137.231615395692 0.00201379585252129 -75.7328168361964 0.366259083112662 -118.083618187327 
9.05                           0.229037736791299 144.584175814765 0.531651553407303 179.673930652409 0.481656542077734 54.5190302827885 0.657952318909907 40.1878440595484 
                               0.531651553407275 179.673930652408 0.232651450946773 144.488125753418 0.480988575241084 54.2401822973507 0.657176161789472 -140.130555582071 
                               0.481656542077712 54.5190302827842 0.480988575241105 54.2401822973541 0.732588981821335 119.533243106475 0.00202391929953449 -79.4654241387527 
                               0.657952318910018 40.1878440595476 0.657176161789604 -140.130555582061 0.00202391929953478 -79.4654241394332 0.367714254673425 -120.796070221596 
9.075                          0.226946656704576 141.783676968996 0.531940131870928 176.883775949746 0.482899280569811 51.0369642833386 0.657533296244534 37.296872883241  
                               0.531940131870892 176.883775949745 0.230554106907453 141.693075404292 0.482225627539978 50.7572154510378 0.656776315268935 -143.021618142895 
                               0.482899280569784 51.0369642833333 0.482225627540004 50.757215451042  0.730959791528923 115.287754251453 0.00203407461136542 -83.1937115309158 
                               0.657533296244662 37.2968728832401 0.656776315269092 -143.021618142883 0.00203407461136518 -83.1937115317452 0.369175156188091 -123.503805237268 
9.1                            0.224874026058836 138.99052045081  0.532239130094126 174.100525175867 0.484112582927873 47.5599101387174 0.657111160275496 34.4136102337865 
                               0.532239130094087 174.100525175866 0.228475352462147 138.905486309785 0.483433235022936 47.2792429074267 0.656372677570882 -145.904951464935 
                               0.484112582927845 47.5599101387119 0.483433235022963 47.2792429074311 0.729358515983218 111.045399227509 0.00204426663187001 -86.9175204868951 
                               0.657111160275625 34.4136102337856 0.656372677571046 -145.904951464923 0.00204426663186913 -86.9175204877884 0.370641698519514 -126.206914868508 
9.125                          0.222820103197942 136.204301665835 0.532548061704928 171.323931525852 0.48529773604794 44.0879543639822 0.656685807808479 31.5379179026943 
                               0.532548061704889 171.323931525851 0.226415419683348 136.124958072747 0.48461268355484 43.8063514558981 0.655965332248782 -148.780700308568 
                               0.485297736047913 44.0879543639768 0.484612683554867 43.8063514559025 0.727784933073484 106.806655420859 0.00205450068342556 -90.6367098433422 
                               0.656685807808598 31.5379179026935 0.65596533224894 -148.780700308557 0.00205450068342399 -90.6367098442358 0.372113795175078 -128.905488528977 
9.15                           0.220784961814463 133.424599538611 0.532866322838732 168.553759249095 0.486456124998283 40.6211719176248 0.656257158436454 28.6696597772502 
                               0.532866322838695 168.553759249094 0.224374358195251 133.351075187038 0.485765356750062 40.33861633164   0.655554344457248 -151.649005912093 
                               0.486456124998258 40.6211719176198 0.485765356750087 40.3386163316441 0.726238460335615 102.571968750184 0.00206478256695637 -94.3511558949352 
                               0.656257158436557 28.6696597772494 0.65555434445739 -151.649005912083 0.00206478256695413 -94.3511558957833 0.373591362460282 -131.599613490073 
9.175                          0.218768503010132 130.65097952862  0.533193201600134 165.789783947641 0.487589230113648 37.1596256054075 0.65582515013193 25.8087019074239 
                               0.5331932016001  165.78978394764  0.222352046923946 130.583409959396 0.486892733094582 36.8761006196522 0.65513976394925 -154.510006102192 
                               0.487589230113627 37.159625605403  0.486892733094603 36.8761006196559 0.724718180764997 98.3417515615822 0.00207511855879255 -98.0607524951464 
                               0.655825150132014 25.8087019074234 0.655139763949371 -154.510006102183 0.0020751185587897 -98.0607524959184 0.375074319614542 -134.289374958033 
9.2                            0.216770466957649 127.882996424127 0.533527887083546 163.031792819663 0.48869862340756 33.703365509594  0.655389735464205 22.9549125593333 
                               0.533527887083517 163.031792819662 0.220348205470576 127.821525217969 0.487996382384876 33.4188546839295 0.65472162770476 -157.363835408542 
                               0.488698623407543 33.7033655095902 0.487996382384894 33.4188546839327 0.723222868415678 94.1163805970265 0.00208551540445714 -101.765411157809 
                               0.655389735464269 22.9549125593329 0.654721627704857 -157.363835408536 0.00208551540445376 -101.765411158486 0.376562588930461 -136.974856149733 
9.225                          0.21479044409222 125.120196921769 0.533869477961519 160.279584853853 0.489785964354674 30.252428448299  0.654950878373466 20.1081622561332 
                               0.533869477961494 160.279584853853 0.218362405036803 125.064976815587 0.489077961535313 29.9669156265876 0.654299962219938 -160.210625180826 
                               0.489785964354662 30.2524284482959 0.489077961535326 29.9669156265903 0.721751013582325 89.896195053352  0.00209598030950601 -105.465061155615 
                               0.654950878373511 20.108162256133  0.654299962220011 -160.210625180822 0.00209598030950222 -105.465061156188 0.37805609585775 -139.656138367038 
9.25                           0.212827885780199 122.362122001119 0.534216990652159 157.532970980151 0.490852995099253 26.8068374689703 0.654508551439137 17.2683238071846 
                               0.534216990652139 157.532970980151 0.216394078850322 122.313315937058 0.490139209809945 26.5203067809841 0.653874785485259 -163.050503706629 
                               0.490852995099245 26.8068374689677 0.490139209809954 26.5203067809864 0.720300847385494 85.6814947463078 0.00210652092756911 -109.159649611861 
                               0.654508551439165 17.2683238071847 0.653874785485309 -163.050503706626 0.00210652092756503 -109.159649612329 0.379554769092949 -142.333301069572 
9.275                          0.210882114428616 119.608309104354 0.534569367078908 154.791774181882 0.491901535148779 23.3666013792936 0.654062733585093 14.4352723263409 
                               0.534569367078893 154.791774181882 0.214442532054099 119.566091220577 0.491181943537582 23.0790372421636 0.653446108680111 -165.883596328943 
                               0.491901535148775 23.3666013792917 0.491181943537587 23.0790372421655 0.718870365604844 81.4725383915806 0.0021171453457625 -112.849141581978 
                               0.654062733585107 14.4352723263411 0.653446108680139 -165.883596328942 0.00211714534575824 -112.849141582346 0.381058540656004 -145.006421945806 
9.3                            0.208952333013401 116.858294131809 0.534925482037423 152.055829574092 0.492933475613449 19.9317143180952 0.653613408169273 11.6088852401776 
                               0.534925482037412 152.055829574092 0.212506951036641 116.822850703978 0.492208050370795 19.6431014372352 0.653013937610378 -168.710025562179 
                               0.492933475613449 19.9317143180938 0.492208050370796 19.6431014372366 0.717457351628894 77.2695420120331 0.00212786206765701 -116.533520121693 
                               0.653613408169274 11.6088852401779 0.653013937610388 -168.710025562179 0.00212786206765267 -116.533520121969 0.382567345954734 -147.675576982382 
9.325                          0.20703763401595 114.111613264607 0.535284150185394 149.324984452572 0.493950773052933 16.5021553681066 0.653160561409829 8.78904228698308 
                               0.535284150185387 149.324984452573 0.210586412192196 114.083143606882 0.493219483150175 16.212478737582  0.652578273914412 -171.529911205798 
                               0.493950773052935 16.5021553681056 0.493219483150174 16.212478737583  0.716059398413518 73.0726774777083 0.0021386799940014 -120.212786338998 
                               0.653160561409822 8.78904228698354 0.652578273914407 -171.529911205799 0.00213867999399709 -120.212786339192 0.384081123838119 -150.340840531614 
9.35                           0.205137007767467 111.367804625761 0.535644132672003 146.599098317813 0.494955442991256 13.0778882117834 0.65270418110433 5.97562550731393 
                               0.535644132672   146.599098317814 0.20867989010931 111.346521960046 0.494218253434712 12.7871331141222 0.652139116061586 -174.343370454823 
                               0.494955442991261 13.0778882117828 0.494218253434708 12.787133114123  0.714673929364452 68.8820711825233 0.00214960840140584 -123.886959427457 
                               0.652704181104316 5.97562550731448 0.652139116061569 -174.343370454824 0.00214960840140166 -123.886959427584 0.385599816639337 -153.002285377103 
9.375                          0.203249350208488 108.626409791249 0.536004143424369 143.878042877916 0.495949553159195 9.65886083071758 0.652244255602528 3.16851922690723 
                               0.536004143424368 143.878042877917 0.206786265194056 108.612542093271 0.495206424757673 9.36701283618928 0.651696460166334 -177.150518006665 
                               0.495949553159202 9.65886083071729 0.495206424757668 9.36701283618988 0.713298218081423 64.6978028590237 0.00216065691919491 -127.55607667881 
                               0.65224425560251 3.16851922690783 0.65169646016631 -177.150518006667 0.00216065691919092 -127.556076678882 0.387123370209344 -155.659982797452 
9.4                            0.201373470077358 105.886975162516 0.536362855108859 141.161702034272 0.496935216521094 6.24500524858523 0.651780772997078 0.367610032728921 
                               0.53636285510886 141.161702034272 0.204904330740485 105.880765993211 0.496186105664969 5.9520502139968  0.65125030063928 -179.951466163822 
                               0.496935216521102 6.24500524858513 0.496186105664963 5.95205021399721 0.711929406922972 60.5199045301658 0.00217183550463858 -131.220193473174 
                               0.651780772997058 0.367610032729539 0.65125030063925 -179.951466163824 0.00217183550463485 -131.220193473203 0.388651733941805 -158.314002628042 
9.425                          0.199508095546382 103.149053211763 0.536718904785619 138.449971853639 0.497914584139729 2.83623731701666 0.65131372050011 -2.42721325708208 
                               0.536718904785621 138.44997185364  0.203032799465808 103.15076254237  0.497159442589686 2.54216138409405 0.650800630695656 177.253675067858 
                               0.497914584139737 2.83623731701669 0.497159442589679 2.5421613840943  0.710564524371412 56.3483595948361 0.00218315441676509 -134.879383245595 
                               0.651313720500089 -2.42721325708148 0.650800630695624 177.253675067856 0.00218315441676166 -134.879383245594 0.390184860790078 -160.964413320871 
9.45                           0.197651880328041 100.41220361125  0.537070899275138 135.742760530116 0.498889837928797 -0.567543456719868 0.650843083976895 -5.2160596286313 
                               0.537070899275141 135.742760530116 0.201170309531491 100.422108650448 0.498128612612463 -0.862753863277455 0.650347442739866 174.46479788555  
                               0.498889837928806 -0.567543456719749 0.498128612612456 -0.862753863277298 0.709200501196572 52.1831020417657 0.00219462418895073 -138.53373742807 
                               0.650843083976875 -5.2160596286307 0.650347442739835 174.464797885548 0.00219462418894764 -138.533737428051 0.391722707276909 -163.611282002456 
9.475                          0.195803409276387 97.6759942576667 0.53741742025611 133.039988340316 0.499863183337935 -3.96645404176785 0.650368847610939 -7.99903591232945 
                               0.537417420256113 133.039988340316 0.199315430074197 97.6943902890827 0.499095816152733 -4.26281221646053 0.649890728643627 171.681796600557 
                               0.499863183337943 -3.96645404176768 0.499095816152727 -4.26281221646039 0.707834185434882 48.0240157846397 0.0022062556004699 -142.183365366537 
                               0.650368847610922 -7.99903591232892 0.649890728643597 171.681796600555 0.00220625560046717 -142.183365366508 0.393265233497445 -166.254674529804 
9.5                            0.193961203510451 94.9400022024991 0.537757029114446 130.341587594989 0.500836842009946 -7.36062797738492 0.649890993677711 -10.7762468269023 
                               0.537757029114449 130.34158759499  0.197466666272336 94.967203440965  0.500063269630647 -7.65814693619981 0.649430479933734 168.904567554164 
                               0.500836842009953 -7.3606279773848 0.500063269630641 -7.65814693619972 0.706462356216855 43.8709341095782 0.00221805964717314 -145.828394212682 
                               0.649890993677696 -10.7762468269018 0.649430479933709 168.904567554162 0.00221805964717077 -145.828394212653 0.394812403116104 -168.894655544473 
9.525                          0.192123725087587 92.203814499184  0.538088271563935 127.647502590166 0.501813044444319 -10.7502154305267 0.64940950240689 -13.5477950266836 
                               0.538088271563937 127.647502590166 0.195622463975135 92.2401549742301 0.501033198133864 -11.0489079132211 0.648966687904153 166.13300903819  
                               0.501813044444324 -10.7502154305267 0.50103319813386 -11.048907913221 0.705081736491121 39.7236392247638 0.00223004751144299 -149.468968790749 
                               0.649409502406877 -13.5477950266832 0.648966687904133 166.133009038189 0.00223004751144097 -149.468968790725 0.396364183357805 -171.531288524745 
9.55                           0.1902893812551  89.4670289777887 0.53840968205981 124.957689560835 0.502794022695141 -14.135383219785 0.648924351915475 -16.3137811515573 
                               0.53840968205981 124.957689560835 0.193781213921714 89.5128634530404 0.502007828117507 -14.4352616920391 0.648499343665727 163.367021220102 
                               0.502794022695145 -14.135383219785 0.502007828117504 -14.435261692039 0.703689004706841 35.5818619008208 0.00224223053155683 -153.105251439806 
                               0.648924351915465 -16.313781151557 0.648499343665712 163.367021220101 0.00224223053155516 -153.105251439792 0.397920544993991 -174.164635835948 
9.575                          0.188456528308496 86.7292549579557 0.538719788027483 122.272116640061 0.503782003125386 -17.5163148083297 0.648435518196403 -19.0743038789459 
                               0.538719788027483 122.272116640061 0.191941255577745 86.7849598953696 0.50298938015937 -17.8173914636406 0.648028438145538 160.606506072524 
                               0.503782003125389 -17.5163148083298 0.502989380159368 -17.8173914636404 0.702280805528508 31.445281189615  0.00225462017056295 -156.737421832189 
                               0.648435518196396 -19.0743038789457 0.648028438145528 160.606506072523 0.0022546201705616 -156.737421832188 0.399481462323836 -176.794758778948 
9.6                            0.186623475084316 83.9901139109454 0.539017113929784 119.590763826359 0.504779199233275 -20.8932102686192 0.647942975149392 -21.8294599772804 
                               0.539017113929782 119.590763826359 0.190100880617052 84.0560884891824 0.50398006178624 -21.1954970298061 0.647553962046621 157.851367306927 
                               0.504779199233276 -20.8932102686194 0.503980061786239 -21.195497029806 0.700853759668061 27.3135242084264 0.00226722798475178 -160.365676769045 
                               0.647942975149388 -21.8294599772803 0.647553962046617 157.851367306927 0.00226722798475073 -160.365676769058 0.40104691315099 -179.421717636859 
9.625                          0.18478848611487 81.2492400818107 0.539300185197405 116.913622962066 0.50578780456006 -24.2662862216952 0.647446694642684 -24.5793443604215 
                               0.539300185197402 116.913622962066 0.188258336075021 81.325907278508  0.504982060380854 -24.5697947418866 0.647075905777534 155.101510311247 
                               0.505787804560059 -24.2662862216954 0.504982060380855 -24.5697947418864 0.699404472928733 23.1861659759445 0.00228006559177795 -163.990229954068 
                               0.647446694642682 -24.5793443604215 0.647075905777536 155.101510311247 0.00228006559177716 -163.990229954095 0.402616878756149 177.954428279985 
9.65                           0.182949784471371 78.5062810830633 0.539567532048794 114.240697725348 0.506809985682365 -27.6357757538706 0.646946646596099 -27.3240501425452 
                               0.539567532048789 114.240697725348 0.186411827200007 78.5940888313544 0.505997536172752 -27.9405174168472 0.646594259360075 152.356842091146 
                               0.506809985682364 -27.6357757538708 0.505997536172753 -27.940517416847 0.697929544563491 19.0627292862421 0.0022931446384621 -167.61131174664 
                               0.6469466465961  -27.3240501425452 0.646594259360081 152.356842091146 0.00229314463846153 -167.611311746681 0.404191343865704 175.333620590768 
9.675                          0.181105554321085 75.760898471673  0.539817693227518 111.57200363841  0.507847875286004 -31.0019283135522 0.646442799077443 -30.0636686930393 
                               0.539817693227513 111.57200363841  0.184559520028243 75.8603209020224 0.50702861531009 -31.3079142333215 0.64610901232232 149.617271214642 
                               0.507847875286001 -31.0019283135524 0.507028615310093 -31.3079142333214 0.696425575058201 14.9426846067781 0.00230647676827314 -171.22916889567 
                               0.646442799077445 -30.0636686930394 0.646109012322329 149.617271214642 0.00230647676827276 -171.229168895721 0.4057702966167  172.715801802582 
9.7                            0.179253943223156 73.0127683218714 0.540049219687141 108.907568094348 0.508903565312192 -34.3650095908285 0.645935118405739 -32.7982896910105 
                               0.540049219687134 108.907568094347 0.182699543706952 73.1243071011606 0.508077383003511 -34.6722506103135 0.645620153583096 146.882707759785 
                               0.508903565312188 -34.3650095908287 0.508077383003514 -34.6722506103133 0.694889173456095 10.8254499865492 0.00232007358846352 -174.844064255454 
                               0.645935118405742 -32.7982896910106 0.645620153583109 146.882707759786 0.00232007358846329 -174.844064255513 0.407353728518263 170.100915270431 
9.725                          0.177393064186925 70.2615818070876 0.540260678255936 106.247430405001 0.509979100161288 -37.7253013822762 0.645423569256095 -35.5280011790302 
                               0.540260678255928 106.247430405001 0.180829992589721 70.3857675879256 0.509145876727306 -38.0338080710038 0.645127671332977 144.153063265089 
                               0.509979100161283 -37.7253013822765 0.50914587672731 -38.0338080710036 0.693316964345787 6.71039096076187 0.00233394663680126 -178.456276484875 
                               0.645423569256099 -35.5280011790303 0.645127671332991 144.153063265089 0.00233394663680113 -178.456276484939 0.408941634409648 167.488905158798 
9.75                           0.175520997515747 67.5070458053919 0.540450655316313 103.591641872013 0.511076469933628 -41.0831014432325 0.644908114762185 -38.252889615803 
                               0.540450655316305 103.591641872013 0.178948928127582 67.6444397998539 0.510236079457599 -41.3928840939147 0.644631552915963 141.428250682398 
                               0.511076469933623 -41.0831014432328 0.510236079457604 -41.3928840939146 0.691705594640226 2.59682043878631 0.0023481073478139 177.933900268798 
                               0.644908114762189 -38.2528896158032 0.644631552915977 141.428250682399 0.00234810734781385 177.933900268733 0.410534012415014 164.879716404736 
9.775                          0.173635792458727 64.7488835441539 0.540617760536603 100.940265883144 0.512197603681743 -44.4387233295177 0.644388716613368 -40.9730399274762 
                               0.540617760536595 100.940265883144 0.17705438057886 64.9000792375996 0.511349912921972 -44.7497919534244 0.644131784715134 138.70818433191  
                               0.512197603681739 -44.438723329518 0.511349912921978 -44.7497919534243 0.690051740278724 -1.51600143729738 0.00236256701843106 174.326156700351 
                               0.644388716613371 -40.9730399274765 0.644131784715148 138.708184331911 0.00236256701843104 174.326156700288 0.41213086389501 162.273294682439 
9.8                            0.171735468692363 61.986835301238  0.540760630695955 98.2933780357423 0.513344362643279 -47.7924962302977 0.643865335144421 -43.6885355573565 
                               0.540760630695947 98.2933780357422 0.175144350560662 62.1524603235557 0.512489230829973 -48.104860551325 0.643628352044771 135.992779859046 
                               0.513344362643274 -47.7924962302978 0.512489230829978 -48.1048605513249 0.688352112988804 -5.62886747556675 0.00237733677288381 170.720168690265 
                               0.643865335144424 -43.6885355573568 0.643628352044785 135.992779859047 0.0023773367728838 170.720168690209 0.413732193395213 159.669586369242 
9.825                          0.169818017653962 59.22065918203   0.540877933646414 95.6510662890151 0.514518533419272 -51.1447647934391 0.643337929416665 -46.3994585138397 
                               0.540877933646407 95.651066289015  0.17321681046499 59.4013773556322 0.513655812049316 -51.4584342407842 0.643121239050685 133.281954192922 
                               0.514518533419269 -51.1447647934393 0.513655812049321 -51.4584342407841 0.686603467249214 -9.74262366972428 0.00239242752669185 167.115597660722 
                               0.643337929416667 -46.3994585138399 0.643121239050697 133.281954192922 0.00239242752669181 167.115597660675 0.415338008591467 157.068538513007 
9.85                           0.167881403748843 56.4501319939594 0.540968372459866 93.0134311465158 0.515721821058142 -54.4958889443433 0.642806457289958 -49.105889416404 
                               0.54096837245986 93.0134311465158 0.171269705762881 56.646645580163  0.514851353688236 -54.8108726437017 0.64261042861986 130.575625506154 
                               0.515721821058139 -54.4958889443435 0.51485135368824 -54.8108726437017 0.684802607600318 -13.8581694973982 0.00240784994954187 163.512090943315 
                               0.642806457289959 -49.1058894164042 0.642610428619869 130.575625506155 0.00240784994954178 163.512090943282 0.416948320232107 154.470098800868 
9.875                          0.165923565453859 53.6750502430368 0.541030689811379 90.3805858699533 0.516955842001744 -57.8462436988417 0.642270875485684 -51.8079075395577 
                               0.541030689811374 90.3805858699532 0.169300956220814 53.8881024111428 0.516077464040519 -58.162550462048 0.642095902299918 127.873713175781 
                               0.516955842001742 -57.8462436988418 0.516077464040522 -58.162550462048 0.682946396453266 -17.9764582904176 0.00242361442683469 159.909282158104 
                               0.642270875485683 -51.8079075395578 0.642095902299923 127.873713175781 0.00242361442683452 159.909282158086 0.418563142077079 151.874215529271 
9.9                            0.16394241634072 50.8952312803438 0.541063672654595 87.7526567250577 0.518222116846287 -61.1962189703021 0.641731139641319 -54.5055908546685 
                               0.541063672654591 87.7526567250577 0.16730845705487 51.1256088268502 0.517335655346094 -61.5138572833408 0.641577640228395 125.176137745088 
                               0.518222116846286 -61.1962189703021 0.517335655346096 -61.5138572833409 0.681031762555195 -22.0984976849648 0.00243973101965289 156.306791603897 
                               0.641731139641317 -54.5055908546685 0.641577640228398 125.176137745088 0.00243973101965263 156.306791603896 0.420182490833904 149.280837575297 
9.925                          0.16193584604394 48.110514630497  0.541066157249118 85.1297832598101 0.519522062867626 -64.5462193706399 0.641187204357633 -57.1990160696474 
                               0.541066157249116 85.12978325981   0.165290080049889 48.359050979505  0.518627336316894 -64.8651973799544 0.641055621071371 122.482820886171 
                               0.519522062867626 -64.5462193706398 0.518627336316896 -64.8651973799545 0.679055710274233 -26.2253501581121 0.00245620942287649 152.70422666001  
                               0.64118720435763 -57.1990160696475 0.641055621071369 122.482820886171 0.00245620942287612 152.704226660028 0.421806386090473 146.689914369202 
9.95                           0.159901721200147 45.3207635390067 0.541037034604393 82.5121186148262 0.52085698625766 -67.8966640044324 0.640639023239885 -59.8882586664906 
                               0.541037034604393 82.5121186148261 0.163243674673188 45.5883420590967 0.519953804374833 -68.2169895014667 0.6405298219706  119.793685363081 
                               0.520856986257661 -67.8966640044323 0.519953804374834 -68.2169895014668 0.677015329875498 -30.3581336556736 0.00247305892115094 149.101182200085 
                               0.640639023239881 -59.8882586664906 0.640529821970595 119.793685363081 0.00247305892115046 149.101182200122 0.42343485024459 144.101395868159 
9.975                          0.157837886387939 42.5258667813125 0.540975256409199 79.8998298650782 0.522228074016138 -71.2479862548244 0.640086548934661 -62.5733929367193 
                               0.5409752564092  79.8998298650781 0.161167069215344 42.8134244590727 0.521316237546361 -71.5696666587301 0.640000218498028 117.108654995432 
                               0.52222807401614 -71.2479862548243 0.521316237546361 -71.5696666587304 0.674907808967702 -34.4980223145164 0.0024902883423898 145.497241018963 
                               0.640086548934655 -62.5733929367192 0.640000218498019 117.108654995431 0.0024902883423892 145.49724101902  0.42506790843022 141.515232531167 
10                             0.155742165100541 39.7257407833148 0.540879841520689 77.2930983914172 0.523636385440224 -74.6006335593661 0.639529733164169 -65.2544920147944 
                               0.540879841520692 77.293098391417  0.159058071994174 40.0342722994231 0.522715685956133 -74.9236758978133 0.639466784616247 114.427654622384 
                               0.523636385440227 -74.6006335593659 0.522715685956132 -74.9236758978136 0.672730445309423 -38.6462472804536 0.00250790600847412 141.891974274054 
                               0.639529733164163 -65.2544920147942 0.639466784616235 114.427654622383 0.00250790600847341 141.89197427413  0.426705588440368 138.931375295071 
10.025                         0.153612360787264 36.9203321116899 0.540749883091689 74.6921202795136 0.525082843152722 -77.9550671733576 0.63896852675996 -67.9316279096086 
                               0.540749883091694 74.6921202795133 0.156914472662493 37.2508943721242 0.52415306286086 -78.2794780613848 0.638929492643357 111.750610066937 
                               0.525082843152726 -77.9550671733574 0.524153062860858 -78.2794780613851 0.670480661174737 -42.804097620532 0.00252591968279232 138.284941943085 
                               0.638968526759953 -67.9316279096084 0.638929492643341 111.750610066936 0.00252591968279149 138.284941943178 0.428347920646505 136.349775551689 
10.05                          0.151446258004362 34.1096204025031 0.540584556419693 72.0971067428437 0.526568223608967 -81.3117619176758 0.638402879698066 -70.6048715341905 
                               0.540584556419699 72.0971067428434 0.154734043665526 34.4633375852478 0.525629135163544 -81.6375475345159 0.638388313220481 109.077448100506 
                               0.526568223608972 -81.3117619176755 0.525629135163541 -81.6375475345162 0.668156019489589 -46.9729213258704 0.0025443365142479 134.675693300662 
                               0.638402879698058 -70.6048715341902 0.638388313220463 109.077448100506 0.00254433651424696 134.675693300772 0.429994937914473 133.770385126    
10.075                         0.149241623721192 31.2936218090134 0.540383127605613 69.5082845651869 0.52809314702211 -84.6712059074371 0.637832741137581 -73.2742927337806 
                               0.54038312760562 69.5082845651865 0.152514541900157 31.6716909957649 0.527144513348042 -84.9983719712551 0.637843215280186 106.408096407772 
                               0.528093147022115 -84.6712059074368 0.527144513348038 -84.9983719712553 0.665754241963083 -51.1541263981606 0.00256316297734891 131.063767416607 
                               0.637832741137573 -73.2742927337802 0.637843215280166 106.408096407771 0.00256316297734788 131.06376741673  0.431646675516773 131.193156255357 
10.1                           0.14699620883402 28.4723930646401 0.540144963114552 66.9258965567507 0.529658066646945 -88.0339002571987 0.63725805946466 -75.9399603124628 
                               0.54014496311456 66.9258965567502 0.150253710635645 28.8760905377152 0.528699640774331 -88.3624519976735 0.637294166014014 103.742483551829 
                               0.529658066646951 -88.0339002571984 0.528699640774327 -88.3624519976738 0.663273229451557 -55.3491820093955 0.00258240480798288 127.448693679616 
                               0.637258059464653 -75.9399603124624 0.637294166013994 103.742483551829 0.00258240480798175 127.44869367975  0.433303171041164 128.618041569711 
10.125                         0.144707749947192 25.6460362754676 0.539869540334661 64.3502020164739 0.531263257363707 -91.4003587577215 0.636678782343806 -78.601942058556 
                               0.53986954033467 64.3502020164733 0.147949281764183 26.0767245727074 0.530294782276156 -91.7303008864037 0.636741130837371 101.080538939685 
                               0.531263257363714 -91.4003587577212 0.530294782276151 -91.730300886404 0.660711084807745 -59.5596197202799 0.00260206693447396 123.829992350443 
                               0.636678782343799 -78.6019420585557 0.636741130837349 101.080538939685 0.00260206693447277 123.829992350585 0.434964464295478 126.0449940728   
10.15                          0.142373971490127 22.8147045792796 0.539556459233189 61.7814771912454 0.532908803505437 -94.7711075186164 0.636094856778188 -81.2603047689895 
                               0.539556459233198 61.7814771912448 0.145598978459907 23.273840414552  0.531930012004916 -95.1024441969884 0.636184073350102 98.4221927881788 
                               0.532908803505444 -94.7711075186162 0.531930012004911 -95.1024441969887 0.658066138482124 -63.7870347379849 0.00262215340351788 120.207175149453 
                               0.636094856778181 -81.2603047689891 0.63618407335008 98.4221927881783 0.00262215340351662 120.2071751496   0.436630597208571 123.473967124284 
10.175                         0.13999258824864 19.9786088360175 0.539205455210899 59.2200157206974 0.534594585875808 -98.1466845704641 0.635506229180571 -83.9151142728989 
                               0.539205455210908 59.2200157206967 0.143200518336999 20.4677520103993 0.533605200466995 -98.4794193756255 0.635622955291256 95.7673760904099 
                               0.534594585875815 -98.1466845704638 0.53360520046699 -98.4794193756257 0.655336977158256 -68.0330871882973 0.00264266730059316 116.579745884117 
                               0.635506229180565 -83.9151142728985 0.635622955291234 95.7673760904094 0.00264266730059187 116.579745884265 0.438301613727321 120.90491442279  
10.2                           0.137561308400944 17.1380255491892 0.538816413256802 56.6661290538425 0.536320267908882 -101.527639419244 0.634912845456215 -86.5664354546969 
                               0.538816413256812 56.6661290538418 0.140751617211579 17.6588489985544 0.535320000706293 -101.861775307142 0.635057736486633 93.1160205828045 
                               0.536320267908888 -101.527639419244 0.535320000706288 -101.861775307142 0.65252247571799 -72.2995033706654 0.00266361066445838 112.947201122758 
                               0.63491284545621 -86.5664354546964 0.635057736486612 93.116020582804  0.00266361066445707 112.947201122905 0.439977559709594 118.337789989836 
10.225                         0.135077837162391 14.2933062609754 0.538389383504188 54.1201468211137 0.538085280928285 -104.914532545136 0.634314651098885 -89.214332276877 
                               0.538389383504198 54.120146821113  0.138249993588724 14.8476074101487 0.537073833589805 -105.250071811255 0.634488374788012 90.4680587129358 
                               0.538085280928291 -104.914532545136 0.5370738335898  -105.250071811255 0.64962183284484 -76.5880769569663 0.00268498439536306 109.309030921656 
                               0.634314651098879 -89.2143322768765 0.634488374787993 90.4680587129353 0.00268498439536175 109.309030921798 0.441658482813078 115.772548154616 
10.25                          0.132539881159189 11.4448887180472 0.537924598285832 51.582417142287  0.539888808471047 -108.307934836969 0.63371159130084 -91.8588678028207 
                               0.53792459828584 51.5824171422862 0.135693374015579 12.034602340627  0.538865872161832 -108.644879074385 0.633914826003125 87.823423608253  
                               0.539888808471053 -108.307934836969 0.538865872161827 -108.644879074385 0.646634610583795 -80.9006700858582 0.00270678815662805 105.664719613395 
                               0.633711591300836 -91.8588678028203 0.633914826003108 87.8234236082525 0.00270678815662676 105.66471961353  0.44334443237992 113.209143539586 
10.275                         0.129945153670364 8.59331017367255 0.53742249078039 49.053306847313  0.541729769651048 -111.708426952788 0.633103611077426 -94.5001042198787 
                               0.537422490780398 49.0533068473122 0.133079499464942 9.22052299094013 0.540695025042171 -112.046777007494 0.633337043815766 85.1820490458729 
                               0.541729769651053 -111.708426952788 0.540695025042166 -112.046777007494 0.643560778181731 -85.2392142941115 0.00272902026929071 102.013746665233 
                               0.633103611077423 -94.5001042198783 0.633337043815751 85.1820490458726 0.00272902026928946 102.013746665359 0.445035459317052 110.64753104685  
10.3                           0.127291380899968 5.73922327888056 0.536883715332779 46.533201583221  0.543606801549007 -115.116598596201 0.632490655406548 -97.1381028630001 
                               0.536883715332786 46.5332015832202 0.130406132941879 6.40619057189831 0.542559918855587 -115.456354519602 0.6327549796957  82.5438694236011 
                               0.543606801549011 -115.116598596201 0.542559918855583 -115.456354519602 0.640400760532902 -89.6057112141378 0.0027516775995625 98.3555876170618 
                               0.632490655406546 -97.1381028629997 0.632754979695687 82.5438694236008 0.0027516775995613 98.3555876171753 0.446731615972145 108.087665845284 
10.325                         0.12457630946884 2.88341512710134 0.536309169517929 44.0225057759928 0.54551824063046 -118.53304769741 0.631872669383053 -99.7729242391818 
                               0.536309169517934 44.022505775992  0.127671068540102 3.59257968429672 0.544458879694455 -118.874208695872 0.632168582798365 79.9088197323512 
                               0.545518240630463 -118.53304769741 0.544458879694452 -118.874208695872 0.637155491546485 -94.0022329528069 0.00277475543891482 94.6897151094259 
                               0.631872669383052 -99.7729242391815 0.632168582798355 79.908819732351  0.00277475543891369 94.6897151095257 0.44843295600506 105.529503358381 
10.35                          0.121797715348518 0.0268301606742998 0.535700017998973 41.5216424116244 0.547462103210656 -121.958379486996 0.631249598387705 -102.404628053003 
                               0.535700017998977 41.5216424116237 0.124872142216828 0.780843940186172 0.546389913633906 -122.300943868353 0.631577799854715 77.276835530138  
                               0.547462103210659 -121.958379486996 0.546389913633903 -122.300943868353 0.633826472735305 -98.4309220503433 0.00279824737669487 91.0156000129123 
                               0.631249598387704 -102.404628053003 0.631577799854707 77.2768355301378 0.00279824737669383 91.0156000129972 0.450139534254726 102.972999252768 
10.375                         0.118953414501018 -2.82940216532158 0.535057718206605 39.0310525955366 0.549436065005983 -125.393205449881 0.630621388270116 -105.033273233509 
                               0.535057718206609 39.031052595536  0.122007244607072 -2.02765321215878 0.548350686339531 -125.737170566757 0.630982575051872 74.6478529178117 
                               0.549436065005984 -125.393205449881 0.548350686339528 -125.737170566757 0.630415837293514 -102.893990899391 0.00282214516527977 87.3327126710159 
                               0.630621388270117 -105.033273233509 0.630982575051867 74.6478529178115 0.00282214516527884 87.3327126710852 0.451851406601311 100.418109427346 
10.4                           0.116041275539775 -5.68393382152335 0.534384047834942 36.5511948440996 0.55143743983591 -128.838142146157 0.629987985544702 -107.658917962687 
                               0.534384047834944 36.5511948440991 0.119074336264101 -4.83130124067523 0.550338501832062 -129.183504336002 0.630382849905669 72.0218085167022 
                               0.55143743983591 -128.838142146157 0.550338501832059 -129.183504336002 0.62692641988233 -107.39372048303 0.00284643857790703 83.6405242693777 
                               0.629987985544703 -107.658917962687 0.630382849905667 72.0218085167022 0.00284643857790621 83.6405242694311 0.453568629823579 97.8647900030397 
10.425                         0.113059234792738 -8.53515728128914 0.533681134109718 34.0825440563896 0.553463157567781 -132.293809884934 0.629349337598371 -110.281619705779 
                               0.53368113410972 34.0825440563891 0.116071465796948 -7.62819730471983 0.552350280501759 -132.640564406642 0.629778563126499 69.398639448329  
                               0.553463157567781 -132.293809884934 0.552350280501758 -132.640564406642 0.623361832272619 -111.932458266497 0.00287111525947578 79.9385083449621 
                               0.629349337598373 -110.281619705779 0.629778563126499 69.398639448329  0.00287111525947508 79.9385083450001 0.455291261451284 95.3129973130711 
10.45                          0.110005314233813 -11.3811553419926 0.532951484735583 31.625590108519  0.555509741429463 -135.760831236902 0.628705392908389 -112.901435243647 
                               0.532951484735584 31.6255901085187 0.112996791484941 -10.4160910553043 0.55438253649793 -136.108972203871 0.629169650480282 66.7782833163214 
                               0.555509741429463 -135.760831236902 0.554382536497929 -136.108972203871 0.619726544895826 -116.512615050511 0.00289616057079852 76.226142449314  
                               0.62870539290839 -112.901435243646 0.629169650480282 66.7782833163214 0.00289616057079796 76.2261424493371 0.457019359612459 92.7626878937424 
10.475                         0.106877642861024 -14.2196392179557 0.532198020369552 29.1808360071513 0.557573284852225 -139.239829370998 0.628056101268507 -115.518420707398 
                               0.532198020369552 29.1808360071512 0.109848607092737 -13.19231687309  0.556431354656286 -139.589349680513 0.628556044646718 64.1606781906786 
                               0.557573284852224 -139.239829370997 0.556431354656285 -139.589349680513 0.616025974224655 -121.136660564612 0.00292155742700099 72.5029099804412 
                               0.62805610126851 -115.518420707398 0.628556044646721 64.1606781906787 0.00292155742700056 72.5029099804508 0.458752982875413 90.2138184756577 
10.5                           0.103674482250213 -17.0478716479583 0.531424108395929 26.7487955333729 0.559649428048468 -142.731426200484 0.627401414021195 -118.132631615457 
                               0.531424108395928 26.7487955333728 0.106625372800997 -15.9537101660033 0.558492367169081 -143.082317459287 0.627937675077413 61.5457625944785 
                               0.559649428048466 -142.731426200484 0.55849236716908 -143.082317459287 0.612266575735335 -125.807117546972 0.00294728613102052 68.7683021980859 
                               0.627401414021197 -118.132631615457 0.627937675077416 61.5457625944787 0.00294728613102023 68.7683021980835 0.460492190085254 87.6663459753367 
10.525                         0.10039425721799 -19.8625706858572 0.530633597693111 24.3299903032666 0.561733334576275 -146.236240323911 0.626741284293475 -120.74412291323 
                               0.530633597693111 24.3299903032666 0.103325752427271 -18.696503278213 0.560560730250202 -146.58849276981 0.627314467856734 58.9334754931218 
                               0.561733334576274 -146.236240323911 0.560560730250201 -146.58849276981 0.608455941986915 -130.52655402346 0.00297332420344319 65.0218204370868 
                               0.626741284293478 -120.74412291323 0.627314467856738 58.9334754931219 0.00297332420344304 65.0218204370744 0.462237040194692 85.1202274871641 
10.55                          0.0970355928114176 -22.6597883558185 0.529830853983624 21.924946167726  0.56381966819516 -149.754884746892 0.626075667233656 -123.35294901553 
                               0.529830853983624 21.9249461677261 0.0999486584680214 -21.4161951012904 0.562631101099734 -150.108487166293 0.626686345568718 56.32375628617   
                               0.563819668195158 -149.754884746892 0.562631101099733 -150.108487166293 0.60460290508221 -135.297573464257 0.00299964621024946 61.2629785331716 
                               0.626075667233658 -123.352949015531 0.626686345568721 56.3237562861702 0.00299964621024944 61.2629785331511 0.463987592088879 82.5754202756133 
10.575                         0.09359735924111 -25.4347562728673 0.529020795244846 19.5341888717749 0.565902570374796 -153.287964371474 0.625404520245947 -125.959163851839 
                               0.529020795244846 19.5341888717751 0.0964933069888674 -24.1073864656816 0.56469761552979 -153.642904012697 0.62605322717358 53.7165448018078 
                               0.565902570374795 -153.287964371474 0.564697615529789 -153.642904012697 0.600717642441968 -140.122802462617 0.00302622359040674 57.4913054747494 
                               0.62540452024595 -125.95916385184 0.626053227173584 53.716544801808  0.00302622359040685 57.4913054747233 0.465743904403981 80.031881767683  
10.6                           0.0900787269449411 -28.1816873841081 0.528208926529003 17.1582388935525 0.56797563888053 -156.836073241171 0.624727803219758 -128.562820914513 
                               0.528208926529003 17.1582388935528 0.092959285090501 -26.7635705917963 0.566753866675239 -157.192335723407 0.62541502789778 51.1117812939238 
                               0.567975638880528 -156.836073241171 0.566753866675238 -157.192335723407 0.596811784421277 -145.004875549721 0.00305302448565631 53.7063482930559 
                               0.62472780321976 -128.562820914513 0.625415027897782 51.1117812939239 0.00305302448565654 53.7063482930263 0.467506035339142 77.4895695454836 
10.625                         0.0864792347976447 -30.8935187662866 0.527401373397639 14.7976053859165 0.570031907925407 -160.399791531497 0.624045478750239 -131.163973309975 
                               0.527401373397639 14.7976053859168 0.0893466346797995 -29.3768639513633 0.568792885278759 -160.757360749299 0.624771659141822 48.5094064417691 
                               0.570031907925406 -160.399791531497 0.568792885278758 -160.7573607493  0.592898521819275 -149.946416734993 0.00308001357528791 49.9076752012238 
                               0.624045478750241 -131.163973309975 0.624771659141824 48.5094064417692 0.00308001357528825 49.907675201193  0.469274042461465 74.948441338905  
10.65                          0.0827988757027079 -33.5615742934898 0.526604913019374 12.4527791501728 0.57206383044745 -163.97968227825 0.623357512346457 -133.762673812915 
                               0.526604913019375 12.452779150173  0.0856559577290836 -31.9376573237042 0.570807122108375 -164.338540301415 0.624123028410298 45.9093613521117 
                               0.572063830447449 -163.97968227825 0.570807122108375 -164.338540301415 0.588992710776311 -154.950017347038 0.00310715191917489 46.0948789904566 
                               0.623357512346459 -133.762673812915 0.624123028410299 45.9093613521119 0.00310715191917532 46.0948789904266 0.471047982503556 72.4084550182971 
10.675                         0.0790382056328817 -36.1751169907617 0.525827001813026 10.124224582711  0.574063263141449 -167.576287838809 0.622663872623426 -136.358974923494 
                               0.525827001813028 10.1242245827112 0.0818885503434764 -34.4341588755157 0.572788433135969 -167.936414807539 0.623469039268867 43.3115875637616 
                               0.574063263141449 -167.576287838809 0.572788433135968 -167.936414807539 0.585110971917258 -160.018209751693 0.00313439681284961 42.2675806883652 
                               0.622663872623427 -136.358974923494 0.623469039268867 43.3115875637618 0.00313439681285011 42.2675806883378 0.472827911153159 69.8695685870931 
10.7                           0.0751984849740669 -38.7207474864303 0.525075798345222 7.81237055233006 0.576021454944922 -171.190126085518 0.621964531474091 -138.952928927495 
                               0.525075798345224 7.81237055233026 0.0780465761421456 -36.8517896287341 0.5747280681753  -171.551500100739 0.62280959133313 40.7160270542931 
                               0.576021454944922 -171.190126085518 0.574728068175298 -171.551500100739 0.581271779891949 -165.153436547349 0.00316170165892208 38.4254334806145 
                               0.621964531474092 -138.952928927495 0.622809591333129 40.7160270542933 0.00316170165892263 38.4254334805913 0.474613882834305 67.3317401743014 
10.725                         0.0712818653510625 -41.1815847426453 0.524360180018536 5.51760018982134 0.577929039745631 -174.821686334782 0.621259464217241 -141.544587959349 
                               0.524360180018539 5.51760018982148 0.0741332942750685 -39.1723750566144 0.576616663745529 -175.184283343507 0.622144580294494 38.1226222487468 
                               0.577929039745631 -174.821686334782 0.576616663745527 -175.184283343507 0.57749553869821 -170.35801489146 0.00318901585967295 34.5681268922495 
                               0.621259464217241 -141.544587959349 0.622144580294492 38.122622248747  0.00318901585967352 34.5681268922314 0.476405950479372 64.7949280267939 
10.75                          0.0672916419414941 -43.5361343012035 0.523689751921007 3.24023960290929 0.579776034140318 -178.471425020973 0.620548649717259 -144.134004067918 
                               0.52368975192101 3.24023960290936 0.0701533647780849 -41.3730523577642 0.578444240988143 -178.835218696593 0.621473897988275 35.5313160300335 
                               0.579776034140318 -178.471425020973 0.578444240988141 -178.835218696594 0.573804637374848 -175.634095705168 0.0032162847361663 30.6953912193471 
                               0.62054864971726 -144.134004067918 0.621473897988273 35.5313160300336 0.00321628473616686 30.6953912193347 0.478204165291333 62.2590905013155 
10.775                         0.0632326022738157 -45.756701406904 0.52307484606102 0.980545569753812 0.581551841127532 177.860238869455 0.619832070471577 -146.721229284882 
                               0.523074846061024 0.980545569753814 0.0661132654336963 -43.4247778249172 0.580200209517983 177.495277252064 0.620797432509408 32.9420517507171 
                               0.581551841127533 177.860238869455 0.580200209517981 177.495277252064 0.570223479860447 179.016382355226 0.00324344947970808 26.8070021949607 
                               0.619832070471578 -146.721229284882 0.620797432509405 32.9420517507171 0.0032434494797086 26.8070021949541 0.48000857649545 59.7241860561397 
10.8                           0.0591115205438994 -47.8071316409251 0.522526509095909 -1.26130768661336 0.583245260657509 174.172928580971 0.619109712661653 -149.30631569554 
                               0.522526509095912 -1.26130768661341 0.0620218723287391 -45.2902682953066 0.581873378128815 173.806830275649 0.620115068381154 30.3547732457875 
                               0.583245260657509 174.172928580971 0.581873378128813 173.806830275649 0.566778482084165 173.591744071079 0.0032704471418949 22.9027858656381 
                               0.619109712661653 -149.30631569554 0.620115068381152 30.3547732457876 0.00327044714189535 22.902785865637  0.481819231079522 57.190173242297  
10.825                         0.0549378766812732 -49.6395446936187 0.522056476593369 -3.48524248226203 0.58484450798434 170.466314558325 0.618381566163336 -151.889315511801 
                               0.522056476593371 -3.48524248226212 0.0578912849017686 -46.9211405073102 0.583451973295721 170.099113483251 0.619426686782262 27.7694248459828 
                               0.58484450798434 170.466314558325 0.583451973295719 170.099113483251 0.563498028760999 168.090633623154 0.00329721066982636 18.9826236461569 
                               0.618381566163336 -151.889315511801 0.619426686782261 27.7694248459829 0.00329721066982668 18.9826236461603 0.483636173521756 54.6570106943011 
10.85                          0.0507249308879178 -51.189545325201 0.521677131859211 -5.69129218733683 0.586337240765031 166.740119562543 0.617647624512516 -154.470281147091 
                               0.521677131859213 -5.69129218733693 0.0537380218401086 -48.2539216495195 0.584923666415541 166.371852441434 0.618732165837954 25.1859513911546 
                               0.58633724076503 166.740119562543 0.58492366641554 166.371852441434 0.560412381999165 162.512074649438 0.00332366899325523 15.0464575105844 
                               0.617647624512517 -154.470281147091 0.618732165837955 25.1859513911545 0.00332366899325539 15.046457510591  0.485459445505224 52.1246571203018 
10.875                         0.0464913734990491 -52.3691233778981 0.52140144744172 -7.87961597089197 0.587710595821018 162.994123884196 0.616907884822   -157.0492652929  
                               0.52140144744172 -7.87961597089199 0.0495847862865196 -49.2045093623301 0.58627561069725 162.624830393224 0.618031380980096 22.6042982431068 
                               0.587710595821016 162.994123884196 0.586275610697249 162.624830393224 0.557553533802061 156.855533298372 0.00334974717048764 11.0942952674587 
                               0.616907884822002 -157.0492652929  0.618031380980099 22.6042982431067 0.00334974717048761 11.0942952674668 0.487289085617738 49.5930712915937 
10.9                           0.0422639252816911 -53.0560859262758 0.521242907600907 -10.050513396306 0.588951236414861 159.228170594413 0.616162347645714 -159.626320996594 
                               0.521242907600906 -10.0505133963059 0.0454631096002666 -49.6606300777835 0.587494488550892 158.857893515021 0.617324205381725 20.0244112972807 
                               0.588951236414858 159.228170594413 0.587494488550892 158.857893515021 0.554954994984571 151.120982708161 0.00337536659967679 7.12621585601423 
                               0.616162347645716 -159.626320996594 0.61732420538173 20.0244112972805 0.00337536659967653 7.12621585602187 0.48912512903592 47.0622120314152 
10.925                         0.0380815302604017 -53.0785143316345 0.521215410328175 -12.2044384092303 0.590045410792712 155.442170763623 0.615411016786398 -162.201501740153 
                               0.521215410328172 -12.20443840923  0.0414173397102022 -49.4721094053007 0.588566570221401 155.070956141463 0.616610510470976 17.4462369925817 
                               0.590045410792708 155.442170763623 0.588566570221402 155.070956141463 0.552651514049243 145.308966833543 0.00340044530173973 3.14237458916591 
                               0.6154110167864  -162.201501740153 0.616610510470984 17.4462369925814 0.00340044530173919 3.142374589171   0.490967607192094 44.5320382029729 
10.95                          0.0340022148861127 -52.1930084242509 0.521333147932904 -14.3420121856828 0.590979022597176 151.636108567577 0.614653899043197 -164.774861519402 
                               0.5213331479329  -14.3420121856823 0.037510613065057 -48.4399785487711 0.589477784267442 151.264005877801 0.615890166529206 14.8697223185889 
                               0.59097902259717 151.636108567577 0.589477784267443 151.264005877801 0.55067872129577 139.420661025509 0.00342489828042657 -0.856991742185182 
                               0.6146538990432  -164.774861519402 0.615890166529217 14.8697223185886 0.00342489828042574 -0.856991742184772 0.492816547422542 42.0025086966353 
10.975                         0.0301142513166577 -50.0586381401926 0.521610465786772 -16.464034244289 0.591737713561557 147.810046190112 0.613891003895677 -167.346454923305 
                               0.521610465786767 -16.4640342442883 0.0338334615019876 -46.3092352812855 0.590213800291778 147.437108509338 0.615163043377836 12.2948148193108 
                               0.591737713561549 147.810046190112 0.59021380029178 147.437108509338 0.54907269594898 133.457926295568 0.00344863796405161 -4.87155999968423 
                               0.61389100389568 -167.346454923305 0.615163043377851 12.2948148193104 0.00344863796405046 -4.8715599996904 0.494671972595519 39.4735824162411 
11                             0.0265533982429601 -46.2216725139656 0.522061699535176 -18.5714911810602 0.592306958653118 143.964128422935 0.613122343121055 -169.916337212821 
                               0.52206169953517 -18.5714911810592 0.0305149294627442 -42.7797563922393 0.590760124086427 143.590412608233 0.614429011158091 9.72146259258901 
                               0.59230695865311 143.964128422935 0.59076012408643 143.590412608233 0.547869457411327 127.42335382644  0.00347157473202968 -8.90091616880079 
                               0.613122343121058 -169.916337212821 0.614429011158109 9.72146259258851 0.00347157473202821 -8.90091616881516 0.496533900717332 36.945218264477  
11.025                         0.0235250840325686 -40.1656210321833 0.522700991938885 -20.6655623653333 0.592672173539837 140.098586854826 0.612347930341679 -172.484564398845 
                               0.522700991938879 -20.6655623653321 0.0277328739745876 -37.5684572068805 0.591102205063034 139.724153730143 0.613687941207466 7.14961428417974 
                               0.592672173539827 140.098586854826 0.591102205063038 139.724153730143 0.547104385818717 121.320296097134 0.00349361752763501 -12.9445512849997 
                               0.612347930341682 -172.484564398845 0.613687941207486 7.14961428417922 0.00349361752763324 -12.9445512850233 0.498402344514645 34.4173751272874 
11.05                          0.0213169506383414 -31.5540030051863 0.523542091475486 -22.7476219492843 0.592818833914775 136.213743536704 0.611567780500046 -175.051193318646 
                               0.52354209147548 -22.7476219492828 0.0257120660722216 -30.5706257730803 0.591225555499038 135.838658087229 0.61293970703625 4.57921907547559 
                               0.592818833914765 136.213743536704 0.591225555499042 135.838658087229 0.546811581742225 115.152881045276 0.00351467455631695 -17.0018579350461 
                               0.61156778050005 -175.051193318646 0.612939707036272 4.57921907547508 0.00351467455631491 -17.0018579350792 0.500277310991049 31.890011857285  
11.075                         0.0202575091506044 -20.7629955047082 0.524598135872777 -24.819236597485 0.592732605830362 132.310014005559 0.610781909258981 -177.616281710271 
                               0.524598135872772 -24.8192365974834 0.0246886177505483 -22.1133085993474 0.591115880749103 131.934345580605 0.612184185407027 2.0102266637616  
                               0.592732605830352 132.31001400556  0.591115880749108 131.934345580605 0.547023179854041 108.926006056279 0.003534654066489 -21.0721274570034 
                               0.610781909258985 -177.616281710271 0.61218418540705 2.01022666376109 0.00353465406648676 -21.0721274570456 0.502158800955808 29.3630872561446 
11.1                           0.0205771339360987 -9.28096052745628 0.525881424813744 -26.8821584420026 0.592399485780738 128.387909549862 0.60999033232489 179.820111715727 
                               0.52588142481374 -26.8821584420009 0.0248297309377475 -13.0927443047061 0.590759219158149 128.011732074896 0.611421257519443 -0.557412766169593 
                               0.592399485780728 128.387909549862 0.590759219158154 128.011732074896 0.547768636271491 102.645309286015 0.00355346520700246 -25.1545479623931 
                               0.609990332324894 179.820111715727 0.611421257519464 -0.557412766170061 0.00355346520700012 -25.1545479624429 0.504046808522572 26.8365600559698 
11.125                         0.0222585638958752 0.940856434335049 0.527403187080327 -28.9383129141326 0.59180594883676 124.448038602249 0.609193064692384 177.257927207837 
                               0.527403187080324 -28.938312914131 0.0261526271610686 -4.68591488112323 0.590142089979877 124.071430800822 0.610650810302017 -3.12374858028359 
                               0.591805948836751 124.448038602249 0.590142089979881 124.071430800822 0.549074013626478 96.3171168913346 0.00357101895259536 -29.2482032998993 
                               0.609193064692388 177.257927207837 0.610650810302036 -3.12374858028395 0.00357101895259303 -29.2482032999541 0.505941320575702 24.3103888996385 
11.15                          0.0250604891050902 8.72888560391181 0.52917334831656 -30.9897812936184 0.590939102701776 120.491107152577 0.60839011980892 174.697103909088 
                               0.529173348316557 -30.9897812936171 0.0285208976172656 2.21797737278055 0.58925164716961 120.114152778943 0.60987273781208 -5.68882974476049 
                               0.59093910270177 120.491107152578 0.589251647169613 120.114152778943 0.55096129115793 89.9483661114946 0.00358722908557015 -33.3520730714545 
                               0.608390119808923 174.697103909087 0.609872737812094 -5.68882974476062 0.00358722908556801 -33.3520730715108 0.50784231620174 21.7845323201438 
11.175                         0.0286780143876536 13.9785717501934 0.531200306311326 -33.0387780430593 0.589786845136468 116.517918086046 0.607581508658512 172.137579797176 
                               0.531200306311324 -33.0387780430586 0.0317205833305156 7.29962148224149 0.58807583650199 116.140706169346 0.609086942744255 -8.25270488801331 
                               0.589786845136465 116.517918086046 0.588075836501991 116.140706169346 0.553447728800128 83.5465057107217 0.00360201321892528 -37.4650337981863 
                               0.607581508658513 172.137579797176 0.609086942744261 -8.25270488801316 0.00360201321892352 -37.4650337982393 0.509749766083425 19.2589487189638 
11.2                           0.032856296529631 17.122024515911  0.533490721150281 -35.0876232473207 0.588338021820218 112.529369367258 0.606767238763974 169.579291629916 
                               0.533490721150278 -35.0876232473207 0.0355397372401629 10.6682666420874 0.586603553084845 112.151994468179 0.608293338047166 -10.8154223767088 
                               0.58833802182022 112.529369367258 0.586603553084843 112.151994468179 0.556545313959134 77.1193769082549 0.00361529384329043 -41.5858613154214 
                               0.606767238763974 169.579291629915 0.608293338047162 -10.8154223767082 0.00361529384328927 -41.5858613154657 0.511663631853527 16.7335963435077 
11.225                         0.0374144959611979 18.671577827177  0.536049327699095 -37.1387107389938 0.58658258139804 108.526451011699 0.605947313107609 167.022174896742 
                               0.53604932769909 -37.1387107389949 0.0398058920076838 12.6087658781758 0.584824796023807 108.149013492562 0.607491848647295 -13.377030407288 
                               0.586582581398048 108.526451011698 0.584824796023802 108.149013492562 0.560260317239002 70.6750794086002 0.00362699937745535 -45.7132344528316 
                               0.605947313107607 167.022174896741 0.607491848647278 -13.3770304072869 0.00362699937745504 -45.713234452861 0.513583865405661 14.2084332637078 
11.25                          0.0422305622348489 19.0497220220224 0.538878777608732 -39.1944727420939 0.584511724229732 104.510240810903 0.605121728970686 164.466163777001 
                               0.538878777608722 -39.1944727420961 0.0443902391738537 13.4217925462094 0.582730816761494 104.132847120121 0.606682413278084 -15.9375771145494 
                               0.584511724229746 104.510240810902 0.582730816761486 104.132847120122 0.564592978846777 64.2218283207298 0.003637065200203 -49.8457400282591 
                               0.605121728970681 164.466163777001 0.606682413278051 -15.9375771145477 0.00363706520020378 -49.8457400282675 0.515510408159128 11.6834173478403 
11.275                         0.0472216280309301 18.5675841167898 0.541979517357079 -41.2573420867135 0.582118041233292 100.481898805895 0.604290476692548 161.911191105793 
                               0.541979517357063 -41.2573420867169 0.0491990594094586 13.3626732625663 0.580314257491928 100.104661777724 0.605864986411551 -18.4971106989171 
                               0.582118041233313 100.481898805894 0.580314257491916 100.104661777724 0.56953734107711 57.7678084689089 0.00364543463972164 -53.9818791524668 
                               0.604290476692542 161.911191105792 0.6058649864115  -18.4971106989147 0.00364543463972374 -53.9818791524481 0.51744319027472 9.15850623768355 
11.3                           0.0523295656736626 17.4464600255518 0.545349707770342 -43.329713217688 0.579395639216081 96.4426605346423 0.60345353835069 159.357188348118 
                               0.545349707770316 -43.3297132176928 0.0541637270608909 12.6308759055029 0.577569276053537 96.0656997050744 0.605039540288835 -21.0556795740701 
                               0.57939563921611 96.442660534641  0.577569276053521 96.0656997050752 0.575081234690435 51.3210327555596 0.00365205989622013 -58.1200748079656 
                               0.603453538350682 159.357188348117 0.605039540288764 -21.0556795740669 0.00365205989622373 -58.1200748079148 0.519382129818331 6.63365732314055 
11.325                         0.0575117777344873 15.8432587638503 0.5489851890462  -45.4139033241951 0.57634024922753 92.3938291120007 0.602610886363627 156.804085582133 
                               0.548985189046163 -45.413903324201 0.059232804803236 11.3773498296675 0.574491653845309 92.0172710515575 0.604206067045169 -23.6133325366719 
                               0.576340249227565 92.3938291119989 0.574491653845288 92.0172710515587 0.581206418848961 44.8892108195782 0.00365690287361895 -62.2586806294571 
                               0.602610886363615 156.804085582132 0.60420606704508 -23.6133325366679 0.00365690287362416 -62.2586806293712 0.521327131869133 4.10882771647863 
11.35                          0.0627355701571531 13.8704004877572 0.552879493604432 -47.5121149437062 0.57294931475223 88.3367662338284 0.601762482018938 154.251811492277 
                               0.552879493604382 -47.5121149437131 0.0643665247391688 9.7154087682944  0.571078883596232 87.9607448978481 0.60336458092391 -26.1701189599888 
                               0.572949314752272 88.3367662338261 0.571078883596208 87.9607448978496 0.587888866316197 38.4796333026518 0.00365993589740506 -66.395990777692 
                               0.601762482018925 154.251811492277 0.603364580923804 -26.170118959984 0.00365993589741185 -66.3959907775708 0.523278087569002 1.5839742263626  
11.375                         0.0679747338734407 11.6097369333024 0.557023907220929 -49.6264013388525 0.569222056989779 84.272882229101  0.600908273929417 151.700293373087 
                               0.557023907220868 -49.6264013388599 0.069533114074836 7.73041862453861 0.567330234245682 83.8975393259388 0.602515120573301 -28.7260890132444 
                               0.569222056989825 84.2728822290983 0.567330234245656 83.8975393259405 0.595099178561709 32.0990757190797 0.00366114229793742 -70.5302507643095 
                               0.600908273929402 151.700293373086 0.602515120573179 -28.7260890132389 0.00366114229794559 -70.5302507641567 0.525234873109805 -0.940946668116721 
11.4                           0.0732074511498754 9.12195429494893 0.561407576976063 -51.7586358130728 0.565159515026469 80.2036253135304 0.600048196420808 149.149457144485 
                               0.561407576975993 -51.7586358130803 0.0747063880054748 5.48729445558923 0.563246790750703 79.8291106908567 0.601657751418756 -31.2812939086061 
                               0.565159515026517 80.2036253135274 0.563246790750677 79.8291106908587 0.602803109801104 25.7537243914172 0.00366051684162904 -74.6596690540747 
                               0.600048196420793 149.149457144484 0.601657751418627 -31.2812939086002 0.00366051684163814 -74.6596690538995 0.52719734865515 -3.46597884318568 
11.425                         0.0784149977285786 6.45288531196294 0.566017662692128 -53.9104859310957 0.560764559374104 76.1304702239356 0.599182167855213 146.59922737935  
                               0.566017662692054 -53.9104859311024 0.0798641766708843 3.03600079385674 0.558831467305323 75.756942273052  0.600792568102526 -33.8357861777576 
                               0.560764559374148 76.1304702239325 0.558831467305298 75.7569422730541 0.610962175192142 19.4491253463024 0.0036580659964054 -78.7824292444629 
                               0.599182167855198 146.59922737935  0.600792568102401 -33.8357861777519 0.00365806599641462 -78.7824292442819 0.529165357193137 -5.99116655564527 
11.45                          0.0835809290559793 3.6377731852101  0.570839526864776 -56.0833933598916 0.556041878104923 72.0549064331408 0.59831008889487 144.04952734416  
                               0.570839526864709 -56.0833933598969 0.0849872939390007 0.415507428848134 0.554088993209318 71.6825325109352 0.599919696981674 -36.38961998006  
                               0.556041878104961 72.0549064331381 0.554088993209299 71.682532510937  0.61953431652255 13.1901556254999 0.00365380802248646 -82.8967026020946 
                               0.598310088894858 144.04952734416  0.599919696981567 -36.389619980055 0.00365380802249461 -82.896702601933 0.531138723316693 -8.51655446735129 
11.475                         0.088690565592857 0.704186137635504 0.575856956710674 -58.2785597651297 0.550997935614885 67.9784261594042 0.597431840711618 141.500279053505 
                               0.575856956710628 -58.2785597651328 0.0900588580371943 -2.34337845119453 0.549025871425204 67.6073830272411 0.599039298674414 -38.9428514443606 
                               0.550997935614908 67.9784261594025 0.549025871425193 67.6073830272423 0.628474598673238 6.98101527973772 0.00364777288465083 -87.0006607222301 
                               0.59743184071161 141.500279053505 0.599039298674348 -38.9428514443573 0.00364777288465618 -87.0006607221238 0.533117251928048 -11.0421876685949 
11.5                           0.0937306655214915 -2.32596209143231 0.581052410932941 -60.4969389091902 0.545640904862015 63.9025123915414 0.596547283148014 138.951403339258 
                               0.58105241093294 -60.4969389091902 0.0950638416467848 -5.21597810634908 0.543650310674534 63.5329866700446 0.598151570643974 -41.4955390465634 
                               0.545640904862017 63.9025123915415 0.543650310674537 63.5329866700446 0.637735911667496 0.825237449264236 0.00364000198746956 -91.0924880721203 
                               0.596547283148014 138.951403339258 0.598151570643976 -41.4955390465634 0.00364000198746976 -91.0924880721185 0.535100726864018 -13.5681117000297 
