! Generated from PyAEDT SolutionData; AEDT ExportNetworkData workaround
# GHz S MA R 50
9 0.249798916964 124.640814966 0.471470505826 174.889351642 0.53067441887 -104.559665952 0.658559583012 46.0304715684 0.471470505826 174.889351642 0.25163126514 124.783645863 0.530885213237 -104.640675462 0.65769153781 -134.085027188 0.53067441887 -104.559665952 0.530885213237 -104.640675462 0.660715491787 172.854037591 0.000768398559559 143.35376485 0.658559583012 46.0304715684 0.65769153781 -134.085027188 0.000768398559559 143.35376485 0.365705518525 -114.714899508
9.025 0.246321212249 121.190544656 0.469305747249 172.098216176 0.534706940998 -109.284028101 0.65815370974 43.1231390631 0.469305747251 172.098216176 0.248123683096 121.349960615 0.534926949072 -109.366064265 0.657297313192 -136.990951621 0.534706940998 -109.284028101 0.534926949072 -109.366064265 0.654172318865 166.288144087 0.000774753045862 137.344276787 0.65815370974 43.1231390631 0.657297313192 -136.990951621 0.00077475304589 137.344276774 0.367142158849 -117.434120637
9.05 0.242821269361 117.732144773 0.467108172903 169.321481309 0.538721010752 -114.007265256 0.65774407034 40.2238122098 0.467108172905 169.321481309 0.244590752526 117.908436175 0.538950199472 -114.090371441 0.65690015064 -139.888899129 0.538721010752 -114.007265256 0.538950199473 -114.090371441 0.647543220452 159.711026243 0.000780884160257 131.326051075 0.657744070339 40.2238122098 0.65690015064 -139.888899129 0.000780884160291 131.326051058 0.368584259389 -120.148366888
9.075 0.239298529313 114.264618763 0.464877478944 166.559276564 0.542716657106 -118.729478229 0.657330665094 37.3323418605 0.464877478946 166.559276564 0.241031872679 114.458064178 0.542954970789 -118.813697358 0.656500036522 -142.77902285 0.542716657106 -118.729478229 0.542954970789 -118.813697358 0.640826288818 153.122305067 0.000786786114241 125.299180432 0.657330665094 37.3323418605 0.656500036522 -142.77902285 0.00078678611427 125.299180417 0.370031770828 -122.85772832
9.1 0.2357523282 110.786909436 0.462613310432 163.811764373 0.54669398271 -123.450790008 0.656913493358 34.4485824182 0.462613310433 163.811764373 0.237446341452 110.997774604 0.546941342638 -123.536164474 0.656096953952 -145.661472329 0.54669398271 -123.450790008 0.546941342638 -123.536164474 0.634019340169 146.521495695 0.000792453476412 119.263713774 0.656913493358 34.4485824182 0.656096953952 -145.661472329 0.000792453476432 119.263713763 0.371484647504 -125.562293249
9.125 0.232181895049 107.297894455 0.460315274301 161.079143071 0.550653143369 -128.171346644 0.656492553838 31.5723917279 0.460315274302 161.079143071 0.233833353649 107.526431256 0.550909447413 -128.257918217 0.655690883056 -148.53639363 0.550653143369 -128.171346644 0.550909447413 -128.257918217 0.627119933994 139.908001494 0.000797881119486 113.219657482 0.656492553838 31.5723917279 0.655690883056 -148.53639363 0.000797881119495 113.219657476 0.372942847289 -128.262148301
9.15 0.228586350547 103.796381613 0.457982955503 158.361650142 0.55459432557 -132.891317994 0.656067844843 28.7036309676 0.457982955503 158.361650142 0.230192000111 104.042826992 0.554859447847 -132.979127738 0.655281801191 -151.403929448 0.55459432557 -132.891317994 0.554859447847 -132.979127738 0.620125397491 133.281107316 0.000803064167231 107.166976637 0.656067844843 28.7036309676 0.655281801191 -151.403929448 0.000803064167232 107.166976636 0.374406331466 -130.957378456
9.175 0.224964706938 100.281103801 0.455615936667 155.65956569 0.558517722113 -137.610898304 0.655639364492 25.8421645404 0.455615936667 155.65956569 0.226521268 100.545678624 0.558791512671 -137.699986483 0.654869683105 -154.264219212 0.558517722113 -137.610898304 0.558791512671 -137.699986483 0.613032855546 126.639971851 0.000807997941686 101.105596237 0.655639364492 25.8421645404 0.654869683105 -154.264219212 0.000807997941683 101.10559624 0.375875064625 -133.648067108
9.2 0.22131586932 96.7507135764 0.453213821558 152.97321607 0.562423505905 -142.330306625 0.655207110909 22.9878599681 0.453213821557 152.97321607 0.222820042498 97.0336213773 0.562705790438 -142.420712618 0.654454501062 -157.117399186 0.562423505905 -142.330306625 0.562705790438 -142.420712618 0.60583926677 119.983619082 0.000812677910918 95.0354023793 0.655207110909 22.9878599681 0.654454501061 -157.117399186 0.000812677910913 95.0354023849 0.377349014549 -136.334296113
9.225 0.217638638569 93.2037771858 0.450776262554 150.30297763 0.566311801989 -147.049787043 0.654771082383 20.1405877853 0.450776262553 150.30297763 0.219087110116 93.5052027891 0.566602381586 -147.141549253 0.65403622492 -159.963602576 0.566311801989 -147.049787043 0.566602381586 -147.141549253 0.598541466224 113.31092879 0.000817099637532 88.9562434303 0.654771082383 20.1405877853 0.654036224919 -159.963602576 0.000817099637527 88.9562434369 0.378828152119 -139.016145848
9.25 0.213931716092 89.6387679293 0.448302992322 147.649280506 0.570182657882 -151.769608719 0.65433127751 17.3002214365 0.448302992321 147.649280506 0.215321163852 89.9588758905 0.570481308809 -151.862764488 0.653614822186 -162.802959618 0.570182657882 -151.769608719 0.570481308809 -151.862764488 0.591136215502 106.620626078 0.000821258728088 82.8679311768 0.65433127751 17.3002214365 0.653614822186 -162.802959618 0.000821258728085 82.8679311828 0.380312451215 -141.693695265
9.275 0.210193710589 86.0540586809 0.445793859857 145.012612401 0.574036012336 -156.49006573 0.653887695315 14.4666371732 0.445793859856 145.012612401 0.21152081038 86.3929915159 0.574342485844 -156.584651251 0.653190258042 -165.635597676 0.574036012337 -156.49006573 0.574342485844 -156.584651251 0.583620261003 99.9112698636 0.000825150783573 76.7702419854 0.653887695315 14.4666371732 0.653190258042 -165.635597676 0.000825150783572 76.7702419896 0.381801888627 -144.367021945
9.3 0.206423147009 82.4479133912 0.443248871012 142.393522292 0.577871662603 -161.211476695 0.653440335358 11.6397139542 0.443248871011 142.393522292 0.207684579448 82.8057895371 0.57818568477 -161.307526924 0.65276249534 -168.461641324 0.577871662603 -161.211476695 0.57818568477 -161.307526924 0.575990401274 93.1812402935 0.000828771351019 70.6629179804 0.653440335358 11.6397139542 0.65276249534 -168.461641324 0.00082877135102 70.662917982 0.383296443966 -147.036202155
9.325 0.202618477894 78.8184773527 0.440668233654 139.792623978 0.581689230328 -165.934184182 0.652989197825 8.8193333463 0.440668233654 139.792623978 0.203810935709 79.1953888016 0.582010501937 -166.031732757 0.652331494595 -171.281212438 0.581689230328 -165.934184182 0.582010501938 -166.031732757 0.568243564492 86.4287249996 0.000832115876428 64.5456682628 0.652989197825 8.8193333463 0.652331494595 -171.281212438 0.000832115876429 64.5456682613 0.384796099578 -149.701310904
9.35 0.198778097308 75.163765981 0.438052407561 137.210599394 0.585488126208 -170.658553891 0.652534283596 6.00537942755 0.438052407561 137.210599394 0.199898293169 75.5597755101 0.585816322653 -170.757633044 0.65189721396 -174.094430266 0.585488126208 -170.658553891 0.585816322653 -170.757633044 0.560376897256 79.6517041367 0.00083517965912 58.4181701935 0.652534283596 6.00537942755 0.65189721396 -174.094430266 0.00083517965912 58.4181701889 0.386300840471 -152.362421995
9.375 0.194900357581 71.4816518194 0.435402159156 134.648201588 0.589267513551 -175.38497359 0.652075594313 3.19773869194 0.435402159157 134.648201588 0.195945032501 71.8967897272 0.589602284777 -175.485614071 0.651459609191 -176.901411509 0.589267513551 -175.38497359 0.589602284777 -175.485614071 0.552387866041 72.8479341192 0.00083795780772 52.2800707657 0.652075594313 3.19773869193 0.651459609191 -176.901411509 0.000837957807717 52.2800707582 0.387810654228 -155.01960808
9.4 0.190983589121 67.7698494284 0.432718621188 132.106257235 0.593026270911 179.886148182 0.651613132418 0.396299955491 0.432718621189 132.106257235 0.191949521494 68.2041096638 0.593367241393 179.783917192 0.651018633613 -179.702270389 0.593026270911 179.886148182 0.593367241394 179.783917192 0.544274372848 66.0149299811 0.000840445197996 46.1309880925 0.651613132418 0.396299955482 0.651018633613 -179.702270389 0.00084044519799 46.1309880825 0.389325530946 -157.672940717
9.425 0.187026123614 64.0258977584 0.43000335739 129.585668566 0.596762953983 175.154383678 0.65114690119 -2.39904573591 0.430003357391 129.585668566 0.187910138941 64.4792333029 0.597109722744 175.050534643 0.650574238091 177.502881286 0.596762953983 175.154383678 0.597109722744 175.050534643 0.53603488675 59.1499462871 0.000842636432868 39.9705130366 0.65114690119 -2.39904573592 0.650574238091 177.502881286 0.000842636432858 39.9705130248 0.390845463155 -160.322490413
9.45 0.183026320954 60.2471395297 0.427258432149 127.087414536 0.600475756982 170.41928776 0.650676904753 -5.18840519731 0.42725843215 127.087414536 0.183825302343 60.7194568591 0.600827897646 170.313794864 0.650126371004 174.713934061 0.600475756982 170.41928776 0.600827897647 170.313794864 0.527668593292 52.2499565464 0.000844525804945 33.7982110084 0.650676904752 -5.18840519732 0.650126371004 174.713934061 0.000844525804931 33.7982109958 0.392370445761 -162.968326683
9.475 0.178982600353 56.4306970541 0.424486485116 124.612551037 0.604162473756 165.680399992 0.650203148078 -7.9718831941 0.424486485117 124.612551037 0.179693499883 56.9218494619 0.604519534656 165.573239217 0.649674978231 171.930780774 0.604162473756 165.680399992 0.604519534656 165.573239217 0.51917556388 45.3116311077 0.000846107262038 27.6136239594 0.650203148078 -7.97188319411 0.649674978231 171.930780774 0.000846107262021 27.6136239466 0.39390047598 -165.610518092
9.5 0.174893476143 52.5734438205 0.421690810594 122.162209931 0.607820458928 160.937247012 0.649725636965 -10.74958253 0.421690810594 122.16220993 0.175513327195 53.0832233323 0.608181963254 160.828396206 0.64922000315 169.15331651 0.607820458928 160.937247012 0.608181963255 160.828396207 0.510556947563 38.3313135789 0.000847374376185 21.4162725935 0.649725636964 -10.74958253 0.649220003151 169.15331651 0.000847374376166 21.4162725814 0.395435553276 -168.249132308
9.525 0.170757598893 48.6719710322 0.418875441424 119.73759663 0.6114465894 156.189345186 0.649244377993 -13.5216041339 0.418875441424 119.73759663 0.17128352957 49.2000985697 0.611812035411 156.078784137 0.648761386667 166.381438546 0.6114465894 156.189345185 0.611812035411 156.078784137 0.501815187799 31.304995896 0.0008483203168 15.2056588208 0.649244377993 -13.5216041339 0.648761386668 166.381438546 0.00084832031678 15.2056588103 0.396975679311 -170.884236143
9.55 0.166573802599 44.7225481215 0.416045236879 117.339985922 0.61503722662 151.436203564 0.648759378466 -16.2880471451 0.416045236879 117.339985922 0.1670030504 45.2686614865 0.615406087909 151.323914064 0.648299067253 163.61504631 0.61503722662 151.436203564 0.615406087909 151.323914064 0.492954267046 24.2282923055 0.000848937828628 8.98126847354 0.648759378466 -16.2880471451 0.648299067253 163.61504631 0.00084893782861 8.98126846514 0.398520857883 -173.515895596
9.575 0.162341158858 40.7210760656 0.413205973878 114.970715669 0.61858818005 146.677327136 0.648270646316 -19.0490089977 0.413205973878 114.970715669 0.162671086796 41.284715203 0.618959905888 146.563293042 0.647832981019 160.854041338 0.61858818005 146.677327136 0.618959905888 146.563293042 0.483979982132 17.0964127103 0.000849219215316 2.74257429953 0.648270646316 -19.0490089977 0.647832981019 160.854041338 0.000849219215302 2.74257429369 0.400071094879 -176.144175898
9.6 0.158059039137 36.6630320939 0.41036444053 112.631178008 0.622094672365 141.912220384 0.647778189986 -21.8045855028 0.41036444053 112.631178008 0.15828715354 37.2436209466 0.622468688117 141.796427685 0.647363061823 158.09832724 0.622094672365 141.912220384 0.622468688117 141.796427685 0.474900253465 9.90413610551 0.000849156329411 -3.51096075084 0.647778189986 -21.8045855028 0.647363061823 158.09832724 0.000849156329403 -3.51096075384 0.40162639822 -178.769141545
9.625 0.153727186486 32.5434040895 0.407528530669 110.322807589 0.625551306958 137.14039116 0.647282018281 -24.5548709302 0.407528530669 110.322807589 0.153851156813 33.1402281753 0.625927014588 137.022828029 0.646889241407 155.347809659 0.625551306958 137.14039116 0.625927014588 137.022828029 0.46572547108 2.64578520462 0.000848740569746 -9.77987993686 0.647282018281 -24.5548709302 0.646889241407 155.347809659 0.000848740569745 -9.77987993694 0.403186777812 178.609143658
9.65 0.149345798344 28.3566126567 0.404707337642 108.047066401 0.628952038421 132.361354863 0.646782140182 -27.2999580874 0.404707337642 108.047066401 0.149363479423 28.9687912608 0.629328817093 132.242011712 0.646411449575 152.602396244 0.628952038421 132.361354863 0.629328817093 132.242011712 0.456468880195 -4.68479612385 0.000847962887152 -16.0647288337 0.646782140182 -27.2999580874 0.646411449575 152.602396244 0.00084796288716 -16.064728831 0.404752245492 175.990616571
9.675 0.144915622477 24.0964184382 0.401911245108 105.805424682 0.632290146747 127.574638925 0.646278564623 -30.0399383971 0.401911245108 105.805424682 0.144825079733 24.7228700138 0.632667353538 127.453508458 0.645929614416 149.861996616 0.632290146747 127.574638925 0.632667353538 127.453508458 0.447147008397 -12.0942602996 0.000846813799531 -22.3660511337 0.646278564623 -30.0399383971 0.645929614416 149.861996616 0.000846813799547 -22.3660511284 0.406322814975 173.375214678
9.7 0.140438068564 19.7558118384 0.399152012059 103.599337425 0.635558216065 122.779787607 0.645771300231 -32.7749019724 0.399152012059 103.599337425 0.140237606957 20.3952108219 0.6359351868 122.656864863 0.645443662564 147.12652234 0.635558216065 122.779787607 0.6359351868 122.656864863 0.437780135413 -19.5897651278 0.000845283417307 -28.6843841497 0.645771300231 -32.7749019724 0.645443662564 147.12652234 0.000845283417332 -28.6843841424 0.4078985018 170.762876062
9.725 0.135915338519 15.3268818454 0.396442848676 101.430216022 0.638748118821 117.976367078 0.645260355011 -35.5049376888 0.396442848676 101.430216022 0.135603536224 15.9776046093 0.639124169041 117.851649475 0.644953519512 144.395886897 0.638748118821 117.976367078 0.639124169041 117.851649475 0.428392804639 -27.1789701447 0.000843361480289 -35.0202540347 0.645260355011 -35.5049376888 0.644953519512 144.395886897 0.000843361480323 -35.0202540258 0.409479323273 168.153539377
9.75 0.131350579447 10.8006602047 0.393798478939 99.2993946468 0.641851006371 113.163970768 0.644745736005 -38.2301332535 0.393798478939 99.2993946469 0.130926327603 11.4607172584 0.642225432445 113.037458143 0.644459109969 141.670005652 0.641851006371 113.163970768 0.642225432445 113.037458143 0.419014372818 -34.8700143227 0.000841037406927 -41.374170738 0.644745736006 -38.2301332535 0.644459109969 141.670005652 0.000841037406968 -41.3741707281 0.41106529841 165.547143817
9.775 0.126748064019 6.16693684454 0.391235185285 97.2080911115 0.644857307017 108.342224982 0.644227448889 -40.9505752708 0.391235185285 97.2080911115 0.1262106144 6.83388764648 0.645229387424 108.21391962 0.64396035827 138.948795828 0.644857307017 108.342224982 0.645229387423 108.21391962 0.409679590102 -42.6714674371 0.000838300356879 -47.7466227282 0.644227448889 -40.9505752708 0.643960358269 138.948795828 0.000838300356924 -47.746622718 0.412656447876 162.943629093
9.8 0.122113404248 1.41404236453 0.38877082991 95.1573621028 0.647756732576 103.510794716 0.643705497529 -43.6663493023 0.38877082991 95.1573621029 0.121462427349 2.08488821223 0.648125729354 103.380701386 0.643457188824 136.232176474 0.647756732577 103.510794716 0.648125729354 103.380701386 0.40042919685 -50.5922453035 0.000835139307711 -54.1380715214 0.643705497529 -43.6663493023 0.643457188824 136.232176474 0.000835139307757 -54.1380715116 0.414252793924 160.342935411
9.825 0.117453806022 -3.47140616236 0.386424846776 93.1480529782 0.650538294587 98.6693896681 0.643179883496 -46.3775399229 0.386424846776 93.1480529783 0.116689462969 -2.8003567188 0.650903454972 98.5375156444 0.642949526624 133.52006843 0.650538294587 98.6693896681 0.650903454972 98.5375156444 0.391310515379 -58.6414768293 0.00083154314637 -60.5489460622 0.643179883496 -46.3775399229 0.642949526624 133.52006843 0.000831543146414 -60.5489460532 0.415854360334 157.745003446
9.85 0.112778373405 -8.5047983661 0.384218197933 91.1807426368 0.653190331249 93.8177703673 0.642650605537 -49.08423077 0.384218197933 91.1807426369 0.111901406247 -7.83809819384 0.653550889517 93.6841254521 0.642437297782 130.812394293 0.653190331249 93.8177703673 0.653550889517 93.6841254521 0.382378004002 -66.8283086619 0.000827500775897 -66.9796370156 0.642650605537 -49.08423077 0.642437297782 130.812394293 0.000827500775936 -66.9796370081 0.417461172349 155.149774326
9.875 0.108098473408 -13.7038617261 0.382173287615 89.2556844224 0.65570054618 88.9557543731 0.642117659001 -51.7865045863 0.382173287616 89.2556844224 0.107110319985 -13.0471353463 0.656055725694 88.8203509117 0.641920430113 128.109078373 0.65570054618 88.9557543731 0.656055725694 88.8203509117 0.373693726882 -75.1616316527 0.000823001237555 -73.4304910402 0.642117659002 -51.7865045863 0.641920430113 128.109078373 0.000823001237586 -73.4304910346 0.419073256613 152.557189611
9.9 0.103428173631 -19.0890231913 0.380313827724 87.3727445279 0.658056059967 84.0832224714 0.641581035251 -54.4844432547 0.380313827724 87.3727445279 0.102331115153 -18.4492263039 0.65840507545 83.9460753637 0.641398853746 125.410046644 0.658056059967 84.0832224714 0.65840507545 83.9460753637 0.365327676406 -83.6497132123 0.000818033848268 -79.901805122 0.641581035251 -54.4844432547 0.641398853746 125.410046644 0.000818033848289 -79.9018051185 0.42069064111 149.967191272
9.925 0.0987847660816 -24.6837819335 0.378664648936 85.5313399547 0.660243475385 79.2001247828 0.641040721033 -57.1781278249 0.378664648936 85.5313399547 0.0975821180143 -24.0695166529 0.660585535415 79.0612514894 0.640872501757 122.715226697 0.660243475385 79.2001247828 0.660585535415 79.0612514894 0.357357865983 -92.2997220923 0.000812588352865 -86.3938210604 0.641040721033 -57.1781278249 0.640872501757 122.715226697 0.000812588352872 -86.3938210591 0.422313355096 147.379721681
9.95 0.0941893897392 -30.5150533622 0.377251452882 83.7303786893 0.662248956961 74.3064866884 0.640496697849 -59.8676385303 0.377251452882 83.7303786893 0.0928857492395 -29.9369411074 0.662583266696 74.1659072321 0.640341310814 120.024547677 0.662248956961 74.3064866884 0.662583266696 74.1659072321 0.349870092371 -101.117138755 0.000806655090207 -92.9067202099 0.640496697849 -59.8676385303 0.640341310814 120.024547677 0.000806655090199 -92.906720211 0.423941429043 144.794723587
9.975 0.0896677598742 -36.6134105262 0.376100502674 81.9682053459 0.664058325326 69.4024144697 0.639948941323 -62.5530547959 0.376100502674 81.9682053459 0.0882693253907 -36.0845139661 0.664384089459 69.260151431 0.639805221816 117.337940215 0.664058325326 69.4024144697 0.664384089459 69.260151431 0.3429572518 -110.105056993 0.000800225171808 -99.440618591 0.639948941323 -62.5530547959 0.639805221816 117.337940215 0.000800225171785 -99.4406185943 0.425574894574 142.212140113
10 0.0852510003601 -43.0130953193 0.3752382516 80.2425560156 0.665657166508 64.4881005453 0.639397420587 -65.2344552346 0.3752382516 80.2425560156 0.083765979739 -42.5493595681 0.665973592445 64.3441790539 0.639264180521 114.655336349 0.665657166508 64.4881005453 0.665973592445 64.3441790539 0.33671808942 -119.263402201 0.000793290671014 -105.995562491 0.639397420587 -65.2344552346 0.639264180521 114.655336349 0.000793290670975 -105.995562496 0.4272137844 139.631914732
10.025 0.0809765504335 -49.7515922448 0.37469091305 78.5505263632 0.667030955932 59.5638281854 0.6388420977 -67.9119176336 0.37469091305 78.5505263632 0.0794156703644 -49.3722369568 0.667337257189 59.4182759052 0.638718138135 111.976669447 0.667030955932 59.5638281854 0.667337257189 59.4182759052 0.331255275095 -128.588118699 0.000785844820271 -112.571524686 0.6388420977 -67.9119176336 0.638718138135 111.976669447 0.000785844820218 -112.571524693 0.428858132263 137.053991265
10.05 0.0768890712375 -56.8684499485 0.3744839785 76.8885570448 0.668165196507 54.6299755713 0.638282927117 -70.5855189301 0.3744839785 76.8885570448 0.0752661882598 -56.5961804208 0.668460596304 54.4828226812 0.638167051851 109.301874105 0.668165196507 54.6299755713 0.668460596304 54.4828226812 0.326672739136 -138.070410303 0.000777882213466 -119.168401426 0.638282927117 -70.5855189301 0.638167051851 109.301874105 0.0007778822134 -119.168401434 0.430507972865 134.478313863
10.075 0.0730411996222 -64.4029136343 0.374641694556 75.2524401795 0.66904556968 49.6870190739 0.637719855239 -73.2553351754 0.374641694556 75.2524401795 0.0713739836158 -64.2637264068 0.669329304711 49.5382982422 0.637610885313 106.63088605 0.66904556968 49.6870190739 0.669329304711 49.5382982422 0.323072275964 -147.696148578 0.000769399009733 -125.786010306 0.637719855239 -73.2553351754 0.637610885313 106.63088605 0.000769399009657 -125.786010315 0.432163341818 131.904827005
10.1 0.0694938792092 -72.3898441412 0.375186514234 73.6373498507 0.669658097851 44.735535618 0.637152820041 -75.9214414907 0.375186514233 73.6373498507 0.0678044846967 -72.412092608 0.669929422214 44.5852819719 0.637049608992 103.963642026 0.669658097851 44.735535618 0.669929422214 44.5852819719 0.32054953172 -157.445581512 0.000760393134643 -132.424089182 0.637152820041 -75.9214414907 0.637049608992 103.963642026 0.00076039313456 -132.424089192 0.433824275568 129.333475484
10.125 0.0663158481873 -80.8534615948 0.376138541496 72.0378984146 0.669989316017 39.7762040102 0.636581750835 -78.5839120125 0.376138541495 72.0378984146 0.0646314005113 -81.0657701699 0.670247505252 39.6244550997 0.636483200446 101.300079678 0.669989316016 39.7762040102 0.670247505252 39.6244550998 0.319189621733 -167.293469336 0.000750864474233 -139.08229625 0.636581750835 -78.5839120125 0.636483200446 101.300079678 0.000750864474147 -139.082296261 0.435490811341 126.764204401
10.15 0.0635817238632 -89.7988591143 0.377514991051 70.4482188109 0.670026449962 34.809805116 0.636006568144 -81.2428198311 0.377514991051 70.4482188109 0.0619343367522 -90.2265452911 0.670270805182 34.6566008723 0.63591164445 98.6401374261 0.670026449962 34.809805116 0.670270805182 34.6566008723 0.31906274958 -177.209733736 0.000740815056972 -145.760211424 0.636006568144 -81.2428198311 0.63591164445 98.6401374261 0.000740815056885 -145.760211434 0.437162987072 124.196959162
10.175 0.0613681055795 -99.2022000585 0.379329687174 68.8620712135 0.66975759786 29.8372207873 0.635427183744 -83.8982369234 0.379329687174 68.8620712135 0.0597940629368 -99.8622507115 0.669987449902 29.6826034752 0.635334932983 95.9837543403 0.66975759786 29.8372207873 0.669987449902 29.6826034752 0.320220284402 172.839369063 0.000730249218557 -152.457339109 0.635427183744 -83.8982369234 0.635334932983 95.9837543403 0.000730249218474 -152.457339118 0.438840841343 121.631685471
10.2 0.0597473958561 -109.002037592 0.381592625388 67.2729704183 0.669171911651 24.8594314617 0.634843500859 -86.5502340814 0.381592625387 67.2729704183 0.0582851747282 -109.897487016 0.669386625222 24.7034456273 0.634753065046 93.3308700059 0.66917191165 24.8594314617 0.669386625222 24.7034456273 0.322691761064 162.889638774 0.000719173744377 -159.17311249 0.634843500859 -86.5502340814 0.634753065046 93.3308700059 0.0007191737443 -159.173112498 0.440524413308 119.068329324
10.225 0.0587797611048 -119.095659402 0.384309619129 65.6743285603 0.668259774246 19.8775123808 0.634255414536 -89.1988808404 0.384309619129 65.6743285603 0.0574668567974 -120.211194655 0.668458751992 19.7202047927 0.634166046317 90.6814243943 0.668259774245 19.8775123808 0.668458751992 19.7202047927 0.326483179003 152.977066403 0.000707597984585 -165.906899382 0.634255414536 -89.1988808404 0.634166046317 90.6814243943 0.000707597984516 -165.90689939 0.442213742627 116.506837005
10.25 0.058504713415 -129.344385766 0.38748204994 64.0596063203 0.667012968332 14.8926284035 0.633662812196 -91.8442454077 0.38748204994 64.0596063203 0.0573737472145 -130.645421751 0.667195654781 14.7340479892 0.633573888624 88.0353577346 0.667012968332 14.8926284035 0.667195654781 14.7340479892 0.33157680038 143.135954854 0.000695533937088 -172.658009706 0.633662812196 -91.8442454077 0.633573888624 88.0353577346 0.00069553393703 -172.658009712 0.443908869394 113.947155087
10.275 0.0589346488895 -139.589064199 0.391106734565 62.4224649226 0.665424832455 9.90602742468 0.633065574362 -94.4863945966 0.391106734565 62.4224649226 0.0580097448038 -141.025582867 0.665590717774 9.74622520098 0.632976609251 85.3926103901 0.665424832455 9.90602742467 0.665590717774 9.74622520098 0.337932427367 133.39726843 0.000682996294286 -179.425704597 0.633065574362 -94.4863945966 0.632976609251 85.3926103901 0.00068299629424 -179.425704601 0.445609834057 111.389230426
10.3 0.0600525568728 -149.672232509 0.395175916049 60.7569110607 0.663490400102 4.9190324449 0.632463575561 -97.1253937674 0.395175916049 60.7569110607 0.0593470684552 -151.186519918 0.6636390236 4.75806144283 0.63237423007 82.7531227438 0.663490400102 4.91903244489 0.6636390236 4.75806144283 0.345489929678 123.787400948 0.000670002450158 173.790792857 0.632463575561 -97.1253937674 0.63237423007 82.7531227438 0.000670002450123 173.790792853 0.447316677342 108.833010161
10.325 0.0618147423298 -159.459680658 0.399677379077 59.057427457 0.661206517731 -0.066967626119 0.631856685381 -99.7613067786 0.399677379077 59.057427457 0.0613309201549 -160.995185005 0.661337471068 -0.229052441744 0.631766776527 80.1168350943 0.661206517731 -0.0669676261208 0.661337471068 -0.229052441742 0.354172648248 114.32746072 0.000656572465255 166.992285295 0.631856685381 -99.7613067786 0.631766776527 80.1168350943 0.000656572465232 166.992285293 0.449029440172 106.278441713
10.35 0.0641575037407 -168.854496426 0.404594683096 57.3190829709 0.658571938101 -5.05052831194 0.631244769659 -102.394195951 0.404594683096 57.3190829709 0.063887917033 -170.362832031 0.658684868126 -5.21367012849 0.631154276487 77.483687566 0.658571938101 -5.05052831194 0.658684868126 -5.21367012849 0.363891245467 105.033071763 0.000642728988278 160.179587263 0.631244769659 -102.394195951 0.631154276487 77.483687566 0.000642728988264 160.179587261 0.450748163579 103.725472782
10.375 0.0670054815906 -177.800823903 0.409907500807 55.5376178652 0.655587385812 -10.0301609033 0.630627691788 -105.024122049 0.409907500807 55.5376178652 0.0669354543002 -179.245381795 0.655681996996 -10.1943011517 0.63053675898 74.8536200344 0.655587385812 -10.0301609033 0.655681996996 -10.1943011517 0.374547602243 95.9146116672 0.000628497134152 153.353509973 0.630627691788 -105.024122049 0.63053675898 74.8536200344 0.000628497134147 153.353509972 0.452472888616 101.174051351
10.4 0.0702794295181 173.720830028 0.415592044867 53.7095017929 0.652255592704 -15.0043445973 0.630005314099 -107.651144274 0.415592044867 53.7095017929 0.0703896711879 172.36446629 0.65233164912 -15.1694230487 0.629914252869 72.2265720697 0.652255592704 -15.0043445973 0.65233164912 -15.1694230487 0.386038450262 86.977762271 0.000613904319859 146.514844786 0.630005314099 -107.651144274 0.629914252869 72.2265720697 0.00061390431986 146.514844786 0.454203656266 98.6241256806
10.425 0.073902075219 165.702661143 0.421621562475 51.8319640343 0.648581301598 -19.9715392302 0.629377499286 -110.275320283 0.421621562475 51.8319640343 0.0741709476333 164.448337897 0.648638628415 -20.1374940981 0.62928678547 69.6024828997 0.648581301598 -19.9715392302 0.648638628415 -20.1374940981 0.398258539634 78.2242399841 0.000598980060587 139.664345541 0.629377499286 -110.275320283 0.62928678547 69.6024828997 0.000598980060592 139.664345541 0.45594050734 96.0756443163
10.45 0.0778017634037 158.119273415 0.427966875953 49.9029973005 0.644571237816 -24.9301983719 0.62874411184 -112.896706222 0.427966875953 49.9029973005 0.0782069571873 156.972708225 0.644609722274 -25.0969664191 0.628654381181 66.9812913919 0.644571237816 -24.9301983719 0.644609722274 -25.0969664191 0.411103248424 69.6525890041 0.000583755730043 132.802709875 0.62874411184 -112.896706222 0.628654381181 66.9812913919 0.00058375573005 132.802709876 0.457683482376 93.5285560843
10.475 0.0819142270848 150.935839704 0.434596947429 47.9213378519 0.640234048859 -29.8787825399 0.628105019455 -115.51535678 0.434596947429 47.9213378519 0.082433858909 149.897052758 0.640253640723 -30.0462991911 0.62801706014 64.3629360555 0.640234048859 -29.8787825399 0.640253640723 -30.0462991911 0.424470623918 61.2589501998 0.000568264289942 125.930559686 0.628105019455 -115.51535678 0.62801706014 64.3629360555 0.00056826428995 125.930559687 0.459432621535 90.982810095
10.5 0.0861830605657 144.113993102 0.441479447047 45.8864256846 0.635580213631 -34.8157722855 0.627460094363 -118.131325264 0.441479447047 45.8864256846 0.086796310417 143.179331792 0.63558092511 -34.9839717444 0.627374836951 61.7473550626 0.635580213631 -34.8157722855 0.63558092511 -34.9839717444 0.438262900246 53.0377504288 0.000552539994644 119.048420847 0.627460094363 -118.131325264 0.627374836951 61.7473550626 0.00055253999465 119.048420847 0.461187964483 88.4383557439
10.525 0.0905594264177 137.615597643 0.448581306415 43.7983490931 0.63062192349 -39.7396809109 0.626809214571 -120.744663685 0.448581306415 43.7983490931 0.0912468545516 136.779252952 0.630603828629 -39.9084962831 0.626727719527 59.1344862871 0.63062192349 -39.7396809109 0.630603828629 -39.9084962831 0.452387565643 44.9822847365 0.000536618077677 112.156702284 0.626809214571 -120.744663685 0.626727719527 59.1344862871 0.000536618077681 112.156702284 0.462949550274 85.8951427132
10.55 0.0950013866196 131.4048869 0.455869241967 41.6577780575 0.625372938219 -44.6490665898 0.626152264964 -123.355422867 0.455869241967 41.6577780575 0.0957450482752 130.659949134 0.62533617178 -44.8184300094 0.626075708066 56.5242673589 0.625372938219 -44.6490665898 0.62533617178 -44.8184300094 0.466758061701 37.0851843923 0.000520534427384 105.255674474 0.626152264964 -123.355422867 0.626075708066 56.5242673589 0.000520534427386 105.255674474 0.464717417227 83.3531209738
10.575 0.0994731035517 125.449487586 0.463310236173 39.4658907093 0.619848420705 -49.5425436821 0.625489138254 -125.963652566 0.463310236173 39.4658907093 0.100256546941 124.788640119 0.61979317657 -49.7123864439 0.625418794191 53.9166357317 0.619848420705 -49.5425436821 0.61979317657 -49.7123864439 0.481294193429 29.3387769018 0.000504325259116 98.3454473714 0.625489138254 -125.963652566 0.625418794191 53.9166357317 0.000504325259115 98.3454473711 0.466491602792 80.8122407871
10.6 0.103944046726 119.720747155 0.470871967858 37.2242966956 0.614064754612 -54.4187930641 0.624819735753 -128.569401596 0.470871967858 37.2242966956 0.104752250473 119.136698255 0.613991283735 -54.5890457606 0.624756960273 51.3115287614 0.614064754612 -54.4187930641 0.613991283735 -54.5890457606 0.495922318898 21.7353512635 0.000488026791369 91.4259476989 0.624819735753 -128.569401596 0.624756960273 51.3115287614 0.000488026791366 91.4259476984 0.468272143414 78.2724527069
10.625 0.108388269644 114.193662509 0.478523186023 34.9349606684 0.608039349659 -59.2765713253 0.62414396796 -131.172717974 0.478523186023 34.9349606684 0.109207553907 113.679397769 0.607947957614 -59.4471639874 0.624090178956 48.7088837909 0.608039349659 -59.2765713253 0.607947957614 -59.4471639874 0.510575374864 14.2673445169 0.000471674932889 84.496895477 0.62414396796 -131.172717974 0.624090178956 48.7088837909 0.000471674932885 84.4968954765 0.470059074386 75.7337075811
10.65 0.1127837795 108.846603304 0.486234024386 32.6001284803 0.601790439255 -64.1147187173 0.623461754953 -133.773649051 0.486234024386 32.6001284803 0.113601710246 108.395520133 0.601681483427 -64.2855809603 0.623418412876 46.1086382404 0.601790439255 -64.1147187173 0.601681483427 -64.2855809603 0.525192782578 6.9274656478 0.000455304987242 77.5577795482 0.623461754953 -133.773649051 0.623418412876 46.1086382404 0.000455304987238 77.5577795477 0.471852429698 73.195956554
10.675 0.117112000541 103.660947858 0.493976256287 30.2222580112 0.595336875188 -68.932165781 0.622773026601 -136.372241666 0.493976256287 30.2222580112 0.117917297122 103.266915172 0.595210761659 -69.1032269545 0.622741614581 43.5107296971 0.595336875188 -68.932165781 0.595210761659 -69.1032269545 0.53972026744 -0.291228584503 0.000438951380562 70.60783176 0.622773026601 -136.372241666 0.622741614581 43.5107296971 0.00043895138056 70.6078317596 0.473652241874 70.6591510674
10.7 0.121357321913 98.620699425 0.501723491587 27.8039559496 0.588697923831 -73.7279386115 0.622077722579 -138.968542282 0.501723491587 27.8039559496 0.122139772559 98.2780715943 0.58855510402 -73.8991279536 0.622059726653 40.9150960044 0.588697923831 -73.7279386115 0.58855510402 -73.8991279536 0.554109617572 -7.39529350888 0.000422647417332 63.6459993354 0.622077722579 -138.968542282 0.622059726653 40.9150960044 0.000422647417332 63.6459993352 0.475458541804 68.1232428623
10.725 0.125506717329 93.7121188932 0.509451318723 25.3479213243 0.581893067989 -78.5011627584 0.621375792225 -141.562597126 0.509451318723 25.3479213243 0.126257104044 93.4157230157 0.58173403509 -78.672409554 0.621372681995 38.3216753449 0.581893067989 -78.5011627584 0.58173403509 -78.672409554 0.568318399805 -14.3908820164 0.000406425068057 56.6709148143 0.621375792225 -141.562597126 0.621372681995 38.3216753449 0.00040642506806 56.6709148143 0.477271358562 65.5881839804
10.75 0.129549423814 88.9233910502 0.517137396242 22.8568961439 0.574941817983 -83.2510657897 0.620667194245 -144.154452322 0.517137396242 22.8568961439 0.130259456506 88.6684997086 0.574767103276 -83.4222995329 0.620680404296 35.7304063179 0.574941817983 -83.2510657897 0.574767103276 -83.4222995329 0.582309646757 -21.283747732 0.000390314791729 49.6808627749 0.620667194245 -144.154452322 0.620680404296 35.7304063179 0.000390314791736 49.6808627751 0.479090719221 63.0539267642
10.775 0.133476668137 84.2443306355 0.524761498858 20.3336231572 0.567863535054 -87.9769785784 0.619951896277 -146.744154015 0.524761498858 20.3336231572 0.134138927043 84.0266277524 0.567673704118 -88.1481291385 0.619982808628 33.1412280062 0.567863535054 -87.9769785784 0.567673704118 -88.1481291385 0.596051525188 -28.0792598452 0.000374345395032 42.6737423438 0.619951896277 -146.744154015 0.619982808628 33.1412280062 0.000374345395041 42.6737423442 0.480916648652 60.5204238582
10.8 0.137281431417 79.6661284916 0.532305523568 17.7808104907 0.560677269494 -92.678335395 0.619229874362 -149.331748488 0.532305523568 17.7808104907 0.137889316591 79.4816729003 0.560472918393 -92.8493331865 0.61927980217 30.5540800333 0.560677269494 -92.678335395 0.560472918393 -92.8493331865 0.609516993417 -34.7824251101 0.000358543929368 35.6470242579 0.619229874362 -149.331748488 0.61927980217 30.5540800333 0.00035854392938 35.6470242583 0.482749169314 57.9876282081
10.825 0.140958244293 75.1811351463 0.539753461503 15.2011027356 0.553401615332 -97.3546729051 0.618501112319 -151.917282268 0.539753461503 15.2011027356 0.141505930904 75.0263245827 0.553183366805 -97.5254490614 0.618571285021 27.9689026086 0.553401615332 -97.3546729051 0.553183366805 -97.5254490614 0.622683453868 -41.397913762 0.000342935626114 28.5977009518 0.618501112319 -151.917282268 0.618571285021 27.9689026086 0.000342935626126 28.5977009522 0.484588301032 55.4554930604
10.85 0.144503006721 70.7826778736 0.547091341155 12.5970579423 0.546054582752 -102.005628192 0.617765601067 -154.500802218 0.547091341155 12.5970579423 0.14498540501 70.6542148848 0.545823082452 -102.176114742 0.617857151101 25.3856365607 0.546054582752 -102.005628192 0.545823082452 -102.176114742 0.635532405655 -47.9300870562 0.000327543869929 21.5222277852 0.617765601067 -154.500802218 0.617857151101 25.3856365607 0.000327543869941 21.5222277853 0.486434060761 52.9239719606
10.875 0.147912827865 66.464906927 0.554307148418 9.97112991375 0.538653488843 -106.630935925 0.617023337908 -157.082355626 0.554307148418 9.97112991375 0.148325546787 66.3597674425 0.538409401664 -106.801065975 0.617137289088 22.8042233569 0.538653488843 -106.630935925 0.538409401664 -106.801065975 0.648049101202 -54.3830248654 0.000312390209685 14.4164530838 0.617023337908 -157.082355626 0.617137289088 22.8042233569 0.000312390209694 14.4164530835 0.488286462342 50.393018751
10.9 0.15118588268 62.222666777 0.561390728529 7.32565516718 0.531214866757 -111.23042481 0.616274325799 -159.661990277 0.561390728529 7.32565516718 0.151525196404 62.1380716295 0.530958873276 -111.400132726 0.616411583397 20.2246051116 0.531214866757 -111.23042481 0.530958873276 -111.400132726 0.660222210291 -60.7605523137 0.000297494406472 7.27553412387 0.616274325799 -159.661990277 0.616411583397 20.2246051116 0.000297494406476 7.27553412286 0.490145516231 47.8625875672
10.925 0.154321282634 58.0513885423 0.568333674572 4.66284393683 0.523754392895 -115.804013439 0.615518572629 -162.239754514 0.568333674572 4.66284393683 0.154584099263 57.9847779572 0.523487185953 -115.973235034 0.61567991517 17.6467245814 0.523754392895 -115.804013439 0.523487185953 -115.973235034 0.672043494314 -67.0662648183 0.000282874518388 0.0938355053018 0.615518572629 -162.239754514 0.61567991517 17.6467245814 0.000282874518386 0.0938355033568 0.492011229227 45.3326328339
10.95 0.157318958693 53.9470002577 0.575129206722 1.98477461897 0.516286831351 -120.351705684 0.614756090514 -164.815697301 0.575129206722 1.98477461898 0.157502790686 53.8960111805 0.516009112793 -120.520378411 0.614942163263 15.0705251489 0.516286831351 -120.351705684 0.516009112793 -120.520378411 0.68350749309 -73.3035511989 0.000268547022339 -7.13519448692 0.614756090514 -164.815697301 0.614942163263 15.0705251489 0.000268547022329 -7.13519449002 0.493883604169 42.8031092588
10.975 0.160179555126 49.9058520765 0.581772045902 -0.706608899571 0.508825994545 -124.873585739 0.613986895144 -167.389868263 0.581772045902 -0.706608899566 0.160282491053 49.8682981284 0.508538472125 -125.041648882 0.614198205221 12.4959507953 0.508825994545 -124.873585739 0.508538472125 -125.041648882 0.69461122613 -79.4756147065 0.000254526973994 -14.4191749858 0.613986895144 -167.389868263 0.614198205221 12.4959507953 0.000254526973976 -14.4191749902 0.495762639624 40.2739718258
11 0.162904333086 45.9246539395 0.588258284998 -3.40949753896 0.501384718738 -129.369812931 0.613211005171 -169.962317728 0.588258284998 -3.40949753895 0.162925010416 45.8985077583 0.501088103223 -129.537207803 0.613447918224 9.9229460632 0.501384718738 -129.369812931 0.501088103223 -129.537207803 0.705353909828 -85.5854919616 0.000240828208366 -21.7669778527 0.613211005171 -169.962317728 0.613447918224 9.9229460632 0.000240828208341 -21.7669778584 0.49764832955 37.7451757867
11.025 0.165495083102 42.000423623 0.594585260285 -6.1222154064 0.493974852999 -133.840616396 0.612428441664 -172.533096765 0.594585260285 -6.1222154064 0.165432661833 41.983801342 0.493669855445 -134.007286538 0.612691180008 7.35145600956 0.493974852999 -133.840616396 0.493669855445 -134.007286538 0.715736691679 -91.6360698772 0.000227463585359 -29.1889554884 0.612428441664 -172.533096765 0.612691180008 7.35145600956 0.000227463585328 -29.1889554955 0.499540662932 35.2166766503
11.05 0.167954045826 38.1304434189 0.600751425238 -8.84321666128 0.486607260072 -138.286289717 0.611639227632 -175.102257209 0.600751425238 -8.84321666127 0.167808182801 38.1215910422 0.486294589289 -138.452181105 0.611927869741 4.78142615049 0.486607260072 -138.286289717 0.486294589289 -138.452181105 0.725762402244 -97.6301006953 0.000214445287092 -36.6972212413 0.611639227632 -175.102257209 0.611927869741 4.78142615049 0.000214445287057 -36.6972212494 0.501439623403 32.6884301711
11.075 0.170283840457 34.3122239829 0.606756228445 -11.5710812151 0.479291827565 -142.707185599 0.610843387628 -177.669851692 0.606756228445 -11.5710812151 0.170054664275 34.3095054349 0.478972187781 -142.872246848 0.61115786887 2.21280239818 0.479291827565 -142.707185599 0.478972187781 -142.872246848 0.735435325255 -103.570215296 0.000201785177111 -44.3059944683 0.610843387628 -177.669851692 0.61115786887 2.21280239818 0.000201785177075 -44.3059944771 0.50334518883 30.1603923346
11.1 0.172487400326 30.5434741345 0.612599996965 -14.3045095664 0.472037487938 -147.103710649 0.610040947428 179.764066338 0.612599996965 -14.3045095664 0.172175486792 30.5453607792 0.471711576629 -147.267893223 0.610381061918 -0.354469009119 0.472037487937 -147.103710649 0.471711576629 -147.267893223 0.744760985944 -109.458934951 0.000189495235843 -52.0320241771 0.610040947428 179.764066338 0.610381061918 -0.354469009121 0.00018949523581 -52.0320241859 0.505257330872 27.6325193418
11.125 0.174567915205 26.8220755938 0.618283826093 -17.042317025 0.464852245761 -151.476320314 0.609231933792 177.199442583 0.618283826093 -17.042317025 0.17417426326 26.8271370431 0.464520751667 -151.639578742 0.609597337252 -2.92044158335 0.464852245761 -151.476320314 0.464520751667 -151.639578742 0.753745957406 -115.298681688 0.0001775880921 -59.8951063641 0.609231933792 177.199442583 0.609597337252 -2.92044158336 0.000177588092073 -59.895106372 0.507176014504 25.1047675904
11.15 0.176528779871 23.1460618152 0.623809476206 -19.7834275366 0.457743210857 -155.825514028 0.608416374309 174.636221882 0.623809476206 -19.7834275366 0.176054788007 23.152957862 0.457406812156 -155.98780612 0.608806587812 -5.4851686688 0.457743210857 -155.825514028 0.457406812156 -155.98780612 0.762397684575 -121.091787438 0.000166077677195 -67.9187094561 0.608416374309 174.636221882 0.608806587812 -5.4851686688 0.000166077677178 -67.9187094619 0.509101197508 22.5770936543
11.175 0.178373548523 19.5136002167 0.629179277084 -22.5268672853 0.450716636004 -160.151830598 0.607594297326 172.074348176 0.629179277084 -22.5268672853 0.177820991651 19.5210737538 0.450375998648 -160.31311767 0.608008711802 -8.04870352948 0.450716636004 -160.151830598 0.450375998648 -160.31311767 0.770724325198 -126.840502118 0.000154980036345 -76.1307172489 0.607594297326 172.074348176 0.608008711802 -8.04870352948 0.000154980036341 -76.1307172513 0.51103282992 20.0494542599
11.2 0.180105894627 15.922977228 0.634396039888 -25.2717582134 0.443777958023 -164.455843858 0.606765731955 169.513764483 0.634396039888 -25.2717582134 0.179476901404 15.9298480243 0.443433734213 -164.616090955 0.607203613365 -10.6110994416 0.443777958023 -164.455843858 0.443433734213 -164.616090955 0.778734607033 -132.547000776 0.000144314340811 -84.5642848345 0.606765731955 169.513764483 0.607203613365 -10.6110994416 0.000144314340822 -84.5642848319 0.512970853435 17.5218062605
11.225 0.181729575781 12.372585674 0.639462976793 -28.0173115739 0.436931841189 -168.73815861 0.605930708161 166.954412867 0.639462976793 -28.0173115739 0.1810266064 12.3777449025 0.436584667988 -168.897334739 0.606391203224 -13.172409791 0.436931841189 -168.73815861 0.436584667988 -168.897334739 0.786437700367 -138.21338995 0.000134104151978 -93.2587718617 0.605930708161 166.954412867 0.606391203224 -13.172409791 0.000134104152003 -93.2587718526 0.514915200762 14.9941066071
11.25 0.18324840321 8.86091409805 0.644383628141 -30.7628216044 0.430182222026 -172.99940685 0.605089256922 164.396234398 0.644383628141 -30.7628216044 0.182474227643 8.86331951718 0.429832720088 -173.157485218 0.605571399314 -15.7326881748 0.430182222026 -172.99940685 0.429832720088 -173.157485218 0.793843104877 -143.841713316 0.000124378990769 -102.260654458 0.605089256922 164.396234398 0.605571399314 -15.7326881748 0.000124378990806 -102.260654441 0.516865794927 12.4663123171
11.275 0.184666215495 5.38653769399 0.649161796841 -33.5076593906 0.423532354698 -177.240244312 0.604241410472 161.839169111 0.649161796841 -33.5076593906 0.183823892202 5.38520940136 0.423181127107 -177.397202564 0.604744127396 -18.291988509 0.423532354698 -177.240244312 0.423181127107 -177.397202564 0.800960549766 -149.433956748 0.000115176252752 -111.624198331 0.604241410472 161.839169111 0.604744127396 -18.291988509 0.000115176252795 -111.624198306 0.518822548515 9.93838043912
11.3 0.185986856174 1.94811057395 0.653801489695 -36.2512669699 0.416984856291 178.538652707 0.603387202607 159.28315596 0.653801489695 -36.2512669699 0.185079711266 1.94212725927 0.416632487498 178.382832235 0.603909321668 -20.8503651393 0.416984856291 178.538652707 0.416632487498 178.382832235 0.807799906121 -154.992052854 0.000106543461726 -121.41146629 0.603387202607 159.28315596 0.603909321668 -20.8503651392 0.00010654346177 -121.411466258 0.520785362848 7.41026801605
11.325 0.187214154833 -1.45564085306 0.658306865237 -38.9931517102 0.410541751444 174.336590212 0.602526669063 156.728132762 0.658306865237 -38.9931517102 0.186245761703 -1.46714521889 0.41018880628 174.18192024 0.603066925373 -23.4078729586 0.410541751444 174.336590212 0.41018880628 174.18192024 0.814371110367 -160.517885059 9.85407376439e-05 -131.690895394 0.602526669063 156.728132762 0.603066925373 -23.4078729586 9.85407376802e-05 -131.690895357 0.522754127098 4.88193204382
11.35 0.188351911372 -4.82592357872 0.662682187657 -41.73288099 0.404204515834 170.152859095 0.601659847958 154.174036133 0.662682187657 -41.73288099 0.187326070772 -4.84376267365 0.403851538604 169.999347134 0.602216891413 -25.9645675294 0.404204515834 170.152859095 0.403851538604 169.999347134 0.820684097753 -166.013291287 9.12431142024e-05 -142.533205112 0.601659847958 154.174036133 0.602216891413 -25.9645675294 9.1243114224e-05 -142.533205075 0.524728717308 2.35332942799
11.375 0.189403883095 -8.16388292329 0.66693178635 -44.4700771904 0.397974118175 165.98673744 0.600786780298 151.62080142 0.66693178635 -44.4700771904 0.188324603675 -8.18882067141 0.397621631805 165.834385521 0.601359182971 -28.5205052113 0.397974118175 165.98673744 0.397621631805 165.834385521 0.82674874479 -171.480067293 8.47419155627e-05 -154.002910904 0.600786780298 151.62080142 0.601359182971 -28.5205052113 8.47419155649e-05 -154.002910876 0.526708995343 -0.17558306283
11.4 0.190373774339 -11.4706068206 0.67106002062 -47.2044130082 0.391851060428 161.837492566 0.599907510548 149.068362622 0.67106002062 -47.2044130082 0.189245253622 -11.5033596992 0.391499565665 161.686296961 0.600493774149 -31.0757432959 0.391851060428 161.837492566 0.391499565665 161.686296961 0.832574819618 -176.919969666 7.91437813447e-05 -166.143665525 0.599907510548 149.068362622 0.600493774149 -31.0757432959 7.91437813275e-05 -166.143665515 0.528694807742 -2.70484884637
11.425 0.191265228339 -14.7471295649 0.675071249075 -49.9356070876 0.385835416015 157.704382818 0.599022087251 146.5166523 0.675071249075 -49.9356070876 0.190091834144 -14.7883686589 0.385485390661 157.554333743 0.59962065062 -33.6303401478 0.385835416015 157.704382818 0.385485390661 157.554333743 0.838171939302 177.665281459 7.45653146296e-05 -178.957012153 0.599022087251 146.5166523 0.59962065062 -33.6303401478 7.45653145995e-05 -178.957012169 0.530685984464 -5.23451157862
11.45 0.192081821085 -17.9944351065 0.678969803269 -52.663419966 0.379926865901 153.586659119 0.598130563716 143.96560148 0.67896980327 -52.663419966 0.190868073377 -18.0447879422 0.379578764083 153.437740434 0.598739810309 -36.184355353 0.379926865901 153.586659119 0.379578764083 153.437740434 0.843549533124 172.273999973 7.1121358388e-05 167.621858205 0.598130563716 143.96560148 0.598739810309 -36.184355353 7.11213583576e-05 167.621858165 0.532682337534 -7.76461520823
11.475 0.192827056911 -21.2134599656 0.682759965149 -55.3876503259 0.374124732446 149.483566307 0.597232998754 141.415139544 0.682759965149 -55.3876503259 0.191577610073 -21.2735121543 0.373778983892 149.335755197 0.597851264098 -38.737849875 0.374124732446 149.483566307 0.373778983893 149.335755197 0.848716810989 166.904531633 6.89066407927e-05 153.741317948 0.597232998754 141.415139544 0.597851264098 -38.737849875 6.89066407754e-05 153.741317904 0.534683659564 -10.2952040328
11.5 0.193504365603 -24.4050958235 0.686445947885 -58.1081315393 0.368428010983 145.394344263 0.596329457471 138.86519411 0.686445947885 -58.1081315393 0.192223991129 -24.4753925401 0.368085020324 145.247610908 0.596955036564 -41.2908862203 0.368428010983 145.394344263 0.368085020324 145.247610908 0.8536827361 161.555252171 6.79744865998e-05 139.629147562 0.596329457471 138.86519411 0.596955036564 -41.2908862203 6.79744865998e-05 139.629147561 0.536689722142 -12.826322757
