! Generated from PyAEDT SolutionData; AEDT ExportNetworkData workaround
# GHz S MA R 50
9 0.219508428904 157.477530036 0.531500071623 -170.546572243 0.484786519096 -75.7318756883 0.659018781529 45.686157611 0.531500071623 -170.546572243 0.218432805139 157.99521583 0.486352632013 -75.5038365617 0.658221771775 -134.032044014 0.484786519096 -75.7318756883 0.486352632013 -75.5038365617 0.726939233357 -151.577534572 0.00158089961649 -28.9585447853 0.659018781529 45.686157611 0.658221771775 -134.032044014 0.00158089961648 -28.9585447854 0.363917360826 -116.240625092
9.025 0.217803644468 154.806067081 0.532230414311 -173.349224097 0.485263389067 -79.9839217824 0.658645907508 42.7783202998 0.532230414311 -173.349224097 0.216755974331 155.327934282 0.486841814774 -79.7545976035 0.657825391439 -136.939341309 0.485263389067 -79.9839217824 0.486841814774 -79.7545976035 0.726291912426 -157.371664331 0.00158403070292 -33.4911390886 0.658645907508 42.7783202998 0.657825391439 -136.939341309 0.00158403070293 -33.4911390875 0.365308217559 -118.962219803
9.05 0.216121934147 152.144687946 0.532976945847 -176.144837465 0.48570868772 -84.2279747433 0.65826886924 39.8784629574 0.532976945847 -176.144837465 0.215103454526 152.670916658 0.487299590624 -83.9973309732 0.657424899419 -139.838652121 0.48570868772 -84.2279747433 0.487299590624 -83.9973309732 0.725686077088 -163.158172888 0.00158686587814 -38.0176935399 0.658268869239 39.8784629573 0.657424899419 -139.838652121 0.00158686587815 -38.0176935381 0.366707042048 -121.678683953
9.075 0.214463415295 149.492894405 0.533739410983 -178.933673332 0.486123191306 -88.463966215 0.657887759684 36.9864377909 0.533739410983 -178.933673332 0.21347539649 150.02367307 0.487726747048 -88.2319693935 0.657020266338 -142.730122931 0.486123191307 -88.463966215 0.487726747048 -88.2319693935 0.725120824306 -168.936212456 0.00158940013819 -42.5375017222 0.657887759683 36.9864377908 0.657020266338 -142.730122931 0.0015894001382 -42.5375017201 0.368113831612 -124.390108905
9.1 0.212828062019 146.850190352 0.534517450122 178.284017289 0.486507774376 -92.6918372964 0.657502646894 34.102099913 0.534517450122 178.284017289 0.211871805489 147.385716085 0.488124170183 -92.4584550622 0.656611460738 -145.613897031 0.486507774376 -92.6918372964 0.488124170183 -92.4584550622 0.724595095115 -174.705031517 0.00159162932375 -47.0498894 0.657502646893 34.1020999129 0.656611460738 -145.613897031 0.00159162932376 -47.0498893977 0.369528583505 -127.096584287
9.125 0.211215717189 144.216083207 0.53531060828 175.507993625 0.486863406308 -96.9115385582 0.657113577789 31.2253074239 0.53531060828 175.507993625 0.210292553238 144.75656213 0.488492841301 -96.6767396767 0.65619844941 -148.490114552 0.486863406308 -96.9115385582 0.488492841301 -96.6767396766 0.724107683419 179.536031992 0.00159355010553 -51.5542110102 0.657113577788 31.2253074239 0.65619844941 -148.490114552 0.00159355010555 -51.554211008 0.370951294733 -129.798198043
9.15 0.20962610364 141.590085159 0.536118343656 172.738025333 0.48719114733 -101.123030096 0.656720581565 28.3559214586 0.536118343656 172.738025333 0.208737389027 142.135732744 0.488833832798 -100.886784492 0.655781197707 -151.358912494 0.48719114733 -101.123030096 0.488833832798 -100.886784492 0.723657244824 173.787557332 0.00159515997135 -56.049846169 0.656720581564 28.3559214586 0.655781197707 -151.358912494 0.00159515997136 -56.0498461669 0.372381961883 -132.495036484
9.175 0.208058834581 138.97171427 0.536940035827 169.973892639 0.487492144087 -105.326281608 0.656323672749 25.4938062023 0.536940035827 169.973892639 0.207205950033 139.522755677 0.489148303717 -105.088560403 0.65535966983 -154.220424777 0.487492144087 -105.326281608 0.489148303717 -105.088560403 0.723242305487 168.050047342 0.00159645721549 -60.536196238 0.656323672749 25.4938062022 0.65535966983 -154.220424777 0.0015964572155 -60.5361962363 0.373820580959 -135.187184345
9.2 0.206513423214 136.360495449 0.537774993536 167.215386414 0.487767624806 -109.521272494 0.655922853907 22.6388288802 0.537774993536 167.215386414 0.205697770837 136.917165867 0.489437494873 -109.282048051 0.654933829105 -157.074782281 0.487767624806 -109.521272494 0.489437494873 -109.282048051 0.722861270931 162.323934467 0.00159744093066 -65.0126809944 0.655922853906 22.6388288802 0.654933829105 -157.074782281 0.00159744093067 -65.012680993 0.375267147218 -137.874724834
9.225 0.204989291586 133.755961322 0.538622462103 164.462308193 0.488018894119 -113.707991963 0.655518118009 19.7908597259 0.538622462103 164.462308193 0.204212292166 134.318506313 0.489702723628 -113.467237933 0.654503638226 -159.922112913 0.488018894119 -113.707991963 0.489702723628 -113.467237933 0.722512434806 156.609586379 0.00159811100278 -69.4787354385 0.655518118008 19.7908597259 0.654503638226 -159.922112913 0.00159811100279 -69.4787354374 0.376721655021 -140.557739683
9.25 0.203485778723 131.157653012 0.539481630448 161.71447016 0.488247327595 -117.886439149 0.655109450485 16.9497719318 0.539481630448 161.71447016 0.202748868901 131.726328855 0.48994537838 -117.64413052 0.654069059494 -162.762541653 0.488247327595 -117.886439149 0.48994537838 -117.64413052 0.722193987599 150.907311145 0.00159846810874 -73.9338067719 0.655109450485 16.9497719318 0.654069059494 -162.762541653 0.00159846810875 -73.9338067712 0.378184097685 -143.236309208
9.275 0.202002148062 128.565120853 0.540351637737 158.971695081 0.488454366049 -122.056623227 0.654696830978 14.1154415854 0.540351637737 158.971695081 0.201306777383 129.140194895 0.490166912822 -121.812736379 0.653630055026 -165.596190632 0.488454366049 -122.056623227 0.490166912822 -121.812736379 0.721904025266 145.217361913 0.00159851371719 -78.3773515727 0.654696830978 14.1154415854 0.653630055026 -165.596190632 0.00159851371719 -78.3773515723 0.379654467346 -145.910512352
9.3 0.200537594255 125.977925039 0.541231579648 156.233816198 0.488641509681 -126.218563522 0.654280234814 11.2877475958 0.541231579648 156.233816198 0.199885222087 126.559676053 0.490368840035 -125.973076281 0.653186586957 -168.423179186 0.488641509681 -126.218563522 0.490368840035 -125.973076281 0.721640557787 139.539941114 0.0015982500922 -82.808833187 0.654280234814 11.2877475958 0.653186586957 -168.423179186 0.0015982500922 -82.8088331868 0.381132754823 -148.580426744
9.325 0.199091249382 123.395636245 0.542120514267 153.500677101 0.488810312101 -130.372289607 0.653859634224 8.46657161239 0.542120514267 153.500677101 0.198483341695 123.984354789 0.49055272647 -130.125181301 0.652738617615 -171.243623933 0.488810312101 -130.372289607 0.49055272647 -130.125181301 0.721401517635 133.875204183 0.0015976802998 -87.227719355 0.653859634224 8.4665716124 0.652738617615 -171.243623933 0.0015976802998 -87.227719355 0.382618949503 -151.246128745
9.35 0.197662188639 120.817836206 0.543017467635 150.772131557 0.488962374309 -134.517841394 0.653434999336 5.65179793835 0.543017467635 150.772131557 0.197100214656 121.413824998 0.490720185872 -134.269092911 0.652286109693 -174.057638842 0.488962374309 -134.517841394 0.490720185872 -134.269092911 0.721184768149 128.223262801 0.00159680821706 -91.6334800825 0.653434999336 5.65179793835 0.652286109693 -174.057638842 0.00159680821706 -91.6334800827 0.384113039213 -153.907693497
9.375 0.196249435554 118.244118288 0.543921438919 148.04804332 0.489099338662 -138.655269205 0.653006298956 2.84331344201 0.543921438919 148.04804332 0.195734864267 118.847692587 0.490872873217 -138.404863052 0.651829026395 -176.865335305 0.489099338662 -138.655269205 0.490872873217 -138.404863052 0.720988111781 122.584187702 0.00159563854371 -96.0255857652 0.653006298956 2.84331344201 0.651829026395 -176.865335305 0.00159563854371 -96.0255857654 0.385615010122 -156.565194974
9.4 0.194851966803 115.674088045 0.544831405255 145.328285921 0.489222882909 -142.784633822 0.652573501178 0.0410074672083 0.544831405255 145.328285921 0.194386263363 116.285576044 0.491012478686 -142.532554181 0.651367331576 -179.666822211 0.489222882909 -142.784633822 0.491012478686 -142.532554181 0.720809298221 116.958011056 0.00159417681578 -100.403505571 0.652573501178 0.0410074672149 0.651367331576 -179.666822211 0.00159417681577 -100.403505571 0.387124846631 -159.218706026
9.425 0.193468716683 113.107363765 0.545746326236 142.612742432 0.489334714306 -146.90600653 0.65213657383 -2.75522825557 0.545746326236 142.612742432 0.19305333866 113.727107001 0.491140721747 -146.652239316 0.650900989861 177.537793981 0.489334714306 -146.90600653 0.491140721747 -146.652239316 0.720646032341 111.344728472 0.00159242942137 -104.766706078 0.65213657383 -2.75522825557 0.650900989861 177.537793981 0.00159242942137 -104.766706079 0.388642531285 -161.868298423
9.45 0.192098581288 110.543577028 0.546665148077 139.901305221 0.489436563884 -151.019469126 0.651695484799 -5.54549969613 0.546665148077 139.901305221 0.191734974826 111.171930799 0.491259345382 -150.764002042 0.650429966763 174.748409167 0.489436563884 -151.019469126 0.491259345382 -150.764002042 0.720495981957 105.744300669 0.0015904036181 -109.114650178 0.651695484799 -5.54549969613 0.650429966763 174.748409167 0.0015904036181 -109.114650178 0.390168044687 -164.514042901
9.475 0.190740422466 107.982373249 0.547586807451 137.193875696 0.489530180893 -155.125113918 0.651250202233 -8.32991060863 0.547586807451 137.193875696 0.190430018316 108.619707043 0.491370110484 -154.867936512 0.649954228779 171.964921524 0.489530180893 -155.125113918 0.491370110484 -154.867936512 0.720356785356 100.156654827 0.00158810755216 -113.446796218 0.651250202233 -8.32991060863 0.649954228779 171.964921524 0.00158810755215 -113.446796218 0.391701365419 -167.156009202
9.5 0.189393071582 105.423412217 0.54851023501 134.490364028 0.489617327457 -159.223043702 0.65080069467 -11.1085626122 0.54851023501 134.490364028 0.189137281044 106.070110161 0.49147479048 -158.964147416 0.649473743479 169.187231441 0.489617327457 -159.223043702 0.49147479048 -158.964147416 0.720226058554 94.581685694 0.00158555027876 -117.762597412 0.650800694671 -11.1085626122 0.649473743479 169.187231441 0.00158555027875 -117.762597412 0.393242469973 -169.794266116
9.525 0.188055333137 102.866368635 0.549434358601 131.790688885 0.489699773471 -163.31337172 0.650346931085 -13.8815552678 0.549434358601 131.790688885 0.187855543896 103.522829941 0.491575166189 -163.052749943 0.648988479588 166.415241441 0.489699773471 -163.31337172 0.491575166189 -163.052749943 0.720101402254 89.0192564625 0.00158274178402 -122.061501483 0.650346931085 -13.8815552678 0.648988479588 166.415241441 0.00158274178402 -122.061501483 0.394791332691 -172.428881516
9.55 0.186725988266 100.31093263 0.550358106187 129.094777151 0.489779291761 -167.396221603 0.64988888089 -16.6489861509 0.550358106187 129.094777151 0.186583560147 100.977572058 0.491673020948 -167.133869717 0.648498407052 163.64885611 0.489779291761 -167.396221603 0.491673020948 -167.133869717 0.719980408454 83.4691994623 0.0015796930081 -126.342950554 0.64988888089 -16.6489861509 0.648498407052 163.64885611 0.0015796930081 -126.342950554 0.396347925712 -175.059922393
9.575 0.185403798135 97.7568102419 0.551280408474 126.402563645 0.489857653526 -171.471727294 0.649426513894 -19.4109509203 0.551280408474 126.402563645 0.185320058768 98.4340585737 0.491770136022 -171.207642721 0.648003497101 160.88798203 0.489857653526 -171.471727294 0.491770136022 -171.207642721 0.719860666681 77.931316706 0.00157641586957 -130.606381281 0.649426513894 -19.4109509203 0.648003497101 160.88798203 0.00157641586957 -130.606381281 0.397912218926 -177.687454898
9.6 0.184087507239 95.2037238884 0.552200201268 123.713990848 0.48993662408 -175.540032968 0.648959800241 -22.1675433826 0.552200201268 123.713990848 0.184063747657 95.8920283935 0.491868286312 -175.274215211 0.647503722302 158.13252771 0.48993662408 -175.540032968 0.491868286312 -175.274215211 0.719739769808 72.4053803168 0.00157292329122 -134.851225223 0.648959800241 -22.1675433826 0.647503722302 158.13252771 0.00157292329122 -134.851225223 0.39948417994 179.688455635
9.625 0.182775846601 92.6514127767 0.553116427567 121.029008627 0.490017958885 -179.601292932 0.648488710329 -24.9188555537 0.553116427567 121.029008627 0.18281331676 93.351237693 0.491969236363 -179.333743614 0.646999056601 155.382403514 0.490017958885 -179.601292932 0.491969236363 -179.333743614 0.719615319432 66.891132865 0.00156922922722 -139.076909456 0.648488710329 -24.9188555537 0.646999056601 155.382403514 0.00156922922722 -139.076909456 0.401063774047 177.067744651
9.65 0.181467536851 90.0996332776 0.554028039395 118.347573973 0.490103399903 176.344328478 0.648013214727 -27.664977716 0.554028039395 118.347573973 0.181567441089 90.8114602889 0.492074736684 176.613605581 0.646489475361 152.637521596 0.490103399903 176.344328478 0.492074736684 176.613605581 0.719484930787 61.3882876387 0.00156534869188 -143.282857431 0.648013214727 -27.664977716 0.646489475361 152.637521596 0.00156534869188 -143.282857431 0.402650964207 174.450348351
9.675 0.180161291168 87.5481592456 0.554933999401 115.669650742 0.490194672238 172.296657008 0.647533284087 -30.4059984731 0.554933999401 115.669650742 0.180324783604 88.2724879617 0.492186520369 172.567655932 0.645974955392 149.897795838 0.490194672238 172.296657008 0.492186520369 172.567655932 0.719346237169 55.8965288685 0.00156129778999 -147.468490098 0.647533284087 -30.4059984731 0.645974955392 149.897795838 0.00156129778999 -147.468490098 0.404245711037 171.83620366
9.7 0.178855818051 84.9967822884 0.55583328223 112.99520941 0.490293481086 168.255508594 0.647048889072 -33.1420048012 0.55583328223 112.99520941 0.179083997935 85.7341307253 0.492306300015 168.528221164 0.645455474976 147.163141784 0.490293481086 168.255508594 0.492306300015 168.528221164 0.719196893886 50.4155119192 0.00155709374905 -151.633227292 0.647048889072 -33.1420048012 0.645455474976 147.163141784 0.00155709374905 -151.633227292 0.405847972805 169.225248204
9.725 0.177549823893 82.4453119868 0.556724875681 110.32422684 0.490401508967 164.220689477 0.646560000282 -35.8730820985 0.556724875681 110.32422684 0.177843730914 83.1962170482 0.492435764937 164.495105279 0.64493101388 144.433476577 0.490401508967 164.220689477 0.492435764937 164.495105279 0.719034581694 44.9448634614 0.00155275495341 -155.776489414 0.646560000282 -35.8730820985 0.64493101388 144.433476577 0.00155275495341 -155.776489414 0.407457705436 166.61742029
9.75 0.176242015319 79.8935760715 0.55760778167 107.656686069 0.490520413227 160.191996307 0.646066588203 -38.5993142326 0.55760778167 107.656686069 0.176602624875 80.6585940314 0.492576578647 160.468102673 0.64440155337 141.708718903 0.490520413227 160.191996307 0.492576578647 160.468102673 0.71885700977 39.4841816298 0.00154830098048 -159.897699422 0.646066588203 -38.5993142326 0.64440155337 141.708718903 0.00154830098049 -159.897699421 0.409074862521 164.012658879
9.775 0.174931101272 77.3414205652 0.558481017018 104.9925761 0.490651823799 156.169216246 0.645568623162 -41.3207835855 0.558481017018 104.9925761 0.175359319726 78.1211275538 0.492730376592 156.446998238 0.643867076213 138.988788927 0.490651823799 156.169216246 0.492730376592 156.446998238 0.718661918196 34.0330361715 0.00154375263901 -163.996285158 0.645568623162 -41.3207835855 0.643867076213 138.988788927 0.00154375263902 -163.996285158 0.410699395343 161.410903568
9.8 0.17361579481 74.7887099037 0.559343614068 102.331891731 0.490797341197 152.152127059 0.645066075298 -44.0375710976 0.559343614068 102.331891731 0.174112454729 75.5837023974 0.492898764126 152.431567459 0.643327566677 136.273608238 0.490797341197 152.152127059 0.492898764126 152.431567459 0.718447080008 28.5909685847 0.00153913200948 -168.071682058 0.645066075298 -44.0375710976 0.643327566677 136.273608238 0.00153913200949 -168.071682058 0.412331252901 158.812094572
9.825 0.172294814605 72.2353270502 0.56019462117 99.6746333852 0.490958534717 148.140497195 0.64455891455 -46.7497563107 0.56019462117 99.6746333852 0.172860670012 73.0462223688 0.493083314697 148.421576499 0.642783010523 133.563099797 0.490958534717 148.140497195 0.493083314697 148.421576499 0.718210302813 23.1574922452 0.00153446248654 -172.123336256 0.64455891455 -46.7497563107 0.642783010523 133.563099797 0.00153446248654 -172.123336256 0.413970381946 156.21617271
9.85 0.17096688614 69.6811736231 0.561033103034 97.0208069767 0.491136940819 144.13408585 0.644047110649 -49.4574174094 0.561033103034 97.0208069767 0.171602607781 70.5086104363 0.493285568207 144.416782268 0.642233394994 130.857187875 0.491136940819 144.13408585 0.493285568207 144.416782268 0.717949430038 17.7320925154 0.00152976882317 -176.150708146 0.644047110649 -49.4574174094 0.642233394994 130.857187875 0.00152976882317 -176.150708146 0.415616727024 153.623079385
9.875 0.169630742588 67.1261700539 0.561858140991 94.3704237938 0.491334061672 140.13264302 0.643530633133 -52.1606312619 0.561858140991 94.3704237938 0.170336913245 67.9708089007 0.493507029538 140.41693248 0.641678708793 128.155798006 0.491334061672 140.13264302 0.493507029538 140.41693248 0.717662341833 12.3142268295 0.00152507717648 179.846723569 0.643530633133 -52.1606312619 0.641678708793 128.155798006 0.00152507717649 179.84672357 0.417270230528 151.032756572
9.9 0.168285125404 64.5702557999 0.562668833164 91.7235004067 0.491551363806 136.135909528 0.643009451361 -54.8594734605 0.562668833164 91.7235004067 0.16906223526 65.4327796237 0.493749167192 136.421765687 0.641118942061 125.458856933 0.491551363806 136.135909528 0.493749167192 136.421765687 0.71734695569 6.90332474513 0.00152041515439 175.869457297 0.64300945136 -54.8594734605 0.641118942061 125.458856933 0.00152041515439 175.869457297 0.418930832754 148.445146809
9.925 0.166928784625 62.0133896308 0.563464294595 89.0800586031 0.491790276871 132.143617034 0.64248353454 -57.5540183609 0.563464294595 89.0800586031 0.167777226714 62.8945043346 0.494013412022 132.431011291 0.640554086345 122.766292559 0.491790276871 132.143617034 0.494013412022 132.431011291 0.717001226831 1.49878795215 0.00151581186278 171.917963389 0.64248353454 -57.5540183609 0.640554086345 122.766292559 0.00151581186278 171.917963389 0.420598471965 145.860193181
9.95 0.165560478915 59.455550013 0.56424365733 86.440125348 0.492052192432 128.155488024 0.641952851761 -60.2443391211 0.56424365733 86.440125348 0.166480544673 60.3559850391 0.49430115602 128.44438954 0.639984134565 120.078033898 0.492052192432 128.155488024 0.49430115602 128.44438954 0.71662314842 -3.90000977202 0.00151129795231 167.992678364 0.641952851761 -60.2443391211 0.639984134565 120.078033898 0.00151129795231 167.992678364 0.422273084462 143.277839314
9.975 0.16417897538 56.8967356148 0.565006070509 83.8037327729 0.492338462794 124.17123577 0.641417372035 -62.9305077401 0.565006070509 83.8037327729 0.165170850317 57.8172445526 0.494613751119 124.461611495 0.639409080969 117.394011025 0.492338462794 124.17123577 0.494613751119 124.461611495 0.716210751676 -9.29372267173 0.0015069056638 164.093998471 0.641417372035 -62.9305077401 0.639409080969 117.394011025 0.0015069056638 164.093998471 0.423954604661 140.698029364
10 0.162783049185 54.3369659532 0.565750700468 81.1709181925 0.492650399803 120.190564271 0.640877064333 -65.6125950959 0.565750700468 81.1709181925 0.163846808707 55.2783271819 0.494952507979 120.482378974 0.638828921088 114.714155034 0.492650399803 120.190564271 0.494952507979 120.482378974 0.715762105935 -14.6830331979 0.00150266887108 160.222272566 0.640877064333 -65.6125950959 0.638828921088 114.714155034 0.00150266887107 160.222272566 0.425642965179 138.120708013
10.025 0.161371483004 51.7762822077 0.5664767309 78.5417241505 0.492989273585 116.213168164 0.640331897632 -68.2906709829 0.5664767309 78.5417241505 0.162507088415 52.7392995784 0.495318694703 116.506384467 0.638243651678 112.038397987 0.492989273585 116.213168164 0.495318694703 116.506384467 0.715275318759 -20.0686522789 0.00149862312 156.377794283 0.640331897632 -68.2906709829 0.638243651678 112.038397987 0.00149862312 156.377794283 0.427338096918 135.545820458
10.05 0.159943066353 49.2147482237 0.567183363098 75.9161984949 0.493356311185 112.238732608 0.639781840962 -70.9648041495 0.567183363098 75.9161984949 0.161150361057 50.2002517877 0.495713535461 112.533311032 0.637653270666 109.366672877 0.493356311185 112.238732608 0.495713535461 112.533311032 0.714748536138 -25.4513196875 0.00149480566197 152.560793498 0.639781840962 -70.9648041495 0.637653270666 109.366672877 0.00149480566197 152.560793498 0.429039929161 132.97331241
10.075 0.158496594831 46.65245173 0.567869816298 73.2943944835 0.493752695065 108.266933146 0.639226863447 -73.6350623341 0.567869816298 73.2943944835 0.159775300773 47.6612985208 0.496138208968 108.562832155 0.637057777077 106.698913578 0.493752695065 108.266933146 0.496138208968 108.562832155 0.714179942888 -30.8318045127 0.00149125548026 148.771427091 0.639226863447 -73.6350623341 0.637057777077 106.698913578 0.00149125548026 148.771427091 0.430748389676 130.403130088
10.1 0.157030869318 44.0895057974 0.568535328185 70.6763709194 0.494179561417 104.297435534 0.638666934352 -76.3015123018 0.568535328185 70.6763709194 0.158380583689 45.1225806736 0.496593846774 104.594611593 0.636457170968 104.035054806 0.494179561417 104.297435534 0.496593846774 104.594611593 0.713567763307 -36.2109057449 0.00148801330727 145.00976904 0.638666934352 -76.3015123018 0.636457170968 104.035054806 0.00148801330727 145.00976904 0.432463404812 127.835220215
10.125 0.155544695161 41.5260505663 0.569179155564 68.0621923166 0.494637998242 100.329895546 0.638102023131 -78.9642198797 0.569179155564 68.0621923166 0.156964887411 42.5842671245 0.497081531321 100.628303177 0.635851453346 101.375032079 0.494637998242 100.329895546 0.497081531321 100.628303177 0.712910262179 -41.5894529797 0.00148512163063 141.275799922 0.638102023131 -78.9642198797 0.635851453346 101.375032079 0.00148512163063 141.275799922 0.434184899615 125.269530015
10.15 0.154036881399 38.9622552752 0.569800575258 65.4519290964 0.495129043157 96.3639587582 0.637532099465 -81.6232499926 0.569800575258 65.4519290964 0.15552689059 40.0465568419 0.497602293726 96.663550606 0.635240626086 98.7187816768 0.495129043157 96.3639587582 0.497602293726 96.663550606 0.712205746215 -46.9683072462 0.00148262468606 137.569395884 0.637532099465 -81.6232499926 0.635240626086 98.7187816768 0.00148262468606 137.569395884 0.435912797936 122.706007212
10.175 0.152506240056 36.3983206243 0.570398885256 62.8456578133 0.495653680879 92.3992602954 0.636957133311 -84.2786666972 0.570398885256 62.8456578133 0.154065272603 37.5096813379 0.498157111238 92.6999872011 0.634624691836 96.0662405995 0.495653680879 92.3992602954 0.498157111238 92.6999872011 0.711452566017 -52.348361963 0.00148056843476 133.890317233 0.636957133311 -84.2786666972 0.634624691836 96.0662405995 0.00148056843476 133.890317233 0.437647022549 120.14460003
10.2 0.150951585553 33.8344815162 0.570973406158 60.243461411 0.496212840336 88.4354245681 0.636377094942 -86.9305332169 0.570973406158 60.243461411 0.152578713395 34.9739075096 0.498746904323 88.7372356452 0.634003653924 93.4173465332 0.496212840336 88.4354245681 0.498746904323 88.7372356452 0.710649118655 -57.7305440221 0.00147900052303 130.238196783 0.636377094942 -86.9305332169 0.634003653924 93.4173465332 0.00147900052303 130.238196783 0.439387495267 117.585257188
10.225 0.149371734275 31.2710102167 0.571523482961 57.6454295073 0.496807391357 84.4720649785 0.635791954988 -89.5789119756 0.571523482961 57.6454295073 0.151065893537 32.4395409135 0.499372533321 84.7749076968 0.633377516254 90.7720378111 0.496807391357 84.4720649785 0.499372533321 84.7749076968 0.709793850967 -63.1158150018 0.00147797022225 126.612528177 0.635791954988 -89.5789119756 0.633377516254 90.7720378111 0.00147797022225 126.612528177 0.44113413707 115.027927904
10.25 0.147765504359 28.7082199909 0.572048487224 55.051658707 0.497438140896 80.5087836094 0.635201684482 -92.2238646313 0.572048487224 55.051658707 0.149525494547 29.9069295275 0.500034794634 80.8126038853 0.632746283198 88.1302533785 0.497438140896 80.5087836094 0.500034794634 80.8126038853 0.708885263669 -68.5051725046 0.00147752834685 123.012654399 0.635201684482 -92.2238646313 0.632746283198 88.1302533785 0.00147752834685 123.012654399 0.442886868219 112.472561891
10.275 0.146131715728 26.1464692733 0.572547819673 52.4622529428 0.498105828718 76.545170896 0.634606254896 -94.8654521096 0.572547819673 52.4622529428 0.147956199533 27.376468062 0.500734416379 76.849913188 0.632109959483 85.4919327581 0.498105828718 76.545170896 0.500734416379 76.849913188 0.707921916407 -73.8996516163 0.00147772714884 119.437756773 0.634606254896 -94.8654521096 0.632109959483 85.4919327581 0.00147772714884 119.437756773 0.444645608392 109.919109364
10.3 0.144469190461 23.5861664434 0.57302091328 49.8773238405 0.498811122514 72.5808052823 0.634005638192 -97.5037346371 0.57302091328 49.8773238405 0.146356694235 24.8486028911 0.501472053458 72.8864126932 0.631468550072 82.8570160163 0.498811122514 72.5808052823 0.501472053458 72.8864126932 0.706902433845 -79.3003264791 0.00147862018723 115.886844732 0.634005638192 -97.5037346371 0.631468550072 82.8570160163 0.00147862018723 115.886844732 0.446410276802 107.367521031
10.325 0.142776753544 21.0277752879 0.573467236889 47.2969911097 0.499554612378 68.6152528666 0.633399806855 -100.138771774 0.573467236889 47.2969911097 0.144725668523 22.3238376859 0.502248281991 68.9216672519 0.63082206004 80.2254437309 0.499554612378 68.6152528666 0.502248281991 68.9216672519 0.705825512933 -84.7083119696 0.00148026217134 112.358746724 0.633399806855 -100.138771774 0.63082206004 80.2254437309 0.00148026217135 112.358746724 0.448180792329 104.817748105
10.35 0.141053234089 18.4718212443 0.573886299427 44.721382955 0.500336804581 64.6480670395 0.632788733948 -102.770622449 0.573886299427 44.721382955 0.143061818452 19.8027398467 0.503063593039 64.9552291216 0.630170494449 77.5971569596 0.500336804581 64.6480670395 0.503063593039 64.9552291216 0.704689931483 -90.1247654705 0.00148270877746 108.852102581 0.632788733948 -102.770622449 0.630170494449 77.5971569596 0.00148270877746 108.852102581 0.449957073642 102.269742296
10.375 0.139297467114 15.9188985347 0.574277654782 42.1506365065 0.50115811459 60.6787881185 0.632172393149 -105.399344989 0.574277654782 42.1506365065 0.141363848967 17.2859478418 0.503918385569 60.9866376073 0.629513858217 74.9720972107 0.50115811459 60.6787881185 0.503918385569 60.9866376073 0.703494558197 -95.5508887218 0.0014860164388 105.365357739 0.632172393149 -105.399344989 0.629513858217 74.9720972107 0.0014860164388 105.365357739 0.451739039333 99.7234558187
10.4 0.13750829598 13.3696783197 0.574640907393 39.5848982667 0.502018859274 56.7069429851 0.6315507588 -108.024997158 0.574640907393 39.5848982667 0.139630477371 14.7741795835 0.504812958597 57.0154187041 0.628852155987 72.3502064132 0.502018859274 56.7069429851 0.504812958597 57.0154187041 0.702238364307 -100.987929736 0.00149024210947 101.896759655 0.6315507588 -108.024997158 0.628852155987 72.3502064132 0.00149024210947 101.896759655 0.453526608035 97.1788413902
10.425 0.135684575606 10.8249180188 0.574975718635 37.0243245678 0.502919248213 52.7320447274 0.630923805958 -110.647636188 0.574975718635 37.0243245678 0.137860437693 12.268241988 0.505747502433 53.0410847467 0.62818539199 69.7314268906 0.502919248213 52.7320447274 0.505747502433 53.0410847467 0.700920436998 -106.437184755 0.0014954430037 98.4443567614 0.630923805958 -110.647636188 0.62818539199 69.7314268906 0.0014954430037 98.4443567614 0.455319698547 94.6358522331
10.45 0.13382517662 8.28547197132 0.575281814071 34.4690820362 0.503859374067 48.7535922979 0.630291510436 -113.267318813 0.575281814071 34.4690820362 0.136052486109 9.76904189068 0.506722088973 49.0631340721 0.627513569912 67.1157013337 0.503859374067 48.7535922979 0.506722088973 49.0631340721 0.699539994794 -111.900000234 0.00150167631242 95.0060002527 0.630291510436 -113.267318813 0.627513569912 67.1157013337 0.00150167631242 95.0060002527 0.457118229957 92.0944420763
10.475 0.131928990584 5.75230363893 0.575558991635 31.9193480584 0.504839201922 44.7710701895 0.629653848855 -115.884101309 0.575558991635 31.9193480584 0.134205407599 7.27759851687 0.507736660965 45.0810507022 0.62683669276 64.5029727766 0.504839201922 44.7710701895 0.507736660965 45.0810507022 0.698096405095 -117.377774813 0.00150899889972 91.5793489349 0.629653848855 -115.884101309 0.62683669276 64.5029727766 0.00150899889972 91.5793489349 0.458922121759 89.554565156
10.5 0.129994936521 3.22649958517 0.575807130847 29.3753112397 0.505858557548 40.78394814 0.629010798692 -118.498039524 0.575807130847 29.3753112397 0.132318024056 4.79505773875 0.508791020181 41.0943040539 0.62615476273 61.893184573 0.505858557548 40.78394814 0.508791020181 41.0943040539 0.696589204098 -122.871961264 0.00151746698272 88.1618773047 0.629010798692 -118.498039524 0.62615476273 61.893184573 0.00151746698271 88.1618773047 0.460731293965 87.0161762172
10.525 0.128021968945 0.709285504759 0.576026203123 26.8371718489 0.506917114508 36.7916808723 0.628362338322 -121.10918892 0.576026203123 26.8371718489 0.13038920409 2.32270838549 0.509884814428 37.1023486847 0.625467781078 59.2862803749 0.506917114508 36.7916808723 0.509884814428 37.1023486847 0.695018119289 -128.384068367 0.00152713579847 84.7508869175 0.628362338322 -121.10918892 0.625467781078 59.2862803749 0.00152713579847 84.7508869175 0.462545667215 84.4792305138
10.55 0.126009087692 -1.79795537733 0.576216283293 24.3051422383 0.508014380041 32.7937078793 0.627708447064 -123.717604613 0.576216283293 24.3051422383 0.128417874837 -0.137999082397 0.511017523326 33.1046240837 0.624775747995 56.6822041117 0.508014380041 32.7937078793 0.511017523326 33.1046240837 0.693383094775 -133.915662681 0.00153805926221 81.3435210038 0.627708447064 -123.717604613 0.624775747995 56.6822041117 0.00153805926221 81.3435210038 0.464365162883 81.9436838092
10.575 0.123955349844 -4.29366116475 0.576377562386 21.7794472266 0.50914967966 28.7894532649 0.627049105222 -126.323341408 0.576377562386 21.7794472266 0.126403036095 -2.58543117599 0.512188442789 29.1005545175 0.624078662491 54.0808999722 0.50914967966 28.7894532649 0.512188442789 29.1005545175 0.691684319683 -139.468370166 0.00155028962127 77.9367821828 0.627049105222 -126.323341408 0.624078662491 54.0808999722 0.00155028962127 77.9367821827 0.466189703171 79.4094923763
10.6 0.121859884152 -6.77606697259 0.576510361798 19.2603244326 0.510322140393 24.7783256507 0.626384294116 -128.92645384 0.576510361798 19.2603244326 0.124343777226 -5.01774684315 0.513396668152 25.0895489432 0.623376522284 51.4823123872 0.510322140393 24.7783256507 0.513396668152 25.0895489432 0.689922259878 -145.04387761 0.00156387710922 74.5275530016 0.626384294116 -128.92645384 0.623376522284 51.4823123872 0.00156387710922 74.5275530015 0.468019211202 76.876612997
10.625 0.119721908395 -9.2431769288 0.576615148919 16.7480245402 0.51153067262 20.7597181629 0.625713996114 -131.526996224 0.576615148919 16.7480245402 0.122239297285 -7.4328693182 0.514641075868 21.0710009992 0.622669323706 48.8863860139 0.51153067262 20.7597181629 0.514641075868 21.0710009992 0.688097693273 -150.643933799 0.00157886960434 71.1126189248 0.625713996114 -131.526996224 0.622669323706 48.8863860139 0.00157886960434 71.1126189248 0.469853611105 74.345002961
10.65 0.117540750206 -11.6927319071 0.57669255431 14.2428114794 0.512773950452 16.7330085104 0.625038194646 -134.125022691 0.57669255431 14.2428114794 0.120088928959 -9.82845380766 0.515920303748 17.0442890901 0.621957061614 46.2930657222 0.512773950452 16.7330085104 0.515920303748 17.0442890901 0.686211748968 -156.270350363 0.0015953122963 67.6886932984 0.625038194646 -134.125022691 0.621957061614 46.2930657222 0.0015953122963 67.6886932984 0.471692828084 71.8146200642
10.675 0.11531587201 -14.1221723121 0.576743390503 11.7449624968 0.514050390602 12.6975591721 0.62435687422 -136.720587237 0.576743390503 11.7449624968 0.117892166993 -12.2018503865 0.517232729683 13.008776578 0.62123972932 43.7022965824 0.514050390602 12.6975591721 0.517232729683 13.008776578 0.684265950491 -161.92500223 0.00161324736423 64.2524437344 0.62435687422 -136.720587237 0.62123972932 43.7022965824 0.00161324736423 64.2524437343 0.473536788489 69.2854226066
10.7 0.11304690084 -16.5285951329 0.576768672508 9.25476809344 0.515358129728 8.65271770764 0.623670020416 -139.313743771 0.576768672508 9.25476809344 0.115648701914 -14.5500613968 0.518576448823 8.96381209826 0.620517318542 41.114023854 0.515358129728 8.65271770764 0.518576448823 8.96381209826 0.682262263346 -167.609827597 0.00163271366863 60.8005193103 0.623670020416 -139.313743771 0.620517318542 41.114023854 0.00163271366862 60.8005193102 0.475385419866 66.7573693888
10.725 0.110733663926 -18.9087043717 0.576769640061 6.77253179797 0.516695000234 4.59781720916 0.62297761987 -141.90454616 0.576769640061 6.77253179797 0.113358460009 -16.8696925581 0.519949249211 4.90873001667 0.619789819371 38.5281929771 0.516695000234 4.59781720916 0.519949249211 4.90873001667 0.680203147106 -173.326827322 0.00165374645859 57.3295779493 0.62297761987 -141.90454616 0.619789819371 38.5281929771 0.00165374645859 57.3295779492 0.477238651002 64.2304197085
10.75 0.10837623116 -21.258753834 0.576747781668 4.29856974187 0.518058504529 0.532176915437 0.622279660238 -144.493048287 0.576747781668 4.29856974187 0.111021650698 -19.1568969202 0.521348585868 0.842851047756 0.619057220265 35.9447495635 0.518058504529 0.532176915437 0.521348585868 0.842851047757 0.678091612183 -179.078063622 0.0016763770949 53.8363133506 0.622279660238 -144.493048287 0.619057220265 35.9447495635 0.00167637709489 53.8363133506 0.479096411953 61.7045333556
10.775 0.105974965748 -23.5744811547 0.576704860443 1.8332099987 0.519445787793 -3.54489699289 0.621576130148 -147.079304093 0.576704860443 1.8332099987 0.108638822668 -21.4073107279 0.522771553368 -3.23451694515 0.618319508066 33.3636393908 0.519445787793 -3.54489699289 0.522771553368 -3.23451694515 0.675931281393 175.13434205 0.00170063278844 50.3174808731 0.621576130148 -147.079304093 0.618319508066 33.3636393908 0.00170063278844 50.317480873 0.480958634065 59.1796706065
10.8 0.103530584612 -25.8510318355 0.576642941704 -0.623208356384 0.520853609291 -7.63411039364 0.620867019122 -149.663367639 0.576642941704 -0.623208356384 0.106210930383 -23.6159802442 0.524214856968 -7.3240779458 0.617576668055 30.784808396 0.520853609291 -7.63411039364 0.524214856968 -7.3240779458 0.673726456339 169.308212089 0.00172653635266 46.7699218333 0.620867019122 -149.663367639 0.617576668055 30.784808396 0.00172653635266 46.7699218333 0.48282524997 56.6557922172
10.825 0.101044230448 -28.0828720148 0.576564422264 -3.07033651469 0.522278312365 -11.7361799953 0.620152317482 -152.245293156 0.576564422264 -3.07033651469 0.103739412888 -25.777278617 0.5256747824 -11.4265465528 0.616828684033 28.2082026712 0.522278312365 -11.7361799953 0.5256747824 -11.4265465528 0.671482188511 163.441316961 0.00175410596762 43.1905857621 0.620152317482 -152.245293156 0.616828684033 28.2082026712 0.00175410596762 43.190585762 0.484696193579 54.1328594156
10.85 0.098517557682 -30.2636887112 0.576472061277 -5.50781758271 0.523715793225 -15.8518318557 0.619432016226 -154.8251351 0.576472061277 -5.50781758271 0.10122628718 -27.8848120335 0.52714716447 -15.5426464943 0.616075538446 25.6337684592 0.523715793225 -15.8518318557 0.52714716447 -15.5426464943 0.669204354877 157.531380734 0.00178335495285 39.5765502589 0.619432016226 -154.8251351 0.616075538446 25.6337684592 0.00178335495285 39.5765502589 0.486571400044 51.6108338925
10.875 0.0959528350383 -32.3862764548 0.576369012427 -7.93528866901 0.525161468763 -19.9817996215 0.618706106879 -157.402948213 0.576369012427 -7.93528866901 0.098674258799 -29.9313147449 0.528627354671 -19.6731088627 0.615317212548 23.0614521493 0.525161468763 -19.9817996215 0.528627354671 -19.6731088627 0.666899737567 151.576088138 0.00181429154551 35.9250381934 0.618706106879 -157.402948213 0.615317212548 23.0614521493 0.00181429154551 35.9250381934 0.48845080571 49.089677791
10.9 0.09335306792 -34.4424096272 0.576258857188 -10.352383471 0.52661024364 -24.1268224592 0.617974581307 -159.978787576 0.576258857188 -10.352383471 0.0960868527347 -31.9085331898 0.53011018808 -23.8186700424 0.614553686615 20.4912002736 0.52661024364 -24.1268224592 0.53011018808 -23.8186700424 0.664576107009 145.573093369 0.00184691868031 32.2334321095 0.617974581307 -159.978787576 0.614553686615 20.4912002736 0.00184691868032 32.2334321096 0.49033434805 46.569353695
10.925 0.0907221443486 -36.4227006507 0.576145638741 -12.758735426 0.528056476991 -28.287642652 0.617237431506 -162.552708671 0.576145638741 -12.758735426 0.0934685681699 -33.8071005466 0.531589949873 -27.9800693022 0.613784940204 17.9229595021 0.528056476991 -28.287642652 0.531589949873 -27.9800693022 0.66224230762 139.520030899 0.0018812337675 28.499285798 0.617237431506 -162.552708671 0.613784940204 17.9229595021 0.0018812337675 28.4992857981 0.492221965565 44.049824616
10.95 0.0880650087907 -38.316445614 0.576033896044 -15.1539814943 0.529493949157 -32.4650028309 0.616494649352 -165.124767438 0.576033896044 -15.1539814943 0.0908250609628 -35.6164048657 0.533060341893 -32.1580460227 0.613010952475 15.3566766371 0.529493949157 -32.4650028309 0.533060341893 -32.1580460227 0.659908344836 133.414528546 0.00191722846547 24.7203330936 0.616494649352 -165.124767438 0.613010952475 15.3566766371 0.00191722846547 24.7203330937 0.494113597679 41.5310539788
10.975 0.0853878687103 -40.1114613718 0.57592869741 -17.5377666375 0.530915828976 -36.6596428155 0.615746226311 -167.695020332 0.57592869741 -17.5377666375 0.0881633580235 -37.3244567992 0.534514449773 -36.3533365334 0.612231702565 12.7922986057 0.530915828976 -36.6596428155 0.534514449773 -36.3533365334 0.657585471858 127.254223097 0.00195488844527 20.8944940405 0.615746226311 -167.695020332 0.612231702565 12.7922986057 0.00195488844528 20.8944940408 0.496009184593 39.0130056047
11 0.0826984390207 -41.7939221152 0.57583567277 -19.9097490593 0.532314642228 -40.8722960336 0.614992153117 -170.263524383 0.57583567277 -19.9097490593 0.0854921076558 -38.9177673627 0.535944711254 -40.5666705285 0.611447170034 10.2297724498 0.532314642228 -40.8722960336 0.535944711254 -40.5666705285 0.655286274064 121.036778764 0.00199419314458 17.0198786326 0.614992153117 -170.263524383 0.611447170035 10.2297724498 0.00199419314459 17.0198786329 0.497908667122 36.4956436941
11.025 0.0800062295235 -43.3482096088 0.575761043651 -22.2696062607 0.533682241979 -45.103685498 0.614232419403 -172.830337254 0.575761043651 -22.2696062607 0.0828218692608 -40.3812527473 0.53734288643 -44.79876704 0.610657335381 7.66904531295 0.533682241979 -45.103685498 0.53734288643 -44.79876704 0.653024748511 114.759908771 0.00203511550973 13.0947883816 0.614232419403 -172.830337254 0.610657335381 7.66904531295 0.00203511550973 13.094788382 0.499811986505 33.978932807
11.05 0.0773228795019 -44.7568007079 0.575711649713 -24.6170419593 0.535009781671 -49.3545193154 0.613467013291 -175.395517296 0.575711649713 -24.6170419593 0.0801654440642 -41.6981927269 0.538700030767 -49.0503299434 0.609862180629 5.11006442296 0.535009781671 -49.3545193154 0.538700030767 -49.0503299434 0.650816375372 108.421400334 0.0020776217252 9.1177159992 0.613467013291 -175.395517296 0.609862180629 5.11006442296 0.00207762172521 9.11771599959 0.501719084175 31.462837841
11.075 0.0746625412406 -46.0002295709 0.575694970458 -26.9517938978 0.536287691939 -53.6254857111 0.612695920939 -177.959123602 0.575694970458 -26.9517938978 0.0775382450556 -42.8502824769 0.540006471912 -53.3220429783 0.609061690004 2.55277706869 0.536287691939 -53.6254857111 0.540006471912 -53.3220429783 0.648678177535 102.019143286 0.00212167093094 5.08734348838 0.612695920939 -177.959123602 0.609061690004 2.55277706869 0.00212167093094 5.08734348877 0.50362990151 28.9473240086
11.1 0.0720423093547 -47.0571813818 0.575719140589 -29.2736425517 0.537505662273 -57.9172475576 0.611919126041 179.478783936 0.575719140589 -29.2736425517 0.0749586981133 -43.8178351413 0.541251791389 -57.6145642738 0.608255850688 -0.00286942951106 0.537505662273 -57.9172475576 0.541251791389 -57.6145642738 0.646628763912 95.5511625182 0.00216721492855 1.00253894077 0.61191912604 179.478783936 0.608255850688 -0.00286942950971 0.00216721492856 1.00253894114 0.505544379539 26.4323568116
11.125 0.0694826839521 -47.9048000554 0.575792957253 -31.5824207098 0.538652628758 -62.2304364012 0.611136609282 176.91814458 0.575792957253 -31.5824207098 0.0724486560201 -44.5802138801 0.542424812458 -61.9285203713 0.607444653673 -2.55692775772 0.538652628758 -62.2304364012 0.542424812458 -61.9285203713 0.644688351338 89.0156543548 0.00221419787852 -3.13764767782 0.611136609282 176.91814458 0.607444653673 -2.55692775772 0.00221419787852 -3.1376476775 0.507462458616 23.9179020139
11.15 0.0670080409148 -48.519323261 0.575925877264 -33.8780238675 0.539716769284 -66.5656459932 0.610348347746 174.358896697 0.575925877264 -33.8780238675 0.0700337912326 -45.1165948186 0.543513595501 -66.264499752 0.606628094706 -5.10945065634 0.539716769284 -66.5656459932 0.543513595501 -66.264499752 0.642878759257 82.4110268305 0.00226255599096 -7.33398949098 0.610348347746 174.358896697 0.606628094706 -5.10945065634 0.00226255599097 -7.33398949076 0.509384078055 21.4039256123
11.175 0.0646470597889 -48.8771891384 0.576128002278 -36.160421325 0.540685507676 -70.9234253409 0.609554314274 171.800977712 0.576128002278 -36.160421325 0.067743910541 -45.4071796525 0.544505442449 -70.6230458836 0.605806175345 -7.66049097982 0.540685507676 -70.9234253409 0.544505442449 -70.6230458836 0.641223370839 75.735943712 0.00231221721312 -11.5870881878 0.609554314274 171.800977712 0.605806175345 -7.66049097982 0.00231221721312 -11.5870881877 0.511309175723 18.8903938046
11.2 0.0624330274289 -48.9567777367 0.576410049795 -38.4296678286 0.541545528354 -75.3042713085 0.608754476777 169.244324072 0.576410049795 -38.4296678286 0.0656131051088 -45.4349752736 0.545386911813 -75.0046498178 0.604978904114 -10.2101017706 0.541545528354 -75.3042713085 0.545386911813 -75.0046498178 0.63974705369 68.9893718952 0.00236310091693 -15.8973798014 0.608754476777 169.244324072 0.604978904114 -10.2101017706 0.00236310091692 -15.8973798015 0.513237687591 16.3772729565
11.225 0.0604038946354 -48.7409322121 0.576783307901 -40.6859155332 0.542282803122 -79.7086208154 0.607948797495 166.688871206 0.576783307901 -40.6859155332 0.0636796159009 -45.1882157106 0.546143845983 -79.409742383 0.604146297776 -12.7583363496 0.542282803122 -79.7086208154 0.546143845983 -79.409742383 0.638476033101 62.1706315817 0.00241511759031 -20.2651406059 0.607948797495 166.688871206 0.604146297776 -12.7583363496 0.00241511759029 -20.2651406062 0.515169547231 13.8645295653
11.25 0.0586019204617 -48.2203123402 0.577259571745 -42.929425994 0.542882631752 -84.1368426948 0.607137232221 164.134553497 0.577259571745 -42.929425994 0.0619852661398 -44.663390265 0.546761412438 -83.8386860389 0.603308382721 -15.3052484265 0.542882631752 -84.1368426948 0.546761412438 -83.8386860389 0.637437710838 55.2794483599 0.00246816853543 -24.6904929684 0.607137232221 164.134553497 0.603308382721 -15.3052484265 0.0024681685354 -24.6904929691 0.517104685271 11.3521302218
11.275 0.0570727117062 -47.3974222514 0.57785105999 -45.1605818314 0.543329697969 -88.589229298 0.606319729463 161.581304254 0.57785105999 -45.1605818314 0.0605743065037 -43.8686369342 0.547224160496 -88.2917664746 0.602465196472 -17.8508922328 0.543329697969 -88.589229298 0.547224160496 -88.2917664746 0.636660422969 48.3160060212 0.00252214557735 -29.17341101 0.606319729463 161.581304254 0.602465196471 -17.8508922328 0.00252214557731 -29.1734110109 0.519043028792 8.84004157027
11.3 0.0558634830854 -46.2908040688 0.57857030987 -47.3798976389 0.543608142318 -93.0659879519 0.605496229568 159.029055692 0.57857030987 -47.3798976389 0.0594915602872 -42.8269689652 0.547516095101 -92.7691840598 0.601616789311 -20.3953226815 0.543608142318 -93.0659879519 0.547516095101 -92.7691840598 0.6361731312 41.2809986206 0.00257693078589 -33.7137259363 0.605496229568 159.029055692 0.601616789311 -20.3953226815 0.00257693078584 -33.7137259376 0.520984500672 6.32823026539
11.325 0.0550204633701 -44.9384535462 0.579430050007 -49.5880296489 0.543701653247 -97.5672323991 0.604666663805 156.477738925 0.579430050007 -49.5880296489 0.0587798687244 -41.5784995478 0.547620768975 -97.2710452782 0.600763226035 -22.9385955582 0.543701653247 -97.5672323991 0.547620768975 -97.2710452782 0.636005043787 34.1756799889 0.00263239621355 -38.3111309039 0.604666663805 156.477738925 0.600763226035 -22.9385955582 0.00263239621348 -38.3111309054 0.522929018867 3.81666292774
11.35 0.0545855765686 -43.399177509 0.580443050884 -51.7857836169 0.543593577407 -102.092974376 0.603830953394 153.927283953 0.580443050885 -51.7857836169 0.0584770245372 -40.1806783027 0.547521394146 -101.797354296 0.599904587822 -25.4807677472 0.543593577407 -102.092974376 0.547521394146 -101.797354296 0.636185164374 27.0019086307 0.00268840365229 -42.9651852787 0.603830953394 153.927283953 0.599904587822 -25.4807677472 0.00268840365221 -42.9651852805 0.524876495628 1.30530609657
11.375 0.0545928069109 -41.7506742242 0.581621953742 -53.9741203622 0.543267049817 -106.643115505 0.602989008506 151.377619673 0.581621953742 -53.9741203622 0.05861260316 -38.7057569875 0.547200973504 -106.348004848 0.59904097422 -28.0218975004 0.543267049817 -106.643115505 0.547200973504 -106.348004848 0.63674177007 19.7621857477 0.00274480441239 -47.6753181349 0.602989008506 151.377619673 0.59904097422 -28.0218975004 0.00274480441229 -47.6753181369 0.526826836654 -1.20587381942
11.4 0.0550649079128 -40.0838185663 0.582979079701 -56.1541583991 0.542705144034 -111.217439705 0.602140727217 148.828673886 0.582979079701 -56.1541583991 0.0592052636015 -37.2353609938 0.546642452516 -110.922772631 0.59817250525 -30.5620447532 0.542705144034 -111.217439705 0.546642452516 -110.922772631 0.63770182374 12.4596840362 0.00280143912746 -52.440830826 0.602140727217 148.828673886 0.59817250525 -30.5620447532 0.00280143912735 -52.440830828 0.528779940172 -3.71691059339
11.425 0.0560111877064 -38.493878337 0.58452622209 -58.3271731273 0.541891041875 -115.815606339 0.601285994431 146.280373318 0.58452622209 -58.3271731273 0.0602610879476 -35.852989378 0.545828890624 -115.521308444 0.597299323598 -33.1012714955 0.541891041875 -115.815606339 0.545828890624 -115.521308444 0.639090329721 5.09826496978 0.00285813759172 -57.2608984409 0.601285994431 146.280373318 0.597299323598 -33.1012714956 0.0028581375916 -57.2608984428 0.53073569594 -6.2278382337
11.45 0.0574268946042 -37.0706159385 0.586274426139 -60.4945921246 0.540808221515 -120.437144324 0.600424680768 143.732643655 0.586274426139 -60.4945921246 0.0617733138176 -34.6360581189 0.54474365117 -120.143132283 0.596421596904 -35.6396422074 0.540808221515 -120.437144324 0.54474365117 -120.143132283 0.64092964678 -2.3175174902 0.0029147186379 -62.1345699464 0.600424680768 143.732643655 0.596421596904 -35.6396422074 0.0029147186378 -62.134569948 0.532693984172 -8.73869103912
11.475 0.059294291176 -35.8897148962 0.588233761416 -62.6579862002 0.539440662022 -125.081447469 0.599556641424 141.185409584 0.588233761416 -62.6579862002 0.0637234567234 -33.6492869873 0.543370607842 -124.78762866 0.595539520107 -38.1772243661 0.539440662022 -125.081447469 0.543370607842 -124.78762866 0.643238776853 -9.78242838649 0.00297099006834 -67.0607668013 0.599556641424 141.185409584 0.595539520107 -38.1772243661 0.00297099006827 -67.0607668022 0.534654674377 -11.2495036558
11.5 0.0615850426719 -35.007396852 0.590413093454 -64.8190560251 0.537773061532 -129.747771267 0.59868171501 138.638594842 0.590413093454 -64.8190560251 0.0660834758653 -32.9406961907 0.541694364839 -129.454043376 0.594653317822 -40.7140890386 0.537773061532 -129.747771267 0.541694364839 -129.454043376 0.646032652568 -17.2905794768 0.00302674865644 -72.0382798319 0.59868171501 138.638594842 0.594653317822 -40.7140890386 0.00302674865644 -72.0382798319 0.536617624113 -13.7603111356
