! Generated from PyAEDT SolutionData; AEDT ExportNetworkData workaround
# GHz S MA R 50
9 0.217983812787 157.770366119 0.533600364732 -171.108825243 0.48440847402 -73.7257453487 0.658104960032 45.9491915315 0.533600364732 -171.108825243 0.217647522798 157.63360947 0.484067013807 -73.6415313613 0.658467412042 -134.024330359 0.48440847402 -73.7257453487 0.484067013807 -73.6415313613 0.728716311981 -147.353815859 0.000305114950803 -117.178922372 0.658104960032 45.9491915315 0.658467412042 -134.024330359 0.000305114950801 -117.178922372 0.365127971764 -114.961069292
9.025 0.21617143883 155.092470881 0.534224369718 -173.913286034 0.485072818257 -77.9780427645 0.657708326502 43.0410944511 0.534224369718 -173.913286034 0.21583970188 154.950252617 0.484726724228 -77.8920821182 0.658072137805 -136.932583945 0.485072818256 -77.9780427645 0.484726724227 -77.8920821183 0.727833524841 -153.144584449 0.000314614885433 -122.030110956 0.657708326502 43.0410944511 0.658072137805 -136.932583945 0.000314614885817 -122.030110935 0.366552309257 -117.680832054
9.05 0.214381394858 152.426232291 0.534864347665 -176.710144569 0.485704684832 -82.2233917768 0.657308277549 40.1409795865 0.534864347665 -176.710144569 0.21405515758 152.278586597 0.485354091012 -82.1356605899 0.657673165692 -139.83285915 0.48570468483 -82.2233917768 0.485354091011 -82.13566059 0.726992410265 -158.930734157 0.000324182273084 -126.908351977 0.65730827755 40.1409795865 0.657673165692 -139.83285915 0.000324182273716 -126.908351945 0.36798306908 -120.395619764
9.075 0.212614133074 149.771207186 0.535520512389 -179.499657941 0.486304242025 -86.4617100064 0.656904801541 37.2486965491 0.535520512389 -179.499657941 0.212294345087 149.618180778 0.485949290351 -86.3721851227 0.657270455256 -142.725304844 0.486304242023 -86.4617100064 0.485949290349 -86.3721851228 0.726192928426 -164.711401131 0.000333810717347 -131.811541977 0.656904801541 37.2486965491 0.657270455257 -142.725304844 0.000333810718116 -131.811541941 0.369420223291 -123.105528085
9.1 0.210869979599 147.126954442 0.536192958087 177.717920947 0.486871769031 -90.6929203273 0.656497884485 34.3640983301 0.536192958088 177.717920947 0.210557594585 146.968606645 0.486512609037 -90.6015793644 0.65686396963 -145.610066548 0.486871769028 -90.6929203273 0.486512609036 -90.6015793646 0.725434881812 -170.485801458 0.000343493994012 -136.737667499 0.656497884485 34.3640983301 0.65686396963 -145.610066548 0.000343493994828 -136.737667465 0.370863746517 -125.810650743
9.125 0.209149146406 144.493034666 0.536881665687 174.942344151 0.487407655392 -94.9169509317 0.656087510274 31.4870412236 0.536881665687 174.942344151 0.208845122956 144.329437389 0.487044443866 -94.8237723276 0.656453674829 -148.487286499 0.487407655389 -94.9169509317 0.487044443864 -94.8237723277 0.724717916743 -176.253224863 0.000353226084673 -141.684806103 0.656087510274 31.4870412235 0.656453674829 -148.487286499 0.000353226085469 -141.684806073 0.372313615827 -128.511079572
9.15 0.207451741265 141.869009726 0.537586509144 172.173369374 0.487912399905 -99.1337354649 0.655673660897 28.6173847477 0.537586509145 172.173369374 0.207157043469 141.700247354 0.487545300501 -99.0386985219 0.656039539156 -151.357103717 0.487912399903 -99.1337354649 0.4875453005 -99.038698522 0.724041525256 177.986971318 0.000363001206154 -146.651127016 0.655673660897 28.6173847477 0.656039539157 -151.357103717 0.000363001206881 -146.651126991 0.37376981061 -131.206904559
9.175 0.205777775817 139.254442221 0.538307261693 169.410760582 0.488386609007 -103.343213221 0.655256316619 25.7549915641 0.538307261694 169.410760582 0.205493373588 139.080611443 0.488015791831 -103.246298148 0.655621532696 -154.219654083 0.488386609005 -103.343213221 0.48801579183 -103.246298148 0.723405047386 172.235367812 0.000372813835619 -151.634891368 0.655256316619 25.7549915641 0.655621532697 -154.219654083 0.000372813836245 -151.634891348 0.375232312452 -133.898213886
9.2 0.204127171919 136.648894963 0.539043601998 166.654288551 0.488830994653 -107.54532939 0.654835456138 22.8997273958 0.539043601998 166.654288551 0.203854041061 136.470104532 0.488456635816 -107.446517345 0.655199626882 -157.075070413 0.488830994651 -107.54532939 0.488456635815 -107.446517345 0.72280767384 166.492488646 0.000382658731373 -156.634451964 0.654835456139 22.8997273958 0.655199626882 -157.075070413 0.000382658731879 -156.63445195 0.376701105026 -136.585093981
9.225 0.202499766486 134.051930535 0.539795120207 163.903731347 0.489246371716 -111.740035352 0.654411056718 20.0514609454 0.539795120207 163.903731347 0.202238888505 133.868300997 0.488868652861 -111.639308477 0.654773794137 -159.923482532 0.489246371715 -111.740035352 0.488868652861 -111.639308477 0.722248449106 160.758805902 0.000392530949475 -161.648252589 0.654411056718 20.0514609454 0.654773794137 -159.923482532 0.000392530949854 -161.648252579 0.378176173976 -139.267629565
9.25 0.200895315035 131.463111 0.54056132389 161.158874743 0.489633654932 -115.927289 0.653983094296 17.2100638122 0.540561323891 161.158874743 0.200647676739 131.274774389 0.489252762737 -115.824630461 0.65434400758 -162.765017354 0.489633654931 -115.927289 0.489252762736 -115.824630461 0.721726275001 155.034743952 0.000402425856377 -166.674826829 0.653983094296 17.2100638122 0.65434400758 -162.765017354 0.000402425856632 -166.674826823 0.379657506805 -141.945903699
9.275 0.199313494229 128.881997796 0.541341643846 158.419512578 0.489993855403 -120.107055098 0.653551543578 14.3754104109 0.541341643846 158.419512578 0.199080087117 128.689097304 0.489609981064 -120.002449115 0.653910240782 -165.59979896 0.489993855402 -120.107055098 0.489609981064 -120.002449115 0.721239914703 149.320683156 0.000412339137894 -171.712796457 0.653551543578 14.3754104109 0.653910240782 -165.59979896 0.000412339138035 -171.712796455 0.381145092771 -144.619997832
9.3 0.197753903638 126.30815186 0.542135439768 155.685447056 0.490328076724 -124.27930565 0.653116378114 11.5473778896 0.542135439768 155.685447056 0.197535723122 126.110841499 0.489941415421 -124.172737532 0.653472467576 -168.42794868 0.490328076724 -124.27930565 0.489941415421 -124.172737532 0.720787997256 143.616963025 0.000422266804862 -176.76086939 0.653116378114 11.5473778896 0.653472467576 -168.42794868 0.000422266804901 -176.760869389 0.382638922781 -147.289991852
9.325 0.196216067009 123.741133992 0.54294200577 152.956489006 0.490637510737 -128.444020284 0.652677570356 8.72584605041 0.54294200577 152.956489006 0.196014111497 123.539578246 0.490248261081 -128.335476458 0.653030661905 -171.249585164 0.490637510737 -128.444020284 0.490248261081 -128.335476458 0.720369022589 137.923884854 0.000432205195876 178.182162729 0.652677570356 8.72584605041 0.653030661905 -171.249585164 0.000432205195833 178.182162729 0.384138989289 -149.955964131
9.35 0.194699433271 121.180505467 0.54376057575 150.232458076 0.490923432965 -132.601186648 0.652235091713 5.91069726969 0.54376057575 150.232458076 0.194514703123 120.974878938 0.490531796435 -132.490654686 0.652584797708 -174.064824469 0.490923432965 -132.601186648 0.490531796435 -132.490654686 0.719981367021 132.241713857 0.000442150977546 173.117427269 0.652235091713 5.9106972697 0.652584797708 -174.064824469 0.000442150977438 173.117427268 0.385645286194 -152.617991576
9.375 0.193203377482 118.625828888 0.544590328604 147.513182896 0.491187197767 -136.750800792 0.651788912584 3.10181642125 0.544590328604 147.513182896 0.193036873868 118.416315939 0.490793378141 -136.638269436 0.652134848844 -176.87378013 0.491187197768 -136.750800792 0.490793378141 -136.638269436 0.719623289255 126.570680827 0.000452101142665 168.045973619 0.651788912584 3.10181642125 0.652134848844 -176.87378013 0.000452101142511 168.045973618 0.387157808744 -155.276149674
9.4 0.191727201908 116.076669251 0.545430393267 144.798501191 0.491430233254 -140.892867557 0.65133900239 0.299090800309 0.545430393267 144.798501191 0.191579925589 115.863463645 0.491034436027 -140.778326743 0.65168078903 -179.676563237 0.491430233254 -140.892867557 0.491034436027 -140.778326743 0.719292936848 120.910983363 0.000462053006721 162.96877641 0.651339002389 0.299090800312 0.65168078903 -179.676563237 0.000462053006538 162.968776409 0.38867655344 -157.930512538
9.425 0.190270137367 113.5325952 0.546279853596 142.088259863 0.491654035997 -145.027400946 0.650885329596 -2.49758995031 0.546279853596 142.088259863 0.190143087392 113.315899734 0.4912564678 -144.910841824 0.651222591813 177.526717488 0.491654035997 -145.027400946 0.4912564678 -144.910841824 0.718988353096 115.262786721 0.000472004203114 157.886738888 0.650885329596 -2.49758995031 0.651222591813 177.526717488 0.00047200420292 157.886738888 0.39020151794 -160.581152957
9.45 0.188831344936 110.993180427 0.547137753081 139.382315023 0.491860165585 -149.154424482 0.65042786173 -5.28833391217 0.547137753081 139.382315023 0.188725517275 110.773206561 0.491461033598 -149.035839433 0.650760230553 174.735955616 0.491860165586 -149.154424482 0.491461033599 -149.035839433 0.718707484324 109.626224309 0.000481952677442 152.800696384 0.65042786173 -5.28833391217 0.650760230553 174.735955616 0.00048195267725 152.800696384 0.391732700969 -163.228142435
9.475 0.187409918081 108.458005186 0.548003099375 136.680532011 0.492050239065 -153.273971548 0.649966565389 -8.07324696117 0.548003099375 136.680532011 0.187326304195 108.234972663 0.491649750433 -153.153354202 0.650293678428 171.951046945 0.492050239066 -153.273971548 0.491649750433 -153.153354202 0.7184481875 104.001397907 0.000491896681126 147.711419825 0.649966565389 -8.07324696116 0.650293678428 171.951046945 0.000491896680948 147.711419825 0.393270102226 -165.87155124
9.5 0.186004885241 105.926657872 0.548874868664 133.982785363 0.4922259253 -157.386085706 0.64950140625 -10.8524328354 0.548874868664 133.982785363 0.185944470574 105.700794328 0.491824286547 -157.263430953 0.649822908445 169.171889424 0.4922259253 -157.386085706 0.491824286547 -157.263430953 0.718208238122 98.3883776423 0.000501834764664 142.619619244 0.64950140625 -10.8524328354 0.649822908445 169.171889424 0.00050183476451 142.619619245 0.394813722299 -168.511448443
9.525 0.184615212838 103.398736627 0.549752009849 131.288958773 0.492388939287 -161.490820991 0.649032349079 -13.6259932008 0.549752009849 131.288958773 0.184578975246 103.170277194 0.491986355742 -161.366124995 0.649347893461 166.398383084 0.492388939288 -161.490820991 0.491986355742 -161.366124995 0.717985338314 92.7872017734 0.000511765770685 137.525947239 0.649032349079 -13.6259932008 0.649347893461 166.398383084 0.00051176577056 137.525947239 0.396363562574 -171.147901965
9.55 0.183239808701 100.873850933 0.550633448553 128.59894501 0.49254103648 -165.588242185 0.648559357728 -16.394027715 0.550633448553 128.59894501 0.1832287168 100.643037832 0.492137711698 -165.46150239 0.648868606216 163.630429976 0.492541036481 -165.588242185 0.492137711699 -165.46150239 0.717777125041 87.1978763304 0.000521688826977 132.431002339 0.648559357728 -16.394027715 0.648868606216 163.630429976 0.000521688826884 132.431002339 0.397919625153 -173.780978609
9.575 0.181877525829 98.3516231742 0.551518090952 125.912645833 0.492684007131 -169.678425057 0.648082395143 -19.1566340887 0.551518090952 125.912645833 0.181892537263 98.118705293 0.492280142331 -169.549640196 0.648385019362 160.8679341 0.492684007131 -169.678425057 0.492280142331 -169.549640196 0.717581178391 81.6203746549 0.000531603339589 127.335332259 0.648082395143 -19.1566340887 0.648385019362 160.8679341 0.000531603339528 127.33533226 0.399481912772 -176.41074411
9.6 0.180527166437 95.831690113 0.552404827422 123.229971869 0.492819670694 -173.761456587 0.647601423368 -21.9139081449 0.552404827422 123.229971869 0.180569226068 95.5969225839 0.492415464199 -173.630626685 0.647897105505 158.110801344 0.492819670694 -173.761456587 0.492415464199 -173.630626685 0.717395029823 76.0546368773 0.000541508986082 122.239437009 0.647601423367 -21.9139081449 0.647897105505 158.110801344 0.000541508986054 122.239437009 0.401050428714 -179.037263165
9.625 0.179187486198 93.3137042931 0.55329253601 120.550842489 0.492949870325 -177.837435154 0.647116403542 -24.6659438769 0.55329253601 120.550842489 0.17925752421 93.0773480567 0.492545517014 -177.704561531 0.647404837238 155.358939421 0.492949870325 -177.837435154 0.492545517014 -177.704561531 0.71721617032 70.5005693664 0.000551405708961 117.143771829 0.647116403542 -24.6659438769 0.647404837238 155.358939421 0.000551405708961 117.143771829 0.402625176733 178.339400529
9.65 0.177857198614 90.7973353307 0.554180085719 117.875185663 0.493076467474 178.093529293 0.64662729591 -27.4128335027 0.554180085719 117.875185663 0.177956128538 90.5596566964 0.492672158245 178.228444025 0.646908187187 152.612257809 0.493076467474 178.093529293 0.492672158245 178.228444025 0.717042058382 64.9580441812 0.000561293709277 112.048749961 0.64662729591 -27.4128335027 0.646908187187 152.612257809 0.000561293709302 112.04874996 0.404206160977 175.719184234
9.675 0.176534979425 88.2822710989 0.555066339621 115.202937808 0.493201336627 174.031315098 0.646134059827 -30.1546675194 0.555066339621 115.202937808 0.176663696092 88.0435413008 0.492797257869 174.168267033 0.646407128038 149.870667695 0.493201336627 174.031315098 0.492797257869 174.168267033 0.716870127777 59.4268985497 0.000571173440401 106.954745218 0.646134059827 -30.1546675194 0.646407128038 149.870667695 0.000571173440446 106.954745217 0.405793385907 173.102026141
9.7 0.175219471005 85.7682187989 0.555950157791 112.534043619 0.493326360183 169.975788774 0.645636653765 -32.8915347538 0.555950157791 112.534043619 0.175378848417 85.5287135491 0.492922693263 170.114772724 0.645901632583 147.134081913 0.493326360183 169.975788774 0.492922693263 170.114772724 0.71669779501 53.9069343928 0.000581045601912 101.862094374 0.645636653765 -32.8915347538 0.645901632583 147.134081913 0.000581045601971 101.862094373 0.407386856227 170.487865338
9.725 0.173909286654 83.2549059227 0.556830400059 109.868455908 0.493453423494 165.926804913 0.645135035321 -35.623522413 0.556830400059 109.868455908 0.174100175802 83.0149049637 0.493050344256 166.067814409 0.645391673747 144.402414893 0.493453423494 165.926804913 0.493050344256 166.067814409 0.716522466444 48.3979179097 0.000590911133553 96.7710993583 0.645135035321 -35.623522413 0.645391673747 144.402414893 0.000590911133621 96.7710993573 0.40898657681 167.876641774
9.75 0.172603014753 80.7420811144 0.557705928598 107.206135429 0.493584410077 161.884206106 0.644629161231 -38.3507161317 0.557705928598 107.206135429 0.172826241377 80.5018677717 0.49318208835 162.02723341 0.644877224619 141.675582607 0.493584410077 161.884206106 0.49318208835 162.02723341 0.716341545054 42.8995792319 0.00060077120921 91.6820292617 0.644629161231 -38.3507161317 0.644877224619 141.675582607 0.000600771209281 91.6820292606 0.410592552622 165.26829623
9.775 0.171299222733 78.2295149416 0.558575610346 104.547050703 0.493721196999 157.847822888 0.644118987386 -41.0732000187 0.558575610346 104.547050703 0.171555585043 77.9893756768 0.493319796123 157.992859006 0.644358258483 138.953502513 0.493721196999 157.847822888 0.493319796123 157.992859006 0.716152436766 37.4116121529 0.000610627230843 86.5951221653 0.644118987386 -41.0732000187 0.644358258483 138.953502513 0.000610627230913 86.5951221642 0.412204788663 162.662770289
9.8 0.169996460818 75.7170005909 0.559438319253 101.891177848 0.493865650435 153.817473698 0.643604468844 -43.7910567018 0.559438319253 101.891177848 0.170286727181 75.4772245568 0.493465326797 153.964508391 0.643834748835 136.236093511 0.493865650435 153.817473698 0.493465326797 153.964508391 0.715952556369 31.933673933 0.000620480822324 81.5105867965 0.643604468844 -43.7910567018 0.643834748835 136.236093511 0.000620480822389 81.5105867954 0.413823289888 160.060006309
9.825 0.16869326552 73.2043545043 0.560292938387 99.2385004124 0.49401962141 149.79296485 0.643085559855 -46.504367371 0.560292938387 99.2385004124 0.169018172131 72.9652331004 0.493620523994 149.941986651 0.643306669409 133.523275886 0.49401962141 149.79296485 0.493620523994 149.941986651 0.715739332993 26.4653851769 0.000630333823133 76.4286040253 0.643085559855 -46.504367371 0.643306669409 133.523275886 0.000630333823189 76.4286040243 0.415448061151 157.459947394
9.85 0.167388162877 70.691416974 0.561138361887 96.5890092104 0.494184941699 145.77409052 0.642562213876 -49.2132118202 0.561138361887 96.5890092104 0.167748411426 70.4532434029 0.493787211649 145.925086753 0.642773994191 130.814971267 0.494184941699 145.77409052 0.493787211649 145.925086753 0.715510215161 21.0063297785 0.000640188281869 71.349328212 0.642562213876 -49.2132118202 0.642773994191 130.814971267 0.000640188281914 71.3493282112 0.417079107133 154.862537368
9.875 0.166079671416 68.1780527158 0.561973496774 93.9427021702 0.494363419895 141.760632738 0.642034383603 -51.917668488 0.561973496774 93.9427021702 0.166475926762 67.9411215396 0.493967190092 141.913589539 0.642236697427 128.111102578 0.494363419895 141.760632738 0.493967190092 141.913589539 0.715262675406 15.5560549229 0.000650046449554 66.2728884184 0.642034383603 -51.917668488 0.642236697427 128.111102578 0.000650046449586 66.2728884178 0.418716432289 152.267720748
9.9 0.164766304851 65.6641514417 0.56279726464 91.2995841897 0.494556837629 137.752361396 0.641502020993 -54.6178144966 0.56279726464 91.2995841897 0.165199192719 65.4287581356 0.494162232278 137.907263732 0.641694753641 125.411593988 0.494556837629 137.752361396 0.494162232278 137.907263732 0.714994214505 10.1140711364 0.000659910772707 61.1993894959 0.641502020993 -54.6178144966 0.641694753641 125.411593988 0.000659910772726 61.1993894955 0.420360040779 149.675442723
9.925 0.163446574518 63.1496284518 0.563608603224 88.6596670055 0.494766945921 133.749034249 0.640965077295 -57.3137256907 0.563608603224 88.6596670055 0.163916679227 62.916068954 0.494374080149 133.905865945 0.641148137631 122.716370876 0.494766945921 133.749034249 0.494374080149 133.905865945 0.714702365332 4.67985237087 0.000669783886175 56.128913063 0.640965077295 -57.3137256907 0.641148137631 122.716370876 0.000669783886181 56.1289130629 0.422009936416 147.085649129
9.95 0.162118991556 60.6344252688 0.564406467883 86.0229690767 0.494995461647 129.750396927 0.640423503082 -60.0054766738 0.564406467883 86.0229690767 0.162626853791 60.4029955236 0.49460444112 129.90914069 0.640596824481 120.025359779 0.494995461647 129.750396927 0.49460444112 129.90914069 0.71438469639 -0.747163890906 0.000679668605735 51.0615183834 0.640423503082 -60.0054766738 0.640596824481 120.025359779 0.000679668605729 51.0615183836 0.423666122605 144.498286425
9.975 0.160782068858 58.1185103367 0.565189832986 83.3895154845 0.495244064114 125.756182945 0.639877248283 -62.6931408447 0.565189832986 83.3895154845 0.161328183505 57.8895058284 0.494854984656 125.916820393 0.64004078955 117.338488357 0.495244064114 125.756182945 0.494854984656 125.916820393 0.714038815051 -6.16757652262 0.00068956792046 45.9972431567 0.639877248283 -62.6931408447 0.64004078955 117.338488357 0.000689567920444 45.9972431571 0.425328602293 141.913301675
10 0.1594343228 55.6018798074 0.565957693236 80.7593378494 0.495514391699 121.766113712 0.639326262223 -65.3767904327 0.565957693236 80.7593378494 0.160019136841 55.375595081 0.495127338929 121.928625405 0.639480008479 114.655685345 0.495514391699 121.766113712 0.495127338929 121.928625405 0.713662370572 -11.5820206498 0.000699484984874 40.936104232 0.639326262223 -65.3767904327 0.639480008479 114.655685345 0.00069948498485 40.9361042327 0.42699737791 139.330642523
10.025 0.158074274777 53.0845584404 0.56670906496 78.1324742693 0.495808038553 117.779898537 0.638770493658 -68.0564965317 0.56670906496 78.1324742693 0.158698185269 52.8612866057 0.495423087525 117.944264005 0.638914457179 111.97688052 0.495808038553 117.779898537 0.495423087525 117.944264005 0.71325305693 -16.9911675671 0.000709423110915 35.8780982534 0.638770493658 -68.0564965317 0.638914457179 111.97688052 0.000709423110885 35.8780982542 0.428672451324 136.750257177
10.05 0.156700452578 50.5666006392 0.567442987361 75.5089692774 0.496126551315 113.79723463 0.638209890816 -70.732329134 0.567442987361 75.5089692774 0.157363804714 50.3466328535 0.495743766177 113.963432409 0.638344111824 109.302004657 0.496126551315 113.79723463 0.495743766177 113.963432409 0.71280861555 -22.3957246907 0.00071938575972 30.8232022451 0.638209890816 -70.732329134 0.638344111824 109.302004657 0.000719385759686 30.823202246 0.430353823785 134.172094386
10.075 0.155311391604 48.0480916542 0.568158523784 72.8888738235 0.496471425835 109.817807098 0.637644401437 -73.4043571631 0.568158523784 72.8888738235 0.156014476877 47.8317165791 0.496090859489 109.985814762 0.637768948845 106.630989493 0.496471425835 109.817807098 0.496090859489 109.985814762 0.712326837984 -27.7964355603 0.000729376533253 25.7713741444 0.637644401437 -73.4043571631 0.637768948845 106.630989493 0.000729376533219 25.7713741454 0.432041495883 131.596103424
10.1 0.153905635988 45.5291489795 0.56885476301 70.2722452788 0.496844103855 105.841288927 0.637073972821 -76.0726485057 0.56885476301 70.2722452788 0.154648690455 45.3166522059 0.496465797627 106.011083128 0.637188944916 103.963767687 0.496844103855 105.841288927 0.496465797627 106.011083128 0.711805568626 -33.1940799005 0.000739399165804 20.7225532874 0.637073972821 -76.0726485057 0.637188944916 103.963767687 0.000739399165771 20.7225532884 0.433735467494 129.022234072
10.125 0.152481739625 43.0099239759 0.569530820604 67.6591474653 0.497245969624 101.867340969 0.636498551869 -78.7372700434 0.569530820604 67.6591474653 0.153264942286 42.801587411 0.496869952947 102.038897471 0.63660407694 101.300272787 0.497245969624 101.867340969 0.496869952947 102.038897471 0.711242707513 -38.5894737534 0.000749457515348 15.6766608518 0.636498551869 -78.7372700434 0.63660407694 101.300272787 0.000749457515318 15.6766608527 0.435435737742 126.4504366
10.15 0.151038267157 40.4906037554 0.570185840356 65.0496507106 0.497678346411 97.8956119055 0.63591808513 -81.3982876836 0.570185840356 65.0496507106 0.151861738458 40.2867049645 0.497304636508 98.0689056225 0.636014322039 98.6404391877 0.497678346411 97.8956119055 0.497304636508 98.0689056225 0.710636213325 -43.9834696909 0.000759555554783 10.6336002623 0.63591808513 -81.3982876836 0.636014322039 98.6404391877 0.000759555554757 10.6336002631 0.43714230495 123.880661751
10.175 0.149573794947 37.9714133651 0.570818995842 62.4438319292 0.498142492875 93.9257382068 0.635332518849 -84.0557663902 0.570818995842 62.4438319292 0.150437595406 37.7722248598 0.497771094456 94.1007432467 0.635419657534 95.9842021027 0.498142492875 93.9257382068 0.497771094456 94.1007432467 0.709984106627 -49.3769571139 0.000769697363037 5.59325755964 0.635332518849 -84.0557663902 0.635419657534 95.9842021027 0.000769697363017 5.59325756025 0.438855166596 121.312860723
10.2 0.148086912086 35.4526183139 0.571429492149 59.8417747303 0.498639599266 89.9573440843 0.63474179902 -86.7097702135 0.571429492149 59.8417747303 0.148991041055 35.258406778 0.498270504226 90.1340337873 0.634820060936 93.3314975238 0.498639599266 89.9573440843 0.498270504226 90.1340337873 0.709284473472 -54.7708626434 0.000779887116016 0.555501736674 0.63474179902 -86.7097702135 0.634820060936 93.3314975238 0.000779887116003 0.555501737076 0.440574319277 118.746985157
10.225 0.146576221466 32.9345274901 0.572016567794 57.243569552 0.499170783402 85.9900414273 0.634145871431 -89.3603623199 0.572016567794 57.243569552 0.147520616038 32.7455529315 0.498803970525 86.1683884088 0.634215509923 90.6822621888 0.499170783402 85.9900414273 0.498803970525 86.1683884088 0.708535469426 -60.1661506083 0.000790129077371 -4.47981495747 0.634145871431 -89.3603623199 0.634215509923 90.6822621888 0.000790129077365 -4.47981495729 0.442299758661 116.182987117
10.25 0.145040340983 30.4174965247 0.572579496878 54.6493138222 0.499737086383 82.0234297325 0.63354468172 -92.0076050211 0.572579496878 54.6493138222 0.146024875041 30.234011341 0.499372521056 82.2034059259 0.633605982325 88.0364335476 0.499737086383 82.0234297325 0.499372521056 82.2034059259 0.707735324131 -65.56382363 0.000800427589031 -9.51285674383 0.63354468172 -92.0076050211 0.633605982325 88.0364335476 0.000800427589032 -9.51285674387 0.444031479449 113.62081908
10.275 0.143477904914 27.9019316617 0.57311759153 52.0591121458 0.500339468014 78.0570960234 0.632938175426 -94.6515598032 0.57311759153 52.0591121458 0.14450238833 27.7241796055 0.499977101939 78.2386727243 0.632991456108 85.3939497285 0.500339468014 78.0570960234 0.499977101939 78.2386727243 0.706882346489 -70.9649233048 0.00081078706144 -14.5438040698 0.632938175426 -94.6515598032 0.632991456108 85.3939497285 0.000810787061446 -14.5438040701 0.445769475339 111.060433919
10.3 0.141887565526 25.3882942063 0.573630204668 49.473076517 0.500978801862 74.0906147614 0.632326298049 -97.2922873552 0.573630204668 49.473076517 0.142951743525 25.2165092329 0.500618572782 74.273762672 0.632371909353 82.7547495056 0.500978801862 74.0906147614 0.500618572782 74.273762672 0.70597493057 -76.3705309806 0.000821211963423 -19.5728533946 0.632326298049 -97.2922873552 0.632371909353 82.7547495056 0.000821211963434 -19.572853395 0.44751373898 108.50178489
10.325 0.140267995002 22.8771056322 0.574116733147 46.8913265558 0.501655869935 70.1235477495 0.631708995099 -99.9298475973 0.574116733147 46.8913265558 0.141371547674 22.7115106088 0.501297701351 70.3082370237 0.631747320239 80.1187722664 0.501655869935 70.1235477495 0.501297701351 70.3082370237 0.705011562366 -81.7817686253 0.00083170681159 -24.6002170028 0.631708995099 -99.9298475973 0.631747320239 80.1187722664 0.000831706811605 -24.6002170034 0.449264261934 105.944825619
10.35 0.138617887746 20.3689534387 0.574576621324 44.3139897672 0.502371356894 66.1554440304 0.63108621216 -102.564299709 0.574576621324 44.3139897672 0.139760429727 20.2097586939 0.502015157801 66.3416443192 0.631117667021 77.4859579793 0.502371356894 66.1554440304 0.502015157801 66.3416443192 0.70399082749 -87.1997997782 0.000842276159167 -29.6261228455 0.63108621216 -102.564299709 0.631117667021 77.4859579793 0.000842276159185 -29.6261228462 0.451021034643 103.389510085
10.375 0.136935963161 17.8644978657 0.57500936511 41.7412018215 0.503125843788 62.1858397803 0.630457894949 -105.195702158 0.57500936511 41.7412018215 0.138117043483 17.7118995493 0.502771508399 62.3735202781 0.630482928014 74.8562471623 0.503125843788 62.1858397803 0.502771508399 62.3735202781 0.702911419958 -92.6258305782 0.000852924584126 -34.6508144082 0.630457894949 -105.195702158 0.630482928014 74.8562471623 0.000852924584144 -34.650814409 0.452784046377 100.835792613
10.4 0.135220969016 15.3644795883 0.57541451656 39.1731068517 0.503919801221 58.2142582025 0.629823989377 -107.824112726 0.57541451656 39.1731068517 0.136440071113 15.2186578105 0.50356720871 58.4033876927 0.62984308157 72.2295808514 0.50391980122 58.2142582025 0.50356720871 58.4033876927 0.701772152181 -98.0611108571 0.000863656676485 -39.6745506028 0.629823989377 -107.824112726 0.62984308157 72.2295808514 0.000863656676503 -39.6745506035 0.454553285206 98.2836278562
10.425 0.133471685501 12.8697285307 0.575791689057 36.6098577672 0.504753581923 54.2402094211 0.629184441616 -110.449588538 0.575791689057 36.6098577672 0.134728227388 12.7308452417 0.504402596162 54.4307563226 0.629198106056 69.6059005694 0.504753581923 54.2402094211 0.504402596162 54.4307563226 0.700571966299 -103.506935286 0.000874477024629 -44.6976056823 0.629184441616 -110.449588538 0.629198106056 69.6059005694 0.000874477024646 -44.697605683 0.45632873795 95.732970785
10.45 0.131686930127 10.3811739654 0.57614056316 34.0516165775 0.505627412658 50.2631903804 0.628539198162 -113.072186091 0.57614056316 34.0516165775 0.132980264738 10.249370529 0.505277881959 50.4551227933 0.628547979836 66.9851482947 0.505627412658 50.2631903804 0.505277881959 50.4551227933 0.699309947033 -108.964644558 0.00088539020048 -49.7202691762 0.628539198162 -113.072186091 0.628547979836 66.9851482947 0.000885390200494 -49.7202691768 0.458110390138 93.1837766753
10.475 0.129865563619 7.89985608329 0.576460893174 31.4985547236 0.506541385406 46.2826847522 0.62788820591 -115.691961276 0.576460893174 31.4985547236 0.131194979307 7.77525049129 0.50619314227 46.4759705038 0.627892681244 64.3672664311 0.506541385406 46.2826847522 0.50619314227 46.4759705038 0.697985336184 -114.435626593 0.000896400743345 -54.742845841 0.62788820591 -115.691961276 0.627892681244 64.3672664311 0.000896400743357 -54.7428458415 0.459898225966 90.6360010954
10.5 0.128006497004 5.42693925571 0.576752514515 28.9508534099 0.50749544777 42.2981628565 0.627231412222 -118.308969415 0.576752514515 28.9508534099 0.129371218187 5.30962291672 0.507148308641 42.4927695467 0.627232188568 61.7521977769 0.50749544777 42.2981628565 0.507148308641 42.4927695467 0.696597548986 -119.921317743 0.000907513142274 -59.7656556241 0.627231412222 -118.308969415 0.627232188568 61.7521977769 0.000907513142282 -59.7656556245 0.46169222825 88.0895998935
10.525 0.126108700091 2.96372723928 0.577015351939 26.4087039314 0.508489392543 38.3090815995 0.626568765007 -120.923265278 0.577015351939 26.4087039314 0.127507888042 2.85376126556 0.508143157564 38.5049766457 0.626566480017 59.1398854944 0.508489392543 38.3090815995 0.508143157564 38.5049766457 0.695146192463 -125.423203969 0.000918731816719 -64.7890336338 0.626568765007 -120.923265278 0.626566480017 59.1398854944 0.000918731816723 -64.789033634 0.463492378375 85.5445291861
10.55 0.124171211626 0.511680618409 0.577249428703 23.8723079881 0.509522846374 34.3148844353 0.625900212801 -123.53490312 0.577249428703 23.8723079881 0.125603965388 0.409091517384 0.50917729915 34.5120351164 0.625895533705 56.5302730796 0.509522846374 34.3148844353 0.50917729915 34.5120351164 0.693631086018 -130.942821979 0.000930061095309 -69.8133301103 0.625900212801 -123.53490312 0.625895533705 56.5302730796 0.00093006109531 -69.8133301104 0.465298656247 83.0007453455
10.575 0.122193151406 -1.92756317599 0.577454876746 21.3418779775 0.51059525747 30.3150013572 0.625225704851 -126.143936701 0.577454876746 21.3418779775 0.123658508813 -2.02278851636 0.510250164844 30.5133748573 0.625219327624 53.9233043318 0.51059525747 30.3150013572 0.510250164844 30.5133748573 0.692052284421 -136.481760272 0.000941505192552 -74.8389103916 0.625225704851 -126.143936701 0.625219327624 53.9233043318 0.000941505192551 -74.8389103916 0.467111040236 80.4582049873
10.6 0.120173734719 -4.35216687865 0.577631947942 18.8176372556 0.511705882288 26.3088489258 0.624545191205 -128.750419321 0.577631947942 18.8176372556 0.121670673487 -4.44008704402 0.511360994117 26.5084123763 0.624537839615 51.3189233235 0.511705882288 26.3088489258 0.511360994117 26.5084123763 0.690410103442 -142.041660084 0.000953068183243 -79.8661548639 0.624545191205 -128.750419321 0.624537839615 51.3189233235 0.00095306818324 -79.8661548638 0.468929507117 77.9168649587
10.625 0.11811228952 -6.76006697991 0.577781026531 16.2998203538 0.51285377114 22.2958303418 0.623858622806 -131.354403844 0.577781026531 16.2998203538 0.119639728384 -6.840792883 0.512508820086 22.4965508626 0.623851047346 48.7170743699 0.51285377114 22.2958303418 0.512508820086 22.4965508626 0.688705148319 -147.624216167 0.000964753974398 -84.8954588902 0.623858622806 -131.354403844 0.623851047346 48.7170743699 0.000964753974394 -84.8954588901 0.470754032011 75.3766823256
10.65 0.116008276859 -9.14894337222 0.577902642771 13.7886731373 0.514037752676 18.2753355722 0.623165951594 -133.955942727 0.577902642771 13.7886731373 0.117565076691 -9.22264629763 0.513692454009 18.4771803117 0.623158928286 46.1177019986 0.514037752676 18.2753355722 0.513692454009 18.4771803117 0.686938345299 -153.23117738 0.000976566274515 -89.9272327053 0.623165951594 -133.955942727 0.623158928286 46.1177019986 0.00097656627451 -89.9272327051 0.472584588312 72.8376143601
10.675 0.113861315131 -11.5161844565 0.577997487913 11.2844528895 0.515256417185 14.2467415397 0.622467130612 -136.555088051 0.577997487913 11.2844528895 0.11544627999 -11.5831055273 0.514910468602 14.449677713 0.622461459675 43.5207509189 0.515256417185 14.2467415397 0.514910468602 14.449677713 0.685110976462 -158.864347017 0.00098850855996 -94.9619012666 0.622467130612 -136.555088051 0.622461459675 43.5207509189 0.000988508559957 -94.9619012665 0.47442114762 70.2996185281
10.7 0.111671208879 -13.8588470304 0.578066430543 8.78742830393 0.516508098679 10.2094123869 0.621762114117 -139.151891551 0.578066430543 8.78742830393 0.113283086886 -13.9193083729 0.516161180133 10.413407312 0.621758618503 40.9261659913 0.516508098679 10.2094123869 0.516161180133 10.413407312 0.683224718038 -164.52558284 0.00100058403833 -99.9999040495 0.621762114117 -139.151891551 0.621758618503 40.9261659913 0.00100058403832 -99.9999040495 0.476263679656 67.7626524755
10.725 0.109437982967 -16.1736101949 0.578110534362 6.29787936063 0.51779085572 6.16269982526 0.621050857708 -141.746404644 0.578110534362 6.29787936063 0.111075466914 -16.2280281326 0.517442629281 6.36772095822 0.621050381482 38.3338921967 0.51779085572 6.16269982526 0.517442629281 6.36772095822 0.681281682424 -170.216796719 0.00101279560856 -105.041694773 0.621050857708 -141.746404644 0.621050381482 38.3338921967 0.00101279560856 -105.041694774 0.478112152178 65.2266740156
10.75 0.107161923141 -18.456722435 0.578131077462 3.81609706441 0.519102450979 2.1059435849 0.620333318445 -144.338678463 0.578131077462 3.81609706441 0.108823650672 -18.5056231056 0.518752560709 2.31195855185 0.62033672502 35.7438746053 0.519102450979 2.1059435849 0.518752560709 2.31195855185 0.679284464059 -175.939953827 0.00102514581773 -110.087741045 0.620333318445 -144.338678463 0.62033672502 35.7438746053 0.00102514581773 -110.087741045 0.479966530887 62.6916411146
10.775 0.10484362417 -20.7039409559 0.578129573105 1.34238301569 0.520440329515 -1.96152802324 0.619609454995 -146.928763886 0.578129573105 1.34238301569 0.106528177351 -20.7479788207 0.520088401371 -1.75455139593 0.619617625202 33.1560583451 0.520440329515 -1.96152802324 0.520088401371 -1.75455139593 0.677236189316 178.302928727 0.00103763681433 -115.138523903 0.619609454995 -146.928763886 0.619617625202 33.1560583451 0.00103763681433 -115.138523903 0.481826779321 60.1575118782
10.8 0.102484047 -22.910462315 0.57810779206 -1.12295121724 0.52180159578 -6.04039741516 0.618879227773 -149.516711572 0.57810779206 -1.12295121725 0.104189951025 -22.9504421106 0.52144723756 -5.83249107344 0.618893057765 30.5703885708 0.52180159578 -6.04039741516 0.52144723756 -5.83249107344 0.675140570482 172.509783901 0.00105027029791 -120.19453725 0.618879227773 -149.516711572 0.618893057765 30.5703885708 0.00105027029791 -120.194537251 0.483692858746 57.6242445363
10.825 0.100084586629 -25.0708433962 0.57806778644 -3.57958496008 0.523182989407 -10.1313568952 0.618142599099 -152.102571997 0.57806778644 -3.57958496008 0.101810307348 -25.1077461716 0.522825790722 -9.92255253283 0.618162998084 27.9868104312 0.523182989407 -10.1313568952 0.522825790722 -9.92255253283 0.673001963851 166.678497511 0.00106304746509 -125.256287158 0.618142599099 -152.102571997 0.618162998084 27.9868104312 0.00106304746509 -125.256287158 0.485564728029 55.091797428
10.85 0.0976471527252 -27.1789118742 0.578011915034 -6.02718956819 0.524580859822 -14.2351076527 0.617399533368 -154.686395483 0.578011915034 -6.02718956819 0.0993910925739 -27.2139258459 0.524220392114 -14.0254366898 0.617427421152 25.4052690374 0.524580859822 -14.2351076527 0.524220392114 -14.0254366898 0.670825431882 160.806911915 0.00107596895183 -130.324291018 0.617399533368 -154.686395483 0.617427421152 25.4052690374 0.00107596895183 -130.324291018 0.487442343504 52.5601289857
10.875 0.095174265397 -29.2276655738 0.577942870015 -8.46542987997 0.525991139786 -18.3523585736 0.616649997221 -157.268232244 0.577942870015 -8.46542987997 0.0969347571962 -29.2622226177 0.525626956402 -18.1418521386 0.616686301575 22.8257094299 0.525991139786 -18.3523585736 0.525626956402 -18.1418521386 0.668616809221 154.892830762 0.00108903477196 -135.399076534 0.616649997221 -157.268232244 0.616686301575 22.8257094299 0.00108903477196 -135.399076534 0.489325658822 50.0291977186
10.9 0.0926691689078 -31.2091606316 0.577863704891 -10.8939660356 0.527409318011 -22.4838248464 0.615893959739 -159.848132418 0.577863704891 -10.8939660356 0.0944444668593 -31.2449792877 0.527040954328 -22.2725137621 0.615939613563 20.2480765454 0.527409318011 -22.4838248464 0.527040954328 -22.2725137621 0.666382772279 148.934024974 0.00110224425204 -140.48118053 0.615893959739 -159.848132418 0.615939613563 20.2480765454 0.00110224425203 -140.48118053 0.491214624786 47.4989621952
10.925 0.0901359665931 -33.1143892727 0.577777863492 -13.3124557132 0.528830411024 -26.6302263396 0.615131392643 -162.426146113 0.577777863492 -13.3124557132 0.0919242336014 -33.1535251351 0.528457384639 -26.4181411127 0.615187330935 17.6723151835 0.528830411024 -26.6302263396 0.528457384639 -26.4181411127 0.664130911864 142.928240157 0.0011155959627 -145.571147554 0.615131392643 -162.426146113 0.615187330935 17.6723151835 0.00111559596268 -145.571147554 0.493109189174 44.9693810254
10.95 0.0875797806389 -34.9331495206 0.577689209692 -15.7205568368 0.530248934518 -30.792285728 0.614362270508 -165.002323449 0.577689209692 -15.7205568368 0.0893790708805 -34.9780537694 0.529870745514 -30.5794565436 0.614429427123 15.0983699724 0.530248934518 -30.792285728 0.529870745514 -30.5794565436 0.661869808153 136.873205639 0.00112908764652 -150.669528264 0.614362270508 -165.002323449 0.614429427123 15.0983699724 0.00112908764648 -150.669528264 0.49500929654 42.4404128411
10.975 0.085006940723 -36.6539115782 0.577602057486 -18.1179308138 0.531658874497 -34.9707263423 0.613586570987 -167.576714604 0.577602057486 -18.1179308138 0.0868151761266 -36.7074980943 0.53127500579 -34.7571830626 0.613665875195 12.5261853342 0.531658874497 -34.9707263423 0.53127500579 -34.7571830626 0.659609107023 130.766645391 0.00114271614281 -155.776877575 0.613586570987 -167.576714604 0.613665875195 12.5261853342 0.00114271614276 -155.776877574 0.496914887996 39.9120162765
11 0.08242520564 -38.2636893963 0.577521200924 -20.5042463594 0.533053658582 -39.1662697182 0.612804275058 -170.14936986 0.577521200924 -20.5042463593 0.0842401446669 -38.3294102434 0.532663576358 -38.9520418871 0.612896647882 9.95570545053 0.533053658582 -39.1662697182 0.532663576358 -38.9520418871 0.657359596448 124.606291062 0.00115647730963 -160.893752543 0.612804275058 -170.14936986 0.612896647882 9.95570545053 0.00115647730958 -160.893752541 0.498825900974 37.3841499464
11.025 0.0798440217056 -39.7479316398 0.577451943266 -22.8791839655 0.53442612793 -43.3796328195 0.612015367276 -172.720339662 0.577451943266 -22.8791839655 0.0816632185543 -39.8298595036 0.534029282189 -43.1647496725 0.612121717615 7.38687422631 0.53442612793 -43.3796328195 0.534029282189 -43.1647496725 0.655133281307 118.389897399 0.00117036594345 -166.020709982 0.612015367276 -172.720339662 0.612121717615 7.38687422631 0.00117036594338 -166.020709979 0.500742268967 34.8567724246
11.05 0.0772748206146 -41.0904546407 0.577400124593 -25.2424410664 0.53576851031 -47.6115249112 0.611219836045 -175.289674665 0.577400124593 -25.2424410664 0.079095572787 -41.1933687821 0.535364335515 -47.3960153908 0.611341056582 4.81963525409 0.53576851031 -47.6115249112 0.535364335515 -47.3960153908 0.652943454512 112.115260315 0.00118437569698 -171.158303779 0.611219836045 -175.289674665 0.611341056582 4.81963525409 0.0011843756969 -171.158303775 0.502663921238 32.32984222
11.075 0.0747313569385 -42.2734517906 0.577372146939 -27.5937379473 0.537072394969 -51.8626440574 0.610417673908 -177.8574258 0.577372146939 -27.5937379473 0.0765506391158 -42.4029208018 0.536660310827 -51.6465368362 0.610554636795 2.25393177741 0.537072394969 -51.8626440574 0.536660310827 -51.6465368362 0.6508047619 105.780237886 0.00119849899599 -176.307081907 0.610417673908 -177.8574258 0.610554636795 2.25393177741 0.00119849899591 -176.307081903 0.504590782505 29.8033177518
11.1 0.0722300807581 -43.277629894 0.577374995813 -29.9328244296 0.538328710038 -56.1336732242 0.609608877846 179.576355669 0.577374995813 -29.9328244295 0.0740444633548 -43.4400795654 0.537908122414 -55.9169967342 0.609762430181 -0.310293346192 0.538328710038 -56.1336732242 0.537908122414 -55.9169967342 0.648733257774 99.3827745098 0.00121272695584 178.532416888 0.609608877846 179.576355669 0.609762430181 -0.310293346191 0.00121272695575 178.532416891 0.506522772599 27.2771573237
11.125 0.0697905328863 -44.0825433641 0.577416256854 -32.2594873502 0.539527703331 -60.4252759676 0.608793449602 177.011618071 0.577416256854 -32.2594873502 0.0715960848136 -44.2852908024 0.539098005306 -60.2080584372 0.608964408679 -2.87309768263 0.539527703331 -60.4252759676 0.539098005306 -60.2080584372 0.646746447421 92.9209284588 0.00122704929872 173.359666732 0.608793449602 177.011618071 0.608964408679 -2.87309768263 0.00122704929864 173.359666736 0.508459806082 24.7513190962
11.15 0.067435737304 -44.6672202714 0.577504126109 -34.5735588292 0.540658927506 -64.7380916908 0.607971396016 174.448309259 0.577504126109 -34.5735588292 0.0692279148585 -44.9184458559 0.540219500596 -64.5203611903 0.608160544373 -5.43453925914 0.540658927506 -64.7380916908 0.540219500596 -64.5203611903 0.644863312302 86.3929029932 0.00124145427283 168.174158621 0.607971396016 174.448309259 0.608160544373 -5.43453925914 0.00124145427278 168.174158624 0.510401791833 22.2257610577
11.175 0.0651925463703 -45.0111953056 0.577647412302 -36.8749252882 0.541711230673 -69.0727304628 0.607142729386 171.886376531 0.577647412302 -36.8749252882 0.066966074388 -45.3198127364 0.541261446212 -68.8545149582 0.607350809643 -7.99467660254 0.541711230673 -69.0727304628 0.541261446212 -68.8545149582 0.643104313006 79.7970811153 0.00125592857477 162.975404754 0.607142729386 171.886376531 0.607350809643 -7.99467660254 0.00125592857475 162.975404755 0.512348632594 19.7004409939
11.2 0.0630918683316 -45.0960730839 0.5778555293 -39.1635371466 0.542672753649 -73.4297673931 0.606307467836 169.325766548 0.5778555293 -39.1635371466 0.0648406264265 -45.4714469775 0.542211974359 -73.2110948099 0.606535177335 -10.5535687777 0.542672753649 -73.4297673931 0.542211974359 -73.2110948099 0.641491364451 73.1320639465 0.00127045727664 157.762943231 0.606307467836 169.325766548 0.606535177336 -10.5535687777 0.00127045727667 157.76294323 0.514300224473 17.175316456
11.225 0.0611686751103 -44.9077220202 0.578138476854 -41.4394190758 0.54353093517 -77.8097365711 0.605465635717 166.766425238 0.578138476854 -41.4394190759 0.0628856111812 -45.3591775274 0.543058516908 -77.5906348669 0.605713620973 -13.1112754266 0.54353093517 -77.809736571 0.543058516907 -77.5906348669 0.640047777314 66.3967125581 0.00128502375962 152.536343093 0.605465635717 166.766425238 0.605713620973 -13.1112754266 0.00128502375971 152.536343088 0.516256456404 14.6503447268
11.25 0.0594616572851 -44.4391168363 0.578506807683 -43.7026806356 0.544272526434 -82.2131245824 0.604617264014 164.208297704 0.578506807683 -43.7026806357 0.0611387616917 -44.9751957875 0.543787820134 -81.9936218313 0.604886114985 -15.6678568066 0.544272526433 -82.2131245823 0.543787820134 -81.9936218313 0.638798159292 59.5901929076 0.00129960965596 147.295209704 0.604617264014 164.208297704 0.604886114985 -15.6678568066 0.00129960965614 147.295209695 0.518217209548 12.125482786
11.275 0.0580123759408 -43.693677975 0.578971578965 -45.9535270611 0.544883616443 -86.6403636337 0.603762390785 161.651328116 0.578971578965 -45.9535270612 0.05964075984 -44.3211333073 0.544385970262 -86.4204881211 0.604052634982 -18.2233738302 0.544883616443 -86.6403636337 0.544385970261 -86.4204881211 0.63776826959 52.7120233134 0.00131419480134 142.039190457 0.603762390785 161.651328116 0.604052634982 -18.2233738302 0.00131419480161 142.039190444 0.520182356655 9.60068727293
11.3 0.0568637793571 -42.688689139 0.579544286504 -48.1922698995 0.545349669631 -91.0918243266 0.602901061613 159.095459597 0.579544286504 -48.1922698996 0.0584339037514 -43.411283722 0.544838431285 -90.8716046559 0.603213158052 -20.7778881035 0.545349669631 -91.0918243265 0.544838431284 -90.8716046559 0.6369848202 45.7621236525 0.00132875719998 136.767980788 0.602901061613 159.095459597 0.603213158052 -20.7778881035 0.00132875720036 136.767980768 0.522151761351 7.07591444832
11.325 0.0560580317273 -41.4580551807 0.580236780074 -50.419337132 0.545655577239 -95.5678081394 0.602033330081 156.540634104 0.580236780073 -50.4193371322 0.0575601215257 -42.2753385885 0.545130096545 -95.3472733513 0.602367663112 -23.3314619649 0.545655577238 -95.5678081394 0.545130096544 -95.3472733513 0.636475218014 38.7408651878 0.00134327300485 131.48133045 0.602033330081 156.540634104 0.602367663112 -23.3314619649 0.00134327300533 131.481330424 0.524125277379 4.55112015461
11.35 0.0556337553129 -40.0534243875 0.581061158939 -52.6352823515 0.545785723867 -100.068539695 0.60115925827 153.986792293 0.581061158938 -52.6352823518 0.0570583982515 -40.9597696302 0.545245355469 -99.8477193994 0.601516131283 -25.8841585236 0.545785723865 -100.068539695 0.545245355468 -99.8477193994 0.636267242812 31.649119649 0.00135771651547 126.179050037 0.60115925827 153.986792293 0.601516131283 -25.8841585236 0.00135771651605 126.179050005 0.526102747754 2.02625977443
11.375 0.0556229959504 -38.5427466788 0.582029647162 -54.8407925125 0.545724070462 -104.594158911 0.600278917282 151.433873379 0.582029647161 -54.8407925127 0.0569618711136 -39.5269758074 0.54516817675 -104.373083432 0.600658546328 -28.4360416973 0.54572407046 -104.59415891 0.545168176749 -104.373083432 0.63638865777 24.4883059141 0.0013720601959 120.861017682 0.600278917283 151.433873379 0.600658546328 -28.4360416973 0.00137206019656 120.861017645 0.528084003865 -0.498711812122
11.4 0.0560484128808 -37.00583747 0.583154449125 -57.0366937304 0.545454254832 -109.144713145 0.59939238778 148.881814982 0.583154449124 -57.0366937307 0.0572950342204 -38.0516846486 0.544882209017 -108.923413681 0.59979489512 -30.9871762495 0.54545425483 -109.144713145 0.544882209015 -108.923413681 0.636866751318 17.2604323995 0.00138627471554 115.527185884 0.59939238778 148.881814982 0.59979489512 -30.9871762495 0.00138627471624 115.527185843 0.530068864481 -3.02384027155
11.425 0.0569212624318 -35.5274118524 0.584447586705 -59.2239545936 0.544959710445 -113.720149487 0.598499760554 146.330552958 0.584447586703 -59.2239545938 0.0580715879468 -36.6148519881 0.544370899788 -113.498658286 0.598925168171 -33.5376278254 0.544959710443 -113.720149487 0.544370899786 -113.498658286 0.637727812098 9.96813309326 0.00140032901513 110.177588392 0.598499760555 146.330552958 0.598925168171 -33.5376278254 0.00140032901581 110.177588351 0.532057134691 -5.54917186214
11.45 0.0582406151278 -34.1889816673 0.585920720677 -61.4036864632 0.544223803914 -118.320307344 0.597601137116 143.780021229 0.585920720675 -61.4036864634 0.0592933875934 -35.296172183 0.543617633078 -118.098657887 0.598049360208 -36.087462987 0.544223803913 -118.320307344 0.543617633077 -118.098657887 0.638996542328 2.61469509573 0.00141419040041 104.812347068 0.597601137117 143.780021229 0.598049360208 -36.087462987 0.00141419040098 104.812347032 0.534048604737 -8.07475348011
11.475 0.0599939396765 -33.0614658102 0.587584960208 -63.5771402965 0.543229991072 -122.944911501 0.596696630314 141.230151584 0.587584960206 -63.5771402966 0.0609506913572 -34.1668500563 0.542605885563 -122.723138711 0.597167470808 -38.6367492467 0.543229991072 -122.944911501 0.542605885562 -122.723138711 0.640695418979 -4.7959244144 0.00142782466551 99.4316786379 0.596696630314 141.230151584 0.597167470809 -38.6367492467 0.00142782466587 99.4316786148 0.536043048766 -10.6006327065
11.5 0.062158833253 -32.2000744117 0.589450665551 -65.7456996199 0.541961990957 -127.59356587 0.595786364973 138.680873472 0.589450665551 -65.7456996199 0.0630235765971 -33.2841815893 0.541319400618 -127.371706328 0.596279505088 -41.1855550996 0.541961990957 -127.59356587 0.541319400618 -127.371706328 0.642844016715 -12.2590936519 0.00144119624777 94.0359012262 0.595786364973 138.680873472 0.596279505088 -41.1855550996 0.00144119624777 94.0359012262 0.538040223475 -13.1268578547
