! Generated from PyAEDT SolutionData; AEDT ExportNetworkData workaround
# GHz S MA R 50
9 0.209668239758 157.17608884 0.527416944997 -171.191207437 0.49466189167 -74.5805340334 0.658164271513 46.0485070369 0.527416944997 -171.191207437 0.20988866736 157.208054538 0.49466810448 -74.5126279016 0.658089340329 -133.914238636 0.49466189167 -74.5805340334 0.49466810448 -74.5126279016 0.714571936191 -149.048906237 0.000165372875169 -124.049563368 0.658164271513 46.0485070369 0.658089340329 -133.914238636 0.000165372875173 -124.049563368 0.365702316785 -114.175230806
9.025 0.207779781469 154.506514946 0.527996112632 -173.989597329 0.495375358074 -78.8443343704 0.657763250658 43.1411154789 0.527996112632 -173.989597329 0.208003148624 154.536725643 0.495379319771 -78.7753274929 0.657689671382 -136.821360283 0.495375358074 -78.8443343704 0.495379319772 -78.7753274929 0.713582656221 -154.87376131 0.000169763054784 -128.830121537 0.657763250658 43.1411154789 0.657689671383 -136.821360283 0.000169763054738 -128.830121555 0.367139935069 -116.893995141
9.05 0.205914411446 151.849594293 0.528591777552 -176.780220374 0.496056100494 -83.1013972664 0.657358878659 40.2417016152 0.528591777552 -176.780220374 0.206141063061 151.878067455 0.49605786655 -83.0312811071 0.657286514985 -139.720501801 0.496056100495 -83.1013972664 0.49605786655 -83.0312811071 0.712636673648 -160.694812685 0.000174159826022 -133.629630896 0.657358878659 40.2417016151 0.657286514985 -139.720501801 0.000174159825946 -133.629630924 0.368583298151 -119.607845609
9.075 0.20407262296 149.204909515 0.529204203299 -179.563337533 0.49670424118 -87.3516487721 0.656951138379 37.3501151605 0.529204203299 -179.563337533 0.204302901805 149.231667693 0.496703870285 -87.280415153 0.656879853836 -142.611812699 0.49670424118 -87.3516487721 0.496703870286 -87.2804151529 0.711734080365 -166.511195166 0.000178560470407 -138.44674485 0.656951138379 37.3501151605 0.656879853837 -142.611812699 0.000178560470314 -138.446744883 0.370032369955 -122.316876351
9.1 0.202254792069 146.572044665 0.52983352942 177.660794238 0.497320012604 -91.5950202702 0.656540012215 34.4662092307 0.52983352942 177.660794238 0.202489038964 146.597115387 0.497317566415 -91.5226613762 0.656469670417 -145.495439143 0.497320012604 -91.5950202702 0.497317566415 -91.5226613762 0.710874798533 -172.322124951 0.000182962289315 -143.280140757 0.656540012215 34.4662092307 0.656469670418 -145.495439143 0.000182962289218 -143.280140791 0.37148711725 -125.021179618
9.125 0.200461187855 143.950584429 0.530479777959 174.89192283 0.497903756863 -95.8314485224 0.656125482038 31.5898402602 0.530479777959 174.89192283 0.200699741739 143.974000074 0.49789929974 -95.7579569067 0.656055946908 -148.371524024 0.497903756863 -95.8314485224 0.497899299741 -95.7579569067 0.710058582723 -178.126893266 0.000187362619013 -148.128525856 0.656125482038 31.5898402602 0.656055946908 -148.371524023 0.000187362618919 -148.128525887 0.372947509549 -127.720845822
9.15 0.198691980596 141.340113274 0.531142859943 172.129801734 0.498455924535 -100.060875787 0.655707529148 28.7208679178 0.531142859943 172.129801734 0.198935178473 141.361910939 0.498449523294 -99.9862443767 0.655638665119 -151.240207031 0.498455924535 -100.060875787 0.498449523295 -99.9862443767 0.709285022464 176.075139743 0.00019175884454 -152.990642498 0.655707529148 28.7208679178 0.65563866512 -151.240207031 0.000191758844455 -152.990642525 0.374413519011 -130.415963571
9.175 0.196947248041 138.740214635 0.531822581807 169.374190724 0.498977073014 -104.283250001 0.655286134221 25.8591550221 0.531822581807 169.374190724 0.197195424839 138.760436004 0.498968796677 -104.207472102 0.655217806441 -154.101624732 0.498977073015 -104.283250001 0.498968796677 -104.207472102 0.708553545165 170.284550764 0.000196148412327 -157.865272667 0.655286134221 25.859155022 0.655217806441 -154.101624732 0.000196148412255 -157.86527269 0.375885120344 -133.106619718
9.2 0.195226980041 136.150470214 0.532518651774 166.624856467 0.499467864337 -108.498525012 0.654861277277 23.0045674556 0.532518651774 166.624856467 0.19548046839 136.169161431 0.499457783883 -108.421594318 0.654793351795 -156.955910651 0.499467864337 -108.498525012 0.499457783883 -108.421594318 0.70786341945 164.50185864 0.000200528841415 -162.751241796 0.654861277277 23.0045674556 0.654793351795 -156.955910651 0.000200528841357 -162.751241814 0.377362290711 -135.792899406
9.225 0.193531081793 133.570459464 0.533230686128 163.881573055 0.499929062506 -112.706660862 0.65443293764 20.1569740801 0.533230686128 163.881573055 0.19379021174 133.587670996 0.499917250634 -112.628571457 0.654365281601 -159.803195342 0.499929062506 -112.706660862 0.499917250634 -112.628571457 0.707213758893 158.727529197 0.000204897733227 -167.647421876 0.65443293764 20.1569740801 0.654365281602 -159.803195342 0.000204897733183 -167.647421888 0.378845009645 -138.474886115
9.25 0.191859375981 130.999759299 0.533958215408 161.144122478 0.500361530362 -116.907624103 0.654001093913 17.316246651 0.533958215408 161.144122478 0.192124474656 131.015545815 0.500348061244 -116.828370467 0.653933575757 -162.643606475 0.500361530362 -116.907624103 0.500348061244 -116.828370467 0.7066035262 152.961979552 0.000209252779864 -172.552733891 0.654001093913 17.316246651 0.653933575757 -162.643606475 0.000209252779834 -172.552733899 0.380333258958 -141.152661703
9.275 0.190211604096 128.43794408 0.53470069047 158.412295029 0.500766225998 -121.101388137 0.653565723946 14.4822597335 0.53470069047 158.412295029 0.190482995344 128.452364328 0.500751175043 -121.020965154 0.653498213611 -165.477268915 0.500766225998 -121.101388137 0.500751175043 -121.020965154 0.706031537845 147.205581877 0.000213591770931 -177.466149603 0.653565723946 14.4822597335 0.653498213611 -165.477268915 0.000213591770914 -177.466149607 0.381827022665 -143.82630646
9.3 0.18858742721 125.884585899 0.535457488435 155.685889658 0.501144198774 -125.287933586 0.65312680482 11.6548906198 0.535457488435 155.685889658 0.188865431191 125.897702582 0.501127642386 -125.206336549 0.653059173957 -168.304304796 0.501144198774 -125.287933586 0.501127642386 -125.206336549 0.70549646919 141.458666611 0.000217912598944 177.613307285 0.65312680482 11.6548906198 0.653059173957 -168.304304796 0.000217912598938 177.613307284 0.383326286895 -146.49589915
9.325 0.186986426463 123.33925516 0.536227918504 152.964714259 0.501496584952 -129.467248671 0.652684312823 8.83401924665 0.536227918504 152.964714259 0.187271359242 123.351134812 0.501478600294 -129.384473283 0.652616435026 -171.124833607 0.501496584952 -129.467248671 0.501478600294 -129.384473283 0.70499686009 135.72152514 0.000222213263373 172.686560534 0.652684312823 8.83401924665 0.652616435026 -171.124833607 0.000222213263376 172.686560536 0.384831039821 -149.161517061
9.35 0.185408103494 120.801521453 0.537011227629 150.248585915 0.501824602994 -133.639329588 0.652238223436 6.01952811556 0.537011227629 150.248585915 0.185700276606 120.812234319 0.501805267749 -133.555371973 0.652169974483 -173.938972268 0.501824602994 -133.639329588 0.501805267749 -133.555371973 0.704531121009 129.994411958 0.000226491873431 167.754481299 0.652238223436 6.01952811557 0.652169974483 -173.938972268 0.00022649187344 167.754481302 0.38634127158 -151.823236046
9.375 0.183851880998 118.270954712 0.537806606042 147.537331094 0.502129548561 -137.804180902 0.65178851132 3.21130221412 0.537806606042 147.537331094 0.184151601012 118.280574611 0.502108940695 -137.719037603 0.651719769431 -176.746835207 0.502129548561 -137.804180902 0.502108940695 -137.719037603 0.704097539625 124.277546354 0.000230746649699 162.817888526 0.65178851132 3.21130221412 0.651719769431 -176.746835207 0.000230746649713 162.81788853 0.3878569742 -154.481130574
9.4 0.182317103589 115.74712661 0.538613192632 144.83078579 0.502412789246 -141.96181592 0.651335150305 0.409228939181 0.538613192632 144.83078579 0.182624671644 115.755730798 0.502390986768 -141.875483903 0.651265796414 -179.548534435 0.502412789246 -141.96181592 0.502390986768 -141.875483903 0.703694287918 118.571113646 0.000234975924719 157.877549764 0.651335150305 0.409228939185 0.651265796414 -179.548534435 0.000234975924736 157.877549769 0.389378141529 -157.135273773
9.425 0.180803039051 113.229612166 0.53943008017 142.128795635 0.502675759093 -146.112257058 0.650878113378 -2.38680197789 0.53943008017 142.128795635 0.181118750389 113.23728119 0.502652839823 -146.024733718 0.650808031425 177.655820379 0.502675759093 -146.112257058 0.502652839823 -146.024733718 0.703319429712 112.87526603 0.000239178142674 152.934182339 0.650878113378 -2.38680197789 0.650808031425 177.655820379 0.000239178142693 152.934182344 0.390904769166 -159.785737471
9.45 0.179308880077 110.717991522 0.54025632038 139.431215961 0.502919952938 -150.255536199 0.65041737268 -5.17689854402 0.54025632038 139.431215961 0.179633023548 110.724809055 0.502895994266 -150.166819358 0.650346449916 174.866121831 0.502919952938 -150.255536199 0.502895994266 -150.166819358 0.702970928637 107.190123072 0.000243351858279 147.98845481 0.65041737268 -5.17689854402 0.650346449916 174.866121831 0.000243351858297 147.988454815 0.392436854392 -162.432592245
9.475 0.17783374653 108.211851837 0.541090928842 136.737911835 0.503146920609 -154.391695022 0.6499528995 -7.96116657512 0.541090928842 136.737911835 0.178166604074 108.217904506 0.503121999262 -154.301782932 0.649881026806 172.082264716 0.503146920609 -154.391695023 0.503121999262 -154.301782932 0.702646656456 101.515771913 0.000247495735003 143.040988688 0.6499528995 -7.96116657512 0.649881026806 172.082264716 0.00024749573502 143.040988692 0.393974396104 -165.075907458
9.5 0.176376688212 105.710789259 0.541932889741 134.048758053 0.503358261029 -158.520785322 0.649484664268 -10.7397097647 0.541932889741 134.048758053 0.176718534319 105.716166459 0.503332452831 -158.429676662 0.649411736495 169.304145957 0.503358261029 -158.520785322 0.503332452831 -158.429676662 0.702344401704 95.8522672215 0.000251608542746 138.09236032 0.649484664268 -10.7397097647 0.649411736495 169.304145957 0.000251608542761 138.092360324 0.39551739475 -167.715751305
9.525 0.174936688147 103.214410943 0.542781160451 131.363639111 0.503555616257 -162.64286929 0.649012636557 -13.5126297504 0.542781160451 131.363639111 0.175287789275 103.21920463 0.503528995898 -162.550563167 0.648938552876 166.531664534 0.503555616257 -162.64286929 0.503528995898 -162.550563167 0.702061878576 90.1996309575 0.000255689155066 133.143102926 0.649012636557 -13.5126297504 0.648938552876 166.531664534 0.000255689155078 133.143102929 0.397065852268 -170.352190849
9.55 0.173512666301 100.72233705 0.54363467595 128.682449144 0.503740665507 -166.758019784 0.648536785081 -16.280026178 0.54363467595 128.682449144 0.173873280267 100.726641526 0.503713306307 -166.66451573 0.648461449345 163.76472142 0.503740665507 -166.758019784 0.503713306307 -166.66451573 0.701796735983 84.5578519894 0.000259736546049 128.193708709 0.648536785081 -16.280026178 0.648461449345 163.76472142 0.000259736546059 128.193708711 0.39861977202 -172.985292063
9.575 0.172103483702 98.2342027319 0.544492353077 126.005091839 0.50391511917 -170.866320562 0.648057077696 -19.0419967644 0.544492353077 126.005091839 0.17247385903 98.2381144113 0.503887092848 -170.771618532 0.647980398813 161.00321952 0.50391511917 -170.866320562 0.503887092848 -170.771618532 0.701546566718 78.9268856093 0.000263749786917 123.244631023 0.648057077696 -19.0419967644 0.647980398813 161.00321952 0.000263749786924 123.244631024 0.400179158735 -175.615119868
9.6 0.170707946871 95.7496600349 0.545353094611 123.331480335 0.504080712882 -174.967866493 0.6475734814 -21.7986373569 0.545353094611 123.331480335 0.171088322108 95.7532771985 0.504052089324 -174.871966859 0.647495373719 158.247063602 0.504080712882 -174.967866493 0.504052089324 -174.871966859 0.701308916637 73.3066529894 0.000267728042415 118.296286539 0.6475734814 -21.7986373569 0.647495373719 158.247063602 0.00026772804242 118.29628654 0.401744018447 -178.241738167
9.625 0.169324812497 93.2683797372 0.546215793194 120.661537094 0.504239201655 -179.062763736 0.647085962336 -24.5500419919 0.546215793194 120.661537094 0.169715415483 93.2718022713 0.504210048685 -178.96566728 0.647006346042 155.496160244 0.504239201655 -179.062763736 0.504210048685 -178.96566728 0.701081293799 67.6970406144 0.000271670567064 113.349057388 0.647085962336 -24.5500419919 0.647006346042 155.496160244 0.000271670567066 113.349057388 0.403314358439 179.134790116
9.65 0.167952792265 90.790053082 0.547079335079 117.995193759 0.504392354097 176.848870107 0.646594485801 -27.2963029508 0.547079335079 117.995193759 0.168353839372 90.7933822056 0.504362737248 176.947162195 0.646513287307 152.750417769 0.504392354097 176.848870107 0.504362737248 176.947162195 0.700861177476 62.0978997223 0.000275576701286 108.403293254 0.646594485801 -27.2963029508 0.646513287307 152.750417769 0.000275576701286 108.403293253 0.404890187183 176.514403003
9.675 0.166590557776 88.3143934107 0.547942603717 115.332391002 0.504541946746 172.76690586 0.646099016243 -30.0375108144 0.547942603717 115.332391002 0.167002253114 88.3177313898 0.504511929041 172.866391995 0.646016168597 150.009746193 0.504541946746 172.76690586 0.504511929041 172.866391995 0.700646026989 56.5090457784 0.000279445867463 103.459313383 0.646099016243 -30.0375108144 0.646016168597 150.009746193 0.000279445867462 103.459313382 0.406471514284 173.897039428
9.7 0.165236745476 85.8411376911 0.548804483177 112.673078357 0.504689758536 168.691202677 0.645599517272 -32.7737545149 0.548804483177 112.673078357 0.165659280061 85.8445875419 0.504659400259 168.791880883 0.645514960561 147.274057167 0.504689758536 168.691202677 0.504659400259 168.791880883 0.700433290282 50.9302580039 0.000283277565928 98.5174085137 0.645599517272 -32.7737545149 0.645514960561 147.274057167 0.000283277565925 98.5174085128 0.408058350426 171.282639205
9.725 0.163889961541 83.3700479446 0.549663861406 110.017214043 0.504837565396 164.621607962 0.645095951669 -35.5051213869 0.549663861406 110.017214043 0.164323512444 83.373713125 0.504806923878 164.723475886 0.645009633421 144.543263927 0.504837565396 164.621607962 0.504806923878 164.723475886 0.700220412215 45.3612789748 0.000287071370904 93.5778426899 0.645095951669 -35.5051213869 0.645009633421 144.543263927 0.000287071370901 93.5778426889 0.409650707316 168.671142999
9.75 0.162548786658 80.9009125813 0.550519633327 107.364764785 0.50498713501 160.557957315 0.644588281389 -38.2316972157 0.550519633327 107.364764785 0.162993516131 80.9048966711 0.504956264411 160.661012238 0.644500156979 141.817281238 0.50498713501 160.557957315 0.504956264411 160.661012238 0.700004842505 39.8018143011 0.000290826926408 88.6408549691 0.644588281389 -38.2316972157 0.644500156979 141.817281238 0.000290826926405 88.6408549681 0.411248597631 166.062492292
9.775 0.161211780665 78.4335476548 0.551370703788 104.715705628 0.505140221732 156.500074504 0.644076467573 -40.9535662851 0.551370703788 104.715705628 0.161667835249 78.4379540253 0.505109172828 156.604313352 0.643986500618 139.096025349 0.505140221732 156.500074504 0.505109172828 156.604313352 0.699784043305 34.251532392 0.000294543942098 83.7066610124 0.644076467573 -40.9535662851 0.643986500618 139.096025349 0.000294543942095 83.7066610115 0.412852034962 163.456629357
9.8 0.159877487019 75.9677980535 0.552215990359 102.070019751 0.505298561654 152.447771447 0.643560470557 -43.6708114222 0.552215990359 102.070019751 0.160344996645 75.9727295248 0.505267381629 152.553190806 0.643468633313 136.379413941 0.505298561654 152.447771447 0.505267381629 152.553190806 0.699555496394 28.7100643097 0.00029822218908 78.7754545585 0.643560470557 -43.6708114222 0.643468633313 136.379413941 0.000298222189077 78.7754545577 0.414461033765 160.853497232
9.825 0.158544437058 73.5035386461 0.553054425987 99.4276982819 0.505463867844 148.400848217 0.643040249884 -46.3835140423 0.553054425987 99.4276982819 0.159023514141 73.5090971325 0.505432600085 148.507444348 0.642946523625 133.667366084 0.505463867844 148.400848217 0.505432600085 148.507444348 0.699316709966 23.1770037079 0.00030186149565 73.8474087842 0.643040249884 -46.3835140423 0.642946523625 133.667366084 0.000301861495647 73.8474087835 0.416075609304 158.253039688
9.85 0.157211154058 71.0406754033 0.553884961524 96.7887401167 0.505637825731 144.359093064 0.642515764316 -49.091754191 0.553884961524 96.7887401167 0.157701892593 71.0469615452 0.505606509626 144.466861916 0.64242013971 130.959802188 0.505637825731 144.359093064 0.505606509626 144.466861916 0.699065225021 17.6519068515 0.000305461742984 68.9226775567 0.642515764316 -49.091754191 0.64242013971 130.959802188 0.000305461742982 68.9226775563 0.417695777606 155.655201208
9.875 0.155876157068 68.5791465172 0.554706568122 94.1531517401 0.505822088637 140.32228244 0.641986971846 -51.7956105859 0.554706568122 94.1531517401 0.156378631735 68.5862592988 0.505790759376 140.431219674 0.641889449316 128.25664396 0.505822088637 140.32228244 0.505790759376 140.431219674 0.698798621381 12.1342927075 0.000309022860755 64.0013965857 0.641986971846 -51.7956105859 0.641889449316 128.25664396 0.000309022860753 64.0013965855 0.419321555401 153.059926961
9.9 0.154537964534 66.1189235448 0.55551823953 91.5209470579 0.506018273448 136.290181048 0.641453829714 -54.4951606563 0.55551823953 91.5209470579 0.155052229812 66.126959895 0.505986961831 136.40028205 0.641354419782 125.557814364 0.506018273448 136.290181048 0.505986961831 136.40028205 0.698514523332 6.62364309777 0.000312544822674 59.083684482 0.641453829714 -54.4951606563 0.641354419782 125.557814364 0.000312544822673 59.0836844819 0.420952960078 150.467162776
9.925 0.153195097715 63.6600125992 0.556318994282 88.8921472363 0.506227956401 132.262541889 0.64091629442 -57.1904805827 0.556318994282 88.8921472363 0.153721187019 63.669066975 0.506196688649 132.373801791 0.640815018041 122.863237575 0.506227956401 132.262541889 0.506196688649 132.373801791 0.69821060495 1.11940290081 0.00031602764197 54.1696437345 0.64091629442 -57.1904805827 0.640815018041 122.863237575 0.000316027641969 54.1696437346 0.42259000963 147.876855124
9.95 0.151846083907 61.202455618 0.557107877806 86.2667805527 0.506452668982 128.239106323 0.640374321743 -59.881645334 0.557107877806 86.2667805527 0.152384008744 61.2126195667 0.50642146655 128.351520024 0.640271210613 120.172838945 0.506452668982 128.239106323 0.50642146655 128.351520024 0.697884595135 -4.37901970958 0.000319471366779 49.2593616154 0.640374321743 -59.881645334 0.640271210613 120.172838945 0.000319471366778 49.2593616156 0.424232722604 145.28895109
9.975 0.150489459507 58.7463317357 0.557883964476 83.6448822595 0.506693893904 124.219604127 0.639827866756 -62.5687287044 0.557883964476 83.6448822595 0.151039208659 58.7576934346 0.506662773301 124.333166316 0.639722963604 117.486544958 0.506693893904 124.219604127 0.506662773301 124.333166316 0.697534282401 -9.87225300346 0.000322876075478 44.3529110224 0.639827866756 -62.5687287044 0.639722963604 117.486544958 0.000322876075477 44.3529110227 0.425881118051 142.703398358
10 0.14912377292 56.2917587906 0.558646359605 81.026494462 0.506953061156 120.203753565 0.639276883846 -65.2518033495 0.558646359605 81.026494462 0.149685311661 56.3044025603 0.506922033768 120.318458742 0.639170242706 114.804283195 0.506953061156 120.203753565 0.506922033768 120.318458742 0.697157519496 -15.360961425 0.000326241871947 39.450351271 0.639276883846 -65.2518033495 0.639170242706 114.804283195 0.000326241871946 39.4503512714 0.427535215474 140.120145187
10.025 0.147747587367 53.8388949988 0.559394201422 78.411666011 0.507231544087 116.191261451 0.638721326733 -67.9309408207 0.559394201422 78.411666011 0.148320856711 53.8529007865 0.507200616004 116.307103952 0.63861301319 112.125982299 0.507231544087 116.191261451 0.507200616004 116.307103952 0.696752227888 -20.8458453276 0.000329568880773 34.5517288442 0.638721326733 -67.9309408207 0.63861301319 112.125982299 0.000329568880772 34.5517288447 0.429195034775 137.53914039
10.05 0.146359483594 51.3879408266 0.560126663049 75.8004524137 0.507530655508 112.181823217 0.638161148491 -70.6062115994 0.560126663049 75.8004524137 0.146944399587 51.4033836571 0.507499827355 112.298797241 0.638051239901 109.451571933 0.507530655508 112.181823217 0.507499827355 112.298797241 0.69631640221 -26.3276407264 0.000332857242418 29.6570781107 0.638161148491 -70.6062115994 0.638051239901 109.451571933 0.000332857242416 29.6570781112 0.430860596208 134.960333321
10.075 0.144958062559 48.9391411006 0.560842954494 73.1929157601 0.507851643781 108.17512298 0.637596301573 -73.2776851303 0.560842954494 73.1929157601 0.145554515605 48.956090488 0.507820910555 108.293222613 0.637484887257 106.780982751 0.507851643781 108.17512298 0.507820910555 108.293222613 0.695848114713 -31.8071190801 0.000336107108337 24.7664220183 0.637596301573 -73.2776851303 0.637484887257 106.780982751 0.000336107108335 24.7664220187 0.432531920322 132.38367385
10.1 0.1435419481 46.49278739 0.561542324707 70.5891246689 0.50819568887 104.170833605 0.637026737829 -75.9454298538 0.561542324707 70.5891246689 0.144149802337 46.5113067081 0.508165039776 104.290052849 0.636913919242 104.114146363 0.50819568887 104.170833605 0.508165039776 104.290052849 0.695345519823 -37.2850871126 0.000339318636091 19.8797727714 0.637026737829 -75.9454298538 0.636913919242 104.114146363 0.000339318636089 19.8797727718 0.434209027911 129.80911235
10.125 0.142109789659 44.0492207064 0.562224063703 67.9891542516 0.50856389831 100.168616763 0.636452408534 -78.6095132379 0.562224063703 67.9891542516 0.142728882374 44.0693665104 0.50853331661 100.288949562 0.636338299402 101.450995296 0.50856389831 100.168616763 0.50853331661 100.288949562 0.694806858863 -42.7623866824 0.000342491984444 14.9971324978 0.636452408534 -78.6095132379 0.636338299402 101.450995296 0.000342491984442 14.9971324981 0.435891939962 127.23659968
10.15 0.140660265096 41.6088345643 0.56288750481 65.3930860946 0.508957303085 96.1681229887 0.635873264415 -81.2700018096 0.56288750481 65.3930860946 0.141290406185 41.6306558583 0.508926765943 96.2895632629 0.635757990844 98.7914629693 0.508957303085 96.1681229887 0.508926765943 96.2895632629 0.694230465034 -48.2398947072 0.00034562730846 10.1184939101 0.635873264415 -81.2700018096 0.635757990844 98.7914629693 0.000345627308458 10.1184939104 0.437580677596 124.666087165
10.175 0.13919208365 39.1720784545 0.563532027054 62.8010082604 0.509376853359 92.1689917374 0.635289255676 -83.9269611849 0.563532027054 62.8010082604 0.139833055132 39.1956158978 0.509346331694 92.2915334089 0.635172956225 96.1354836557 0.509376853359 92.1689917374 0.509346331694 92.2915334089 0.693614768738 -53.7185231489 0.000348724754627 5.24384096687 0.635289255676 -83.9269611849 0.635172956225 96.1354836557 0.000348724754625 5.24384096709 0.439275262019 122.097526586
10.2 0.13770398912 36.7394617826 0.564157057727 60.2130153062 0.509823414035 88.1708514302 0.634700332028 -86.5804560998 0.564157057727 60.2130153062 0.138355544685 36.7647468272 0.509792872378 88.2944884569 0.634583157754 93.4829924547 0.509823414035 88.1708514302 0.509792872378 88.2944884569 0.692958303322 -59.1992190604 0.000351784455996 0.373149534998 0.634700332028 -86.5804560998 0.634583157754 93.4829924547 0.000351784455993 0.373149535152 0.440975714459 119.530870157
10.225 0.136194763317 34.3115583366 0.564762075174 57.6292083196 0.510297760109 84.1733195028 0.634106442718 -89.2305504393 0.564762075174 57.6292083196 0.136856627925 34.3386122874 0.510267156465 84.2980459108 0.633988557186 90.8339252594 0.510297760109 84.1733195028 0.510267156465 84.2980459108 0.692259711339 -64.6829646955 0.000354806527361 -4.4936119425 0.634106442718 -89.2305504393 0.633988557186 90.8339252594 0.000354806527358 -4.49361194241 0.442682056114 116.966070521
10.25 0.134663229874 31.88901135 0.565346611829 55.0496949696 0.510800571782 80.1760024492 0.633507536561 -91.877307267 0.565346611829 55.0496949696 0.135335099393 31.9178443366 0.510769857493 80.3018123659 0.633389115822 88.1882187277 0.510800571782 80.1760024492 0.510769857493 80.3018123659 0.69151775142 -70.1707776792 0.000357791060473 -9.35648177326 0.633507536561 -91.877307267 0.633389115822 88.1882187277 0.00035779106047 -9.35648177322 0.444394308091 114.403080723
10.275 0.1331082585 29.4725392355 0.565910257555 52.4745895716 0.511332429277 76.1784958641 0.632903561974 -94.5207888538 0.565910257555 52.4745895716 0.133789799377 29.503149086 0.511301548897 76.305383553 0.632784794503 85.5458102517 0.511332429277 76.1784958641 0.511301548897 76.305383553 0.690731305842 -75.6637112349 0.000360738119304 -14.2155043351 0.632903561974 -94.5207888538 0.632784794503 85.5458102517 0.000360738119302 -14.2155043351 0.446112491345 111.841854207
10.3 0.131528769762 27.0629420746 0.566452663311 49.9040131641 0.511893807351 72.1803844853 0.632294467007 -97.1610567063 0.566452663311 49.9040131641 0.132219618733 27.0953130783 0.511862698517 72.3083443813 0.632175553611 82.9066379293 0.511893807351 72.1803844853 0.511862698517 72.3083443813 0.68989938889 -81.1628544595 0.000363647735344 -19.0707293881 0.632294467007 -97.1610567063 0.632175553611 82.9066379293 0.000363647735342 -19.0707293881 0.447836626615 109.282344798
10.325 0.12992374052 24.6611089561 0.566973545204 47.338093594 0.512485069437 68.1812422373 0.631680199384 -99.7981715954 0.566973545204 47.338093594 0.13062350434 24.6952105003 0.512453662754 68.3102689833 0.631561353069 80.2706405352 0.512485069437 68.1812422373 0.512453662754 68.3102689833 0.689021156125 -86.6693326396 0.000366519902946 -23.9222113789 0.631680199384 -99.7981715954 0.631561353069 80.2706405352 0.000366519902944 -23.922211379 0.449566734363 106.724506686
10.35 0.128292210124 22.2680262688 0.567472688962 44.7769656076 0.513106461391 64.1806322793 0.631060706535 -102.432193584 0.567472688962 44.7769656076 0.129000465315 22.3038113348 0.513074680317 64.3107207628 0.630942152345 77.6377574932 0.513106461391 64.1806322793 0.513074680317 64.3107207628 0.688095914634 -92.184307594 0.000369354574701 -28.7700087376 0.631060706535 -102.432193584 0.630942152345 77.6377574932 0.000369354574701 -28.7700087376 0.451302834705 104.168294421
10.375 0.126633287524 19.8847870638 0.567949954866 42.2207709432 0.513758104802 60.1781070575 0.630435935641 -105.063182054 0.567949954866 42.2207709432 0.127349580125 19.9221905639 0.513725865538 60.3092524498 0.630317910446 75.0079288478 0.513758104802 60.1781070575 0.513725865538 60.3092524498 0.687123134392 -97.7089780292 0.000372151656851 -33.6141831652 0.630435935641 -105.063182054 0.630317910446 75.0079288478 0.000372151656851 -33.6141831653 0.45304494734 101.613662891
10.4 0.124946159444 17.512601617 0.5684052832 39.669658421 0.51443998982 56.1732083685 0.629805833671 -107.691195735 0.5684052832 39.669658421 0.125670004758 17.5515385524 0.514407201216 56.3054061627 0.629688585932 72.3810952374 0.51443998982 56.1732083685 0.514407201216 56.3054061627 0.686102460824 -103.244579891 0.000374911004712 -38.4547989138 0.629805833671 -107.691195735 0.629688585932 72.3810952374 0.000374911004713 -38.4547989138 0.454793091482 99.060567318
10.425 0.123230099809 15.1528093336 0.568838700247 37.1237840252 0.515151967477 52.1654674325 0.629170347423 -110.316292731 0.568838700247 37.1237840252 0.123960982119 15.1931727508 0.515118530933 52.2987134843 0.629054136916 69.7571978666 0.515151967477 52.1654674325 0.515118530933 52.2987134843 0.68503372868 -108.792386688 0.000377632418124 -43.2919220556 0.629170347423 -110.316292731 0.629054136916 69.7571978666 0.000377632418125 -43.2919220556 0.456547285782 96.5089632419
10.45 0.121484480634 12.8068921514 0.569250324888 34.5833109709 0.515893741444 48.1544049845 0.628529423576 -112.93853055 0.569250324888 34.5833109709 0.122221852881 12.8485508733 0.515859550826 48.2886955524 0.628414521071 67.1361784801 0.515893741444 48.1544049845 0.515859550826 48.2886955524 0.683916977343 -114.353709771 0.000380315636899 -48.1256197415 0.628529423576 -112.93853055 0.628414521071 67.1361784801 0.0003803156369 -48.1256197415 0.458307548251 93.9588065093
10.475 0.119708784617 10.4764896158 0.569640375833 32.0484097516 0.516664859201 44.1395313835 0.627883008729 -115.557966125 0.569640375833 32.0484097516 0.120452068 10.519285719 0.516629800769 44.2748631708 0.627769695641 64.5179793355 0.516664859201 44.1395313835 0.516629800769 44.2748631708 0.682752467659 -119.929898539 0.000382960336275 -52.9559594449 0.627883008729 -115.557966125 0.627769695641 64.5179793355 0.000382960336277 -52.9559594449 0.46007389618 91.4100532628
10.5 0.117902619712 8.16341580834 0.570009179542 29.5192581562 0.517464702586 40.1203467482 0.627231049455 -118.17465585 0.570009179542 29.5192581562 0.118651203194 8.20716181882 0.517428654922 40.2567169453 0.627119617456 61.9025431775 0.517464702586 40.1203467482 0.517428654922 40.2567169453 0.681540700427 -125.522340533 0.000385566122372 -57.783008189 0.627231049455 -118.17465585 0.627119617456 61.9025431775 0.000385566122374 -57.783008189 0.461846346051 88.8626599287
10.525 0.116065735999 5.86967832749 0.570357178858 26.9960412498 0.518292477671 36.0963411215 0.626573492348 -120.788655599 0.570357178858 26.9960412498 0.116818975677 5.91415410189 0.518255311628 36.2337474489 0.62646424294 59.2898132115 0.518292477671 36.0963411215 0.518255311628 36.2337474489 0.680282436627 -131.132461406 0.00038813252764 -62.606831753 0.626573492348 -120.788655599 0.62646424294 59.2898132115 0.000388132527641 -62.606831753 0.463624913451 86.3165832066
10.55 0.114198045222 3.59749952398 0.570684942397 24.4789513059 0.519147203968 32.0669946711 0.625910284079 -123.400020759 0.570684942397 24.4789513059 0.11495526352 3.64244878337 0.519108782626 32.2054354237 0.625803528134 56.6797330773 0.519147203968 32.0669946711 0.519108782626 32.2054354237 0.678978719518 -136.761724713 0.000390659006322 -67.4274938515 0.625910284079 -123.400020759 0.625803528134 56.6797330773 0.000390659006323 -67.4274938515 0.465409612975 83.7717800574
10.575 0.112299643413 1.3493401963 0.570993174729 21.9681876803 0.520027702905 28.0317779322 0.625241371454 -126.008806256 0.570993174729 21.9681876803 0.113060128051 1.39446667898 0.51998788154 28.1712520243 0.625137428712 54.0722468237 0.520027702905 28.0317779322 0.51998788154 28.1712520243 0.677630898681 -142.411631496 0.000393144929942 -72.2450552825 0.625241371454 -126.008806256 0.625137428712 54.0722468237 0.000393144929943 -72.2450552825 0.46720045813 81.2282076929
10.6 0.110370837085 -0.872074057335 0.571282727361 19.4639566141 0.520932585577 23.9901520992 0.624566701468 -128.615066581 0.571282727361 19.4639566141 0.111133839756 -0.827110857361 0.520891211647 24.1306591096 0.624465900006 51.4672988825 0.520932585577 23.9901520992 0.520891211647 24.1306591096 0.676240656101 -148.083719604 0.000395589582829 -77.0595730361 0.624566701468 -128.615066581 0.624465900006 51.4672988825 0.000395589582829 -77.0595730362 0.468997461229 78.6858235643
10.625 0.108412173541 -3.06372365865 0.571554610565 16.966470951 0.521860239744 19.9415693741 0.623886221368 -131.218855822 0.571554610565 16.966470951 0.109176908247 -3.01931319745 0.521817152895 20.0831095929 0.623788897037 48.8648340418 0.521860239744 19.9415693741 0.521817152895 20.0831095929 0.674810034366 -153.779562724 0.000397992157726 -81.8710993565 0.623886221368 -131.218855822 0.623788897037 48.8648340418 0.000397992157725 -81.8710993566 0.470800633281 76.1445853508
10.65 0.106424475945 -5.22226291701 0.571810006036 14.475949755 0.52280881608 15.8854733795 0.623199878722 -133.820227685 0.571810006036 14.475949755 0.107190116883 -5.1788487735 0.522763848165 16.0280478553 0.623106374541 46.2647974212 0.52280881608 15.8854733795 0.522763848165 16.0280478553 0.673341467015 -159.500769039 0.000400351751515 -86.6796807493 0.623199878722 -133.820227685 0.623106374541 46.2647974212 0.000400351751513 -86.6796807494 0.472609983875 73.6044509491
10.675 0.104408883847 -7.34398490308 0.572050280398 11.9926178106 0.523776213669 11.8212996465 0.622507621483 -136.419235533 0.572050280398 11.9926178106 0.105174562772 -7.30207042973 0.52372918879 11.964910234 0.622418287006 43.6671344444 0.523776213669 11.8212996465 0.52372918879 11.964910234 0.671837811073 -165.248979486 0.000402667361122 -91.4853569251 0.622507621483 -136.419235533 0.622418287006 43.6671344444 0.00040266736112 -91.4853569252 0.474425521058 71.0653784612
10.7 0.102366899979 -9.42478341843 0.572276999532 9.51670498735 0.524760064767 7.74847618454 0.621809398062 -139.015932405 0.572276999532 9.51670498735 0.103131702927 -9.38493786049 0.524710799342 7.8931255936 0.621724588716 41.0717908138 0.524760064767 7.74847618454 0.524710799342 7.8931255936 0.670302381758 -171.025865526 0.000404937879667 -96.2881596701 0.621809398062 -139.015932405 0.621724588716 41.0717908138 0.000404937879664 -96.2881596702 0.476247251204 68.5273261836
10.725 0.100300444209 -11.4601123516 0.572491943702 7.04844544785 0.525757718862 3.66642414703 0.621105157406 -141.610371053 0.572491943702 7.04844544785 0.101063407458 -11.4229773945 0.525706021716 3.81211599203 0.621025233795 38.478712483 0.525757718862 3.66642414703 0.525706021716 3.81211599202 0.668738989288 -176.83312637 0.000407162092936 -101.088111635 0.621105157406 -141.610371053 0.621025233795 38.478712483 0.000407162092933 -101.088111635 0.478075178876 65.9902525951
10.75 0.0982119156344 -13.4449430105 0.572697123426 4.58807667847 0.526766226074 -0.425441399391 0.620394849075 -144.202603969 0.572697123426 4.58807667847 0.098972020762 -13.4112396683 0.526711898561 -0.278702549075 0.62032017626 35.8878456303 0.526766226074 -0.425441399391 0.526711898561 -0.278702549075 0.667151977701 177.327514421 0.000409338676288 -105.885225031 0.620394849075 -144.202603969 0.62032017626 35.8878456303 0.000409338676285 -105.885225031 0.479909306677 63.4541163449
10.775 0.0961042638483 -15.373720455 0.572894796013 2.13583831793 0.527782319963 -4.52771058794 0.619678423331 -146.792683417 0.572894796013 2.13583831793 0.0968604317354 -15.3442561433 0.527725156117 -4.37991915668 0.619609370076 33.299136631 0.527782319963 -4.52771058794 0.527725156117 -4.37991915668 0.665546265487 171.454313038 0.000411466192093 -110.679500232 0.619678423331 -146.792683417 0.619609370076 33.299136631 0.000411466192091 -110.679500232 0.481749635097 60.9188762403
10.8 0.0939810704744 -17.2403204699 0.57308748267 -0.308029241012 0.528802399833 -8.64097773566 0.618955831228 -149.380661463 0.57308748267 -0.308029241012 0.0947321540906 -17.2159960099 0.528742186553 -8.49212708949 0.618892769229 30.7125320291 0.528802399833 -8.64097773566 0.528742186553 -8.49212708949 0.663927387787 165.545510328 0.000413543087832 -115.470924259 0.618955831228 -149.380661463 0.618892769229 30.7125320291 0.000413543087831 -115.470924259 0.483596162342 58.3844912339
10.825 0.0918466420041 -19.0380096822 0.573277986027 -2.74328650326 0.529822512643 -12.765840185 0.618227024704 -151.966590011 0.573277986027 -2.74328650326 0.0925914178128 -19.0198258427 0.529759029919 -12.6159225785 0.618170327793 28.127978509 0.529822512643 -12.765840185 0.529759029919 -12.6159225785 0.662301539781 159.59933758 0.000415567695007 -120.259469167 0.618227024704 -151.966590011 0.618170327793 28.127978509 0.000415567695008 -120.259469166 0.485448884161 55.8509204106
10.85 0.0897061148688 -20.7594125101 0.57346940792 -5.16969680437 0.530838334674 -16.9028969894 0.617491956688 -154.550520834 0.57346940792 -5.16969680437 0.0904432726973 -20.7484755042 0.530771355856 -16.7519035114 0.617442000017 25.5454228657 0.530838334674 -16.9028969894 0.530771355856 -16.7519035114 0.660675620818 153.614023311 0.000417538228996 -125.045090295 0.617491956688 -154.550520834 0.617442000017 25.5454228657 0.000417538228999 -125.045090295 0.487307793651 53.3181229737
10.875 0.0875655733812 -22.3964902207 0.573665167183 -7.58702855286 0.531845153124 -21.0527474285 0.616750581206 -157.132505612 0.573665167183 -7.58702855286 0.0882937046363 -22.3940153174 0.531774445231 -20.9006679472 0.61670774041 22.9648119745 0.531845153124 -21.0527474285 0.531774445231 -20.9006679472 0.659057278662 147.58780114 0.000419452790034 -129.827724415 0.616750581206 -157.132505612 0.61670774041 22.9648119745 0.00041945279004 -129.827724415 0.489172881055 50.7860582307
10.9 0.0854321806554 -23.9405394662 0.573869017195 -9.9950578102 0.532837847845 -25.2159893396 0.616002853498 -159.712595965 0.573869017195 -9.9950578102 0.0861497648321 -23.9478515384 0.532763171928 -25.0628124461 0.615967503851 20.3860927598 0.532837847845 -25.2159893396 0.532763171928 -25.0628124461 0.657454953098 141.518918871 0.000421309365478 -134.607287746 0.616002853498 -159.712595965 0.615967503851 20.3860927598 0.000421309365487 -134.607287745 0.491044133548 48.2546855784
10.925 0.0833143217399 -25.382220329 0.574085062811 -12.3935712354 0.533810873485 -29.39321725 0.615248730142 -162.29084349 0.574085062811 -12.3935712354 0.0840197112874 -25.4007497295 0.533731985048 -29.2389302004 0.615221245696 17.8092121625 0.533810873485 -29.39321725 0.533731985048 -29.2389302004 0.655877917963 135.405648898 0.000423105833533 -139.383673857 0.615248730142 -162.29084349 0.615221245696 17.8092121625 0.000423105833546 -139.383673856 0.492921534997 45.7239644873
10.95 0.0812217568233 -26.7116271679 0.574317776294 -14.7823694199 0.534758242336 -33.5850202963 0.614488169186 -164.867299804 0.574317776294 -14.7823694199 0.0819131606212 -26.7428987984 0.534674891804 -33.429608953 0.614468921903 15.2341171065 0.534758242336 -33.5850202963 0.534674891804 -33.429608953 0.654336320471 129.246300028 0.000424839968625 -144.156751458 0.614488169186 -164.867299804 0.614468921903 15.2341171065 0.000424839968642 -144.156751456 0.494805065715 43.1938544855
10.975 0.0791657803256 -27.9184193191 0.574572011734 -17.1612706329 0.53567350823 -37.7919799176 0.613721130287 -167.442016582 0.574572011734 -17.1612706329 0.0798412463102 -27.9640321601 0.535585441493 -37.6354286886 0.613710489172 12.6607544634 0.53567350823 -37.7919799176 0.535585441493 -37.6354286886 0.65284121647 123.039230836 0.000426509448579 -148.92636209 0.613721130287 -167.442016582 0.613710489172 12.6607544634 0.000426509448599 -148.926362088 0.496694702191 40.6643151409
11 0.0771593787693 -28.9920326667 0.574853017406 -19.5301149958 0.536549751908 -42.0146673089 0.612947574868 -170.015045597 0.574853017406 -19.5301149958 0.0778167766617 -29.0536264104 0.536456710928 -41.8569590857 0.612945905099 10.0890710161 0.536549751908 -42.0146673089 0.536456710928 -41.8569590857 0.651404600058 116.782864648 0.000428111863774 -153.692317726 0.612947574868 -170.015045597 0.612945905099 10.0890710161 0.000428111863797 -153.692317725 0.498590416799 38.1353060435
11.025 0.0752173763479 -29.9219965583 0.575166445381 -21.8887690909 0.537379568317 -46.2536406238 0.612167466276 -172.586438771 0.575166445381 -21.8887690909 0.0758543819984 -30.0012014758 0.537281291804 -46.094756717 0.612175128339 7.51901342038 0.537379568317 -46.2536406238 0.537281291804 -46.094756717 0.650039425703 110.475706213 0.000429644728431 -158.454398304 0.612167466276 -172.586438771 0.612175128339 7.51901342037 0.000429644728457 -158.454398302 0.500492177488 35.6067867863
11.05 0.0733565519814 -30.6983822912 0.575518357666 -24.2371310065 0.538155056352 -50.5094419159 0.611380769957 -175.156248212 0.575518357666 -24.2371310065 0.0739706355684 -30.7967482558 0.538051280526 -50.3493619899 0.611398118797 4.95052816471 0.538155056352 -50.5094419159 0.538051280526 -50.3493619899 0.648759620773 104.116360136 0.000431105494148 -163.212349207 0.611380769957 -175.156248212 0.611398118797 4.95052816471 0.000431105494175 -163.212349205 0.502399947449 33.0787169449
11.075 0.0715957054853 -31.3124074216 0.575915227991 -26.5751358002 0.538867811641 -54.7825938131 0.610587453644 -177.724526273 0.575915227991 -26.5751358002 0.0721841266583 -31.4313084665 0.538758271069 -54.6212958172 0.610614837827 2.38356152819 0.538867811641 -54.7825938131 0.538758271069 -54.6212958172 0.647580086118 97.7035510765 0.000432491565792 -167.965878733 0.610587453644 -177.724526273 0.610614837827 2.38356152819 0.000432491565819 -167.965878731 0.504313684747 30.5510560564
11.1 0.0699556438048 -31.7572116825 0.576363938355 -28.902761352 0.539508923003 -59.0735959192 0.609787487554 179.708674408 0.576363938354 -28.902761352 0.0705154577534 -31.8977240298 0.539393351527 -58.9110560174 0.609825248459 -0.181940463919 0.539508923003 -59.0735959192 0.539393351527 -58.9110560174 0.646516682077 91.2361456952 0.00043380031981 -172.714655562 0.609787487554 179.708674408 0.609825248459 -0.181940463924 0.000433800319834 -172.714655561 0.506233341941 28.0237635971
11.125 0.068459052262 -32.0288019616 0.576871769278 -31.2200345537 0.54006897329 -63.3829209429 0.608980844611 177.143300845 0.576871769278 -31.2200345537 0.0689871314224 -32.1915566598 0.539947105043 -63.2191134404 0.609029315643 -2.74603208693 0.54006897329 -63.3829209429 0.539947105043 -63.2191134404 0.645586197084 84.7131762651 0.000435029124977 -177.458306283 0.608980844611 177.143300845 0.609029315643 -2.74603208693 0.000435029124997 -177.458306282 0.508158865658 25.4967989587
11.15 0.0671302124721 -32.1271325799 0.577446382736 -33.5270377602 0.540538045352 -67.7110105591 0.608167500669 174.579299655 0.577446382736 -33.5270377602 0.067623288823 -32.3121491394 0.540409615872 -67.5459078267 0.608227006517 -5.30876796606 0.540538045352 -67.7110105591 0.540409615872 -67.5459078267 0.644806295848 78.1338658048 0.000436175365564 177.803587008 0.608167500669 174.579299655 0.608227006517 -5.30876796606 0.000436175365577 177.803587009 0.510090196142 22.9701214232
11.175 0.0659945309781 -32.0572421913 0.578095796653 -35.8239154009 0.540905733931 -72.0582710122 0.607347434764 172.016616994 0.578095796653 -35.8239154009 0.0664492631889 -32.2637568894 0.540770481371 -71.8918434072 0.607418290704 -7.87020312851 0.540905733931 -72.0582710122 0.540770481371 -71.8918434072 0.644195443972 71.4976545069 0.000437236466825 173.071488974 0.607347434764 172.016616994 0.607418290704 -7.87020312851 0.000437236466828 173.071488974 0.512027266769 20.4436901372
11.2 0.0650778541883 -31.830314087 0.578828349887 -38.1108806146 0.541161164299 -76.4250684785 0.606520629383 169.455198499 0.578828349887 -38.1108806146 0.0654909217786 -32.0566250246 0.541018830736 -76.2572842621 0.606603140633 -10.4303930586 0.541161164299 -76.4250684785 0.541018830736 -76.2572842621 0.643772805876 64.8042271478 0.000438209922664 168.345913132 0.606520629383 169.455198499 0.606603140633 -10.4303930586 0.000438209922654 168.345913131 0.513970003513 17.9174640839
11.225 0.0644055686844 -31.4644743937 0.579652656687 -40.3882217447 0.541293018487 -80.8117242113 0.605687070751 166.894989221 0.579652656687 -40.3882217447 0.0647737915389 -31.7078327504 0.541143351333 -80.642549463 0.605781531889 -12.9893937558 0.541293018487 -80.8117242113 0.541143351333 -80.6425494631 0.643558112962 58.0535410667 0.000439093325269 163.627423727 0.605687070751 166.894989221 0.605781531889 -12.9893937558 0.000439093325243 163.627423726 0.515918324387 15.3914020542
11.25 0.0640015216351 -30.9851129302 0.580577549732 -42.6563084897 0.541289569922 -85.218509502 0.604846749135 164.335933554 0.580577549732 -42.6563084897 0.0643219978657 -31.2416928104 0.541132323437 -85.0479080307 0.604953443598 -15.5472617966 0.541289569922 -85.218509502 0.541132323437 -85.0479080307 0.643571499262 51.2458541954 0.000439884396421 158.916637343 0.604846749135 164.335933554 0.604953443598 -15.5472617966 0.000439884396378 158.916637341 0.51787213882 12.8654626169
11.275 0.0638868393732 -30.4245288767 0.581612011076 -44.9155974748 0.541138727292 -89.6456405004 0.603999659184 161.777975169 0.581612011076 -44.9155974748 0.0641570885565 -30.689503038 0.540973664195 -89.4735737508 0.604118858848 -18.1040543995 0.541138727293 -89.6456405004 0.540973664195 -89.4735737508 0.643833302236 44.3817525191 0.000440581020122 154.214224188 0.603999659184 161.777975169 0.604118858848 -18.1040543995 0.000440581020059 154.214224184 0.519831347002 10.3396040864
11.3 0.0640787628961 -29.8207857808 0.582765090608 -47.1666369774 0.540828088353 -94.0932729456 0.60314580028 159.221056931 0.582765090609 -47.1666369774 0.0642968568624 -30.0885194227 0.540654981525 -93.9196999011 0.603277765138 -20.6598294941 0.540828088353 -94.0932729456 0.540654981526 -93.9196999011 0.644363827063 37.4621762467 0.000441181276113 149.520909019 0.60314580028 159.221056931 0.603277765138 -20.6598294941 0.000441181276029 149.520909014 0.521795839166 7.8137844899
11.325 0.0645896429092 -29.2158044294 0.58404581208 -49.4100705144 0.540345004316 -98.5614968717 0.602285176923 156.665120823 0.58404581208 -49.4100705144 0.0647543045528 -29.4801559285 0.540163638604 -98.3863739539 0.602430154879 -23.214645794 0.540345004316 -98.5614968717 0.540163638604 -98.3863739539 0.645183073689 30.4884438877 0.000441683473785 144.837471659 0.602285176923 156.665120823 0.60243015488 -23.2146457939 0.000441683473681 144.837471653 0.52376549482 5.28796153327
11.35 0.0654262312195 -28.6528941917 0.585463067197 -51.6466389818 0.539676655325 -103.050331364 0.601417799146 154.110107862 0.585463067197 -51.6466389818 0.0655368847145 -28.9075865393 0.539486829411 -102.873612328 0.601576025933 -25.7685628739 0.539676655325 -103.050331364 0.539486829412 -102.873612328 0.646310427056 23.46227337 0.000442086185932 140.164747061 0.601417799146 154.110107862 0.601576025933 -25.7685628739 0.00044208618581 140.164747054 0.525740181912 2.7620925652
11.375 0.0665893653802 -28.1740666431 0.587025498958 -53.8771810382 0.538810137305 -107.559719454 0.600543682955 151.555958009 0.587025498959 -53.8771810381 0.0666461286494 -28.4130752695 0.538611665662 -107.381355276 0.60071538219 -28.3216412517 0.538810137305 -107.559719454 0.538611665662 -107.381355276 0.647764312375 16.3857993056 0.000442388281735 135.503624887 0.600543682955 151.555958009 0.60071538219 -28.3216412516 0.0004423882816 135.503624879 0.527719755941 0.236134540528
11.4 0.0680740777898 -27.817534097 0.58874137607 -56.1026314338 0.537732560281 -112.089523241 0.599662850807 149.002610075 0.588741376071 -56.1026314337 0.0680776981883 -28.0354329157 0.537525275173 -111.909462011 0.599848234212 -30.8739424742 0.537732560281 -112.089523241 0.537525275173 -111.909462011 0.649561818942 9.26158552625 0.000442588958333 130.855048569 0.599662850807 149.002610075 0.599848234212 -30.8739424741 0.000442588958193 130.85504856 0.529704058988 -2.28995601766
11.425 0.0698700879879 -27.6157456859 0.590618461069 -58.3240170266 0.536431157956 -116.639519368 0.598775332117 146.450001627 0.59061846107 -58.3240170265 0.0698218318784 -27.8079650245 0.536214911485 -116.457706172 0.598974599915 -33.4255292086 0.536431157956 -116.639519368 0.536214911485 -116.457706172 0.651718297884 2.09263207344 0.000442687770314 126.220013834 0.598775332117 146.450001627 0.598974599915 -33.4255292085 0.00044268777018 126.220013827 0.531692918681 -4.8162230568
11.45 0.0719625791558 -27.5941756466 0.592663875596 -60.5424502836 0.534893408024 -121.209394953 0.597881163815 143.898068883 0.592663875597 -60.5424502836 0.0718640925526 -27.7571482151 0.53466807419 -121.025771748 0.598094505312 -35.9764653386 0.534893408024 -121.209394953 0.53466807419 -121.025771748 0.654246941208 -5.11762405449 0.000442684656459 121.599566685 0.597881163815 143.898068883 0.598094505312 -35.9764653386 0.000442684656347 121.599566678 0.533686147074 -7.34271103448
11.475 0.0743331312551 -27.7709064522 0.594883967021 -62.7591201505 0.533107162336 -125.798744097 0.596980390925 141.346746603 0.594883967021 -62.7591201504 0.074186290628 -27.9021020546 0.53287263909 -125.613249597 0.597207985323 -38.5268160659 0.533107162337 -125.798744097 0.53287263909 -125.613249597 0.657158351539 -12.3653149235 0.000442579963078 116.994800814 0.596980390925 141.346746603 0.597207985323 -38.5268160659 0.000442579963009 116.99480081 0.53568353945 -9.8694649586
11.5 0.0769606861289 -28.156901349 0.597284181371 -64.9752802817 0.531060785623 -130.407065121 0.596073067205 138.795967978 0.597284181371 -64.9752802817 0.0767674561844 -28.2547699958 0.530816996886 -130.219634666 0.596315084643 -41.0766480169 0.531060785623 -130.407065121 0.530816996886 -130.219634666 0.660460113932 -19.646154759 0.000442374463319 112.406854484 0.596073067205 138.795967978 0.596315084643 -41.0766480169 0.000442374463319 112.406854484 0.53768487303 -12.3965304279
