! Generated from PyAEDT SolutionData; AEDT ExportNetworkData workaround
# GHz S MA R 50
9 0.215060129401 156.467506909 0.52851125958 -171.182449468 0.490518257429 -74.7103600153 0.658647727065 45.6669059031 0.52851125958 -171.182449468 0.21512750867 156.934839749 0.491158344567 -74.6318217369 0.658148527365 -134.188146394 0.490518257429 -74.7103600153 0.491158344567 -74.6318217369 0.719829928259 -149.01905958 0.000440538514274 15.8019017274 0.658647727065 45.6669059031 0.658148527365 -134.188146394 0.000440538514273 15.8019017271 0.364723859222 -115.61104391
9.025 0.213162319187 153.778995628 0.52909152997 -173.98223235 0.491261382215 -78.9684050973 0.658246040742 42.7587548757 0.52909152997 -173.98223235 0.213204522571 154.255351976 0.491905063729 -78.8902883905 0.65775167338 -137.09397775 0.491261382216 -78.9684050973 0.491905063728 -78.8902883906 0.718811255694 -154.830771065 0.000456312707611 11.8466928227 0.658246040749 42.7587548756 0.657751673384 -137.09397775 0.000456312708115 11.8466927192 0.366162142511 -118.323400734
9.05 0.211286787978 151.102894619 0.529687261111 -176.774205672 0.491973114546 -83.2198318463 0.657840561064 39.858583727 0.529687261112 -176.774205672 0.211302511733 151.588188334 0.492620096605 -83.1421395885 0.657351452386 -139.991812974 0.491973114548 -83.2198318463 0.492620096603 -83.1421395886 0.71783327737 -160.639000465 0.000472403699876 7.82720155646 0.657840561075 39.8585837268 0.657351452392 -139.991812974 0.000472403700625 7.82720139136 0.367606715894 -121.030838896
9.075 0.209434039998 148.43882091 0.530298772046 -179.558622231 0.492653505815 -87.4645687931 0.657431263544 36.9662450197 0.530298772048 -179.558622231 0.209421998995 148.932954023 0.493303484863 -87.3873029961 0.656947862852 -142.881802846 0.492653505817 -87.464568793 0.493303484861 -87.3873029962 0.716896223774 -166.44289934 0.000488791137729 3.74823804148 0.657431263557 36.9662450194 0.656947862859 -142.881802846 0.000488791138546 3.74823784726 0.369057535321 -123.733455064
9.1 0.207604472941 145.786392993 0.530926260069 177.664268021 0.493302715378 -91.7025490598 0.657018124942 34.0815943816 0.53092626007 177.664268021 0.207563396643 146.28925522 0.493955379032 -91.6257108447 0.656540899203 -145.76409467 0.49330271538 -91.7025490597 0.49395537903 -91.6257108447 0.716000158133 -172.24169771 0.000505455936187 -0.385611416405 0.657018124954 34.0815943813 0.65654089921 -145.76409467 0.000505455936959 -0.385611615673 0.370514560192 -126.43134404
9.125 0.205798387219 143.145229648 0.53156980645 174.894218876 0.493921010666 -95.9337104084 0.656601122918 31.2044904824 0.531569806452 174.894218876 0.20572701611 143.656698093 0.494576038584 -95.8572999811 0.656130552338 -148.638832373 0.493921010668 -95.9337104083 0.494576038582 -95.8572999811 0.715144977619 -178.034697691 0.000522380282079 -4.57000501306 0.65660112293 31.2044904822 0.656130552345 -148.638832373 0.000522380282744 -4.57000520057 0.371977753233 -129.124598797
9.15 0.204015993043 140.514948752 0.532229382222 172.130988694 0.494508766758 -100.157995368 0.656180235751 28.3347950015 0.532229382223 172.130988694 0.203913075556 141.034887776 0.495165831468 -100.082011996 0.655716810078 -151.506156597 0.49450876676 -100.157995368 0.495165831466 -100.082011996 0.714330414971 176.178732587 0.000539547612872 -8.80085685578 0.656180235761 28.3347950013 0.655716810084 -151.506156597 0.000539547613401 -8.80085702082 0.37344708039 -131.813310527
9.175 0.202257415587 137.895166168 0.532904853966 169.374341137 0.495066465433 -104.375351431 0.655755442082 25.4723725881 0.532904853967 169.374341137 0.202121705546 138.423427384 0.495725233133 -104.299793419 0.655299657548 -154.366204795 0.495066465434 -104.375351431 0.495725233132 -104.29979342 0.71355604054 170.399164686 0.000556942576679 -13.0743409695 0.655755442091 25.472372588 0.655299657553 -154.366204795 0.00055694257707 -13.0743411063 0.374922510715 -134.497568681
9.2 0.200522698492 135.285494781 0.533595989604 166.624045844 0.495594693679 -108.585731312 0.655326720723 22.617090816 0.533595989605 166.624045845 0.200352953071 135.821917156 0.49625482501 -108.510595983 0.654879077506 -157.219111321 0.49559469368 -108.585731312 0.496254825009 -108.510595983 0.712821264746 164.627115109 0.000574550978727 -17.3868895504 0.655326720729 22.6170908159 0.654879077509 -157.219111321 0.000574550978994 -17.3868896569 0.376404016253 -137.177461013
9.225 0.198811806006 132.685543761 0.534302464153 163.879879028 0.496094141703 -112.789093254 0.654894050478 19.7688201321 0.534302464153 163.879879028 0.198606784176 133.229953783 0.496755292492 -112.714376926 0.654455050605 -160.065007529 0.496094141704 -112.789093254 0.496755292491 -112.714376926 0.712125340984 158.863050046 0.000592359718867 -21.7351868832 0.654894050483 19.768820132 0.654455050608 -160.065007529 0.00059235971903 -21.7351869601 0.377891571933 -139.853073626
9.25 0.197124624073 130.094918081 0.535023865425 161.141624006 0.496565600436 -116.985401379 0.654457410023 16.9274338009 0.535023865425 161.141624006 0.196883085503 130.647129981 0.497227422412 -116.911099347 0.654027555631 -162.904021861 0.496565600437 -116.985401379 0.497227422411 -116.911099347 0.711467368997 153.107389574 0.000610356724027 -26.1161601142 0.654457410026 16.9274338008 0.654027555633 -162.904021861 0.000610356724112 -26.1161601641 0.379385155461 -142.524491016
9.275 0.195460960655 127.513218334 0.535759699675 158.409071669 0.497009958561 -121.174626074 0.65401677779 14.0928078455 0.535759699676 158.409071669 0.195181665017 128.073034332 0.497672100051 -121.100732589 0.65359656968 -165.736279934 0.497009958561 -121.174626074 0.497672100051 -121.100732589 0.710846298733 147.360511295 0.000628530878851 -30.5269678633 0.654016777791 14.0928078455 0.653596569681 -165.736279934 0.000628530878882 -30.52696789 0.38088474721 -145.191796118
9.3 0.193820545576 124.94004087 0.536509397164 155.682020894 0.497428199089 -125.356744397 0.653572131896 11.2648209851 0.536509397164 155.682020894 0.193502252214 125.507251432 0.498090305694 -125.283252651 0.653162068309 -168.561904634 0.497428199089 -125.356744397 0.498090305693 -125.283252651 0.710260934723 141.622753418 0.00064687195707 -34.9649874736 0.653572131897 11.2648209851 0.653162068309 -168.561904634 0.000646871957069 -34.9649874814 0.382390330111 -147.855070351
9.325 0.192203030157 122.374978239 0.537272317629 152.960278894 0.497821395522 -129.531740507 0.653123450087 8.4433545703 0.537272317629 152.960278894 0.191844498048 122.949362334 0.498483110762 -129.458642614 0.652724025659 -171.381016195 0.497821395522 -129.531740507 0.498483110762 -129.458642614 0.709709940984 135.894417289 0.000665370555587 -39.427801532 0.653123450087 8.4433545703 0.652724025659 -171.381016195 0.000665370555571 -39.4278015253 0.383901889551 -150.514393658
9.35 0.190607986843 119.817619942 0.538047755669 150.243661521 0.498190707616 -133.699606095 0.652670709699 5.62829251729 0.538047755668 150.243661521 0.190207974831 120.398945297 0.498851673566 -133.626893079 0.652282414544 -174.193732286 0.498190707616 -133.699606095 0.498851673567 -133.626893079 0.70919184647 130.17576939 0.000684018032667 -43.9131841543 0.652670709698 5.62829251731 0.652282414543 -174.193732286 0.000684018032649 -43.9131841374 0.385419413265 -153.169844558
9.375 0.189034909038 117.267553469 0.538834946012 147.531993513 0.498537376795 -137.860340827 0.65221388764 2.81952123995 0.538834946011 147.531993513 0.188592176277 117.855576806 0.499197234701 -137.788002605 0.651837206523 -177.000168089 0.498537376794 -137.860340827 0.499197234701 -137.788002605 0.708705051054 124.467042855 0.000702806451179 -48.4190874093 0.652213887638 2.81952123998 0.651837206522 -177.000168089 0.000702806451169 -48.419087386 0.386942891228 -155.821500181
9.4 0.187483211271 114.724365585 0.539633068679 144.825108699 0.498862721251 -142.013952777 0.651752960385 0.0169295817827 0.539633068678 144.825108699 0.186996517857 115.318832847 0.499521112123 -141.941978149 0.651388371949 -179.800436379 0.498862721251 -142.013952777 0.499521112124 -141.941978149 0.708247832052 118.768438529 0.000721728527377 -52.9436281557 0.651752960383 0.0169295818087 0.651388371948 -179.800436379 0.000721728527378 -52.9436281292 0.388472315556 -158.469436316
9.425 0.185952229824 112.187643826 0.540441254026 142.122850162 0.499168130767 -146.160458855 0.651287903981 -2.77959125268 0.540441254025 142.122850162 0.185420337585 112.788290393 0.49982469596 -146.088835491 0.650935880008 177.4053524 0.499168130767 -146.160458855 0.49982469596 -146.088835491 0.707818351246 113.080125628 0.000740777585397 -57.4850754848 0.651287903979 -2.77959125266 0.650935880007 177.4053524 0.00074077758541 -57.4850754578 0.390007680398 -161.11372745
9.45 0.18444122387 109.656978175 0.541258587664 139.425070349 0.499455061298 -150.299885219 0.650818694068 -5.57014776639 0.541258587664 139.425070349 0.183862897288 110.26352907 0.500109443075 -150.228599652 0.650479698737 174.617090064 0.499455061298 -150.299885219 0.500109443076 -150.228599652 0.707414662384 107.402242045 0.000759947517356 -62.0418388963 0.650818694066 -5.57014776637 0.650479698736 174.617090064 0.00075994751738 -62.0418388708 0.391548981838 -163.754446806
9.475 0.18294937716 107.131962863 0.542084115253 136.731631161 0.499725029362 -154.432267668 0.650345305897 -8.35484423797 0.542084115253 136.731631161 0.182323384433 107.744132952 0.500376871445 -154.361305284 0.650019795041 171.834670618 0.499725029362 -154.432267668 0.500376871445 -154.361305284 0.707034719113 101.734894356 0.000779232748721 -66.6124572797 0.650345305895 -8.35484423795 0.65001979504 171.834670618 0.000779232748753 -66.612457257 0.393096217787 -166.391666387
9.5 0.181475800273 104.612198252 0.542916847165 134.042403994 0.499979606273 -158.557652016 0.649867714362 -11.1337827893 0.542916847164 134.042403994 0.180800914485 105.229692443 0.500628554372 -158.48699705 0.649556134695 169.057990187 0.499979606273 -158.557652016 0.500628554372 -158.48699705 0.706676383275 96.0781575817 0.00079862820846 -71.1955887348 0.64986771436 -11.1337827893 0.649556134694 169.057990187 0.000798628208496 -71.195588716 0.394649387884 -169.025457012
9.525 0.180019533377 102.097292775 0.543755763007 131.357269753 0.500220412257 -162.67609444 0.649385894037 -13.9070634521 0.543755763007 131.357269753 0.179294533799 102.719806215 0.500866114592 -162.605729973 0.649088682343 166.286946951 0.500220412256 -162.67609444 0.500866114592 -162.605729973 0.706337433528 90.4320747553 0.000818129303394 -75.7900012331 0.649385894036 -13.9070634521 0.649088682343 166.286946951 0.000818129303429 -75.7900012184 0.396208493398 -171.65588835
9.55 0.178579549486 99.5868648761 0.544599816019 128.676118836 0.500449110487 -166.787661801 0.648899819212 -16.674784234 0.544599816019 128.676118836 0.177803222985 100.214083156 0.501091218291 -166.717569753 0.648617401496 163.521441085 0.500449110487 -166.787661801 0.501091218291 -166.717569753 0.706015574195 84.7966563446 0.000837731896087 -80.3945640967 0.648899819211 -16.674784234 0.648617401496 163.521441085 0.000837731896117 -80.3945640862 0.397773537125 -174.283028959
9.575 0.177154758125 97.0805449309 0.545447937314 125.998851094 0.500667401082 -170.892431933 0.648409463933 -19.4370411823 0.545447937314 125.998851094 0.176325900704 97.7121442993 0.50130556909 -170.822593067 0.648142254519 160.761374693 0.500667401082 -170.892431933 0.50130556909 -170.822593067 0.705708444287 79.1718795789 0.000857432285612 -85.0082402576 0.648409463933 -19.4370411823 0.648142254519 160.761374693 0.000857432285634 -85.0082402511 0.39934452329 -176.906946319
9.6 0.175744009356 94.5779771219 0.546299039992 123.325375758 0.50087701509 -174.990493909 0.647914802043 -22.1939284481 0.546299039992 123.325375758 0.174861427812 95.2136247014 0.501510902016 -174.920887832 0.647663202629 158.006651755 0.50087701509 -174.990493909 0.501510902016 -174.920887832 0.705413626618 73.5576877207 0.000877227190519 -89.6300792474 0.647914802043 -22.1939284481 0.647663202629 158.006651755 0.00087722719053 -89.6300792445 0.400921457448 -179.527706865
9.625 0.174346098071 92.078821241 0.547152023095 120.655611358 0.501079708499 -179.081948269 0.647415807222 -24.945538347 0.547152023095 120.655611358 0.17340861178 92.7181752594 0.501708977496 -179.012553434 0.64718020588 155.257178068 0.501079708499 -179.081948269 0.501708977496 -179.012553434 0.705128656926 67.9539893196 0.000897113733377 -94.2592108607 0.647415807222 -24.945538347 0.64718020588 155.257178068 0.000897113733375 -94.2592108607 0.40250434639 177.854623982
9.65 0.172959768486 89.5827544096 0.548005775428 117.989485609 0.501277256292 176.833092777 0.64691245303 -27.6919614203 0.548005775428 117.989485609 0.17196621132 90.2254644413 0.501901575404 176.902299063 0.646693223161 152.512861195 0.501277256292 176.833092777 0.501901575404 176.902299063 0.704851032939 62.3606574835 0.000917089426308 -98.894839433 0.64691245303 -27.6919614203 0.646693223161 152.512861195 0.000917089426294 -98.8948394354 0.404093198044 175.239981785
9.675 0.171583718765 87.0894727067 0.54885917922 115.326935295 0.501471446587 172.75450518 0.646404712941 -30.4332864929 0.54885917922 115.326935295 0.170532941124 87.7351799246 0.502090489181 172.823546749 0.646202212188 149.77361041 0.501471446587 172.75450518 0.502090489181 172.823546749 0.704578223315 56.7775291907 0.000937152156996 -103.536238674 0.646404712941 -30.4332864929 0.646202212188 149.77361041 0.000937152156971 -103.536238678 0.405688021381 172.628303061
9.7 0.170216605695 84.5986927007 0.54971111365 112.667906123 0.501664074865 168.68215291 0.645892560386 -33.169600731 0.54971111365 112.667906123 0.169107476665 85.24703014 0.502277520053 168.751054723 0.645707129499 147.03933665 0.501664074865 168.68215291 0.502277520053 168.751054723 0.704307676384 51.2044046689 0.000957300174722 -108.182746996 0.645892560387 -33.169600731 0.645707129499 147.03933665 0.000957300174689 -108.182747001 0.407288826323 170.019525254
9.725 0.168857049359 82.110152886 0.550560458217 110.012352584 0.501856938318 164.615887843 0.645375968785 -35.9009896974 0.550560458217 110.012352584 0.167688458988 82.7607457195 0.502464471369 164.684675978 0.645207930458 144.309952466 0.501856938318 164.615887843 0.502464471369 164.684675978 0.704036828639 45.6410468536 0.000977532076057 -112.833763283 0.645375968785 -35.9009896974 0.645207930458 144.309952466 0.000977532076017 -112.833763289 0.408895623646 167.413586709
9.75 0.167503637755 79.6236150304 0.551406095965 107.36023779 0.502051830324 160.555549677 0.644854911576 -38.6275374055 0.551406095966 107.36023779 0.166274499427 80.276080856 0.502653143057 160.624251314 0.644704569254 141.58537198 0.502051830324 160.555549677 0.502653143057 160.624251314 0.703763112937 40.0871809398 0.00099784678991 -117.488743049 0.644854911577 -38.6275374055 0.644704569254 141.58537198 0.000997846789866 -117.488743055 0.410508424895 164.810426647
9.775 0.166154931307 77.1388654432 0.552246916574 104.711533313 0.50225053506 156.50096587 0.644329362252 -41.3493263719 0.552246916575 104.711533313 0.164864184218 77.7928145837 0.502845326233 156.569609273 0.644196998911 138.865510836 0.50225053506 156.50096587 0.502845326233 156.569609273 0.703483966361 34.5424940318 0.00101824356171 -122.147194938 0.644329362253 -41.3493263719 0.644196998911 138.865510836 0.00101824356167 -122.147194943 0.412127242286 162.20998514
9.8 0.164809467239 74.6557161752 0.553081819298 102.066219021 0.502454822263 152.451951605 0.643799294381 -44.0664376671 0.553081819298 102.066219021 0.163456078959 75.3107519922 0.503042797945 152.520566105 0.643685171294 136.150286162 0.502454822263 152.451951605 0.503042797945 152.520566105 0.70319683773 29.0066348939 0.00103872193658 -126.808677521 0.643799294382 -44.0664376671 0.643685171295 136.150286162 0.00103872193653 -126.808677526 0.413752088624 159.61220309
9.825 0.163465763793 72.1740061671 0.55390971578 99.4242829044 0.502666442141 148.408309773 0.643264681632 -46.778950965 0.55390971578 99.4242829044 0.162048732888 72.8297253905 0.503247316077 148.476925742 0.643169037129 133.439616524 0.502666442141 148.408309773 0.503247316077 148.476925742 0.702899194724 23.4792137992 0.00105928174131 -131.472796362 0.643264681632 -46.778950965 0.643169037129 133.439616524 0.00105928174127 -131.472796366 0.415382977214 157.017022204
9.85 0.162122324251 69.6936023635 0.554729532731 96.7857209159 0.50288712043 144.369830976 0.642725497794 -49.4869445911 0.554729532731 96.7857209159 0.160640682976 70.3495954392 0.503460614391 144.438479809 0.642648546014 130.733421889 0.50288712043 144.369830976 0.503460614391 144.438479809 0.702588530636 17.959802472 0.00107992306526 -136.139201305 0.642725497794 -49.4869445911 0.642648546014 130.733421889 0.00107992306522 -136.139201308 0.417019921772 154.424384978
9.875 0.160777640774 67.2144008123 0.555540214499 94.1505368014 0.503118553594 140.33629355 0.642181716796 -52.1904955689 0.555540214499 94.1505368014 0.159230457796 67.8702522716 0.503684397726 140.405007632 0.642123646448 128.031623584 0.503118553594 140.33629355 0.503684397726 140.405007632 0.702262370752 12.4479341137 0.00110064623993 -140.807583971 0.642181716796 -52.1904955689 0.642123646448 128.031623584 0.00110064623991 -140.807583973 0.418662936342 151.834234676
9.9 0.159430198043 64.7363277704 0.556340725516 91.5187419445 0.503362404168 136.307463597 0.641633312717 -54.8896796655 0.556340725516 91.5187419445 0.157816581192 65.3916166258 0.503920337324 136.37627628 0.64159428585 125.334144262 0.503362404168 136.307463597 0.503920337324 136.37627628 0.701918278365 6.94310350288 0.00112145181746 -145.477675428 0.641633312717 -54.8896796655 0.64159428585 125.334144262 0.00112145181745 -145.477675429 0.420312035213 149.246515309
9.925 0.158078476708 62.2593408386 0.557130052652 88.8903552149 0.503620296221 132.283095037 0.641080259799 -57.5845714356 0.557130052652 88.8903552149 0.156397575734 62.9136410112 0.504170066292 132.352040603 0.641060410595 122.640907863 0.503620296221 132.283095037 0.504170066292 132.352040603 0.701553860469 1.44476715672 0.00114234054789 -150.149244024 0.641080259799 -57.5845714356 0.641060410595 122.640907863 0.00114234054788 -150.149244025 0.421967232839 146.661171622
9.95 0.156720956644 59.783430151 0.55790720749 86.2654028268 0.503893810933 128.262929664 0.640522532453 -60.2752442643 0.55790720749 86.2654028268 0.15497196597 60.4363109366 0.504435175173 128.332043295 0.64052196604 119.951839578 0.503893810933 128.262929664 0.504435175173 128.332043295 0.701166773152 -4.04765646083 0.00116331335535 -154.822093362 0.640522532453 -60.2752442643 0.64052196604 119.951839578 0.00116331335535 -154.822093362 0.423628543753 144.078149072
9.975 0.155356120053 57.3086196424 0.558671228518 83.6439182092 0.504184482277 124.246697213 0.639960105268 -62.9617704092 0.558671228518 83.6439182092 0.153538281499 57.9596462238 0.504717207618 124.316014951 0.639978896567 117.266865818 0.504184482277 124.246697213 0.504717207618 124.316014951 0.700754726735 -9.53478669769 0.00118437131319 -159.496060401 0.639960105268 -62.9617704092 0.639978896567 117.266865818 0.0011843713132 -159.496060401 0.425295982493 141.497393817
10 0.153982454401 54.8349684232 0.559421183282 81.0259418879 0.504493792764 120.234115433 0.639392953008 -65.6442210413 0.559421183282 81.0259418879 0.152095059866 55.4837024393 0.505017656131 120.303674143 0.639431145617 114.585914176 0.504493792764 120.234115433 0.505017656131 120.303674143 0.700315490716 -15.0172804543 0.00120551561811 -164.171013682 0.639392953008 -65.6442210413 0.639431145617 114.585914176 0.00120551561813 -164.17101368 0.426969563523 138.9188527
10.025 0.152598455236 52.3625722886 0.560156170496 78.4115213827 0.504823169255 116.224890165 0.638821050611 -68.3226662846 0.560156170496 78.4115213827 0.150640849325 53.0085724704 0.505337957881 116.29472749 0.638878655737 111.908913401 0.504823169255 116.224890165 0.505337957881 116.29472749 0.699846898568 -20.4958319207 0.00122674756325 -168.846851653 0.638821050611 -68.3226662846 0.638878655737 111.908913401 0.00122674756328 -168.846851652 0.428649301156 136.34247323
10.05 0.151202628899 49.8915653946 0.560875322149 75.8007111204 0.505173978805 112.218715422 0.638244373192 -70.9971752551 0.560875322149 75.8007111204 0.149174211472 50.5343882822 0.505679490536 112.288869741 0.638321368624 109.235793359 0.505173978805 112.218715422 0.505679490536 112.288869741 0.699346852454 -25.9711723235 0.0012480685104 -173.523501112 0.638244373192 -70.9971752551 0.638321368624 109.235793359 0.00124806851043 -173.523501111 0.430335209478 133.768203576
10.075 0.149793495172 47.4221221326 0.561577805623 73.193572364 0.505547524505 108.21527347 0.637662896031 -73.6678160994 0.561577805622 73.193572364 0.147693723799 48.0613228873 0.506043568117 108.28578385 0.637759225172 106.566485008 0.505547524505 108.21527347 0.506043568117 108.28578385 0.69881332794 -31.4440696958 0.00126947986115 -178.200915727 0.63766289603 -73.6678160994 0.637759225172 106.566485008 0.00126947986118 -178.200915726 0.432027302277 131.19599255
10.1 0.148369589882 44.9544592382 0.562262825846 70.5901731597 0.505945041314 104.214234912 0.637076594564 -76.3346560314 0.562262825846 70.5901731597 0.1461979822 45.5895925688 0.50643143682 104.285141054 0.63719216553 103.900920364 0.505945041314 104.214234912 0.50643143682 104.285141054 0.698244378759 -36.9153286821 0.00129098302714 177.120925342 0.637076594564 -76.3346560314 0.63719216553 103.900920364 0.00129098302717 177.120925343 0.433725592968 128.625789592
10.125 0.146929467516 42.4888381734 0.562929627526 67.990588303 0.506367691829 100.215258767 0.636485444378 -78.9977613695 0.562929627526 67.990588303 0.144685603451 43.1194593965 0.506844270802 100.286600955 0.636620129149 101.239032473 0.506367691829 100.215258767 0.506844270802 100.286600955 0.697638141725 -42.3857903865 0.00131257939916 172.442018738 0.636485444378 -78.9977613695 0.636620129149 101.239032473 0.00131257939919 172.442018739 0.435430094523 126.057544766
10.15 0.145471703876 40.0255678241 0.563577497469 65.3948993223 0.506816561982 96.217992551 0.635889421194 -81.6571975727 0.563577497469 65.3948993223 0.143155227736 40.651234082 0.507283167868 96.2898115947 0.636043054845 98.5807553822 0.506816561982 96.217992551 0.507283167869 96.2898115947 0.696992841859 -47.8563322738 0.00133427031526 167.762338127 0.635889421194 -81.6571975727 0.636043054845 98.5807553822 0.00133427031529 167.762338128 0.4371408194 123.491208739
10.175 0.143994898831 37.5650075587 0.564205767039 62.8031944821 0.507292656617 92.2220723514 0.635288500851 -84.3130292755 0.564205767039 62.8031944821 0.141605521237 38.1852792241 0.507749145066 92.2944095271 0.635460880856 95.9260241106 0.507292656617 92.2220723514 0.507749145066 92.2944095271 0.69630679782 -53.3278681291 0.00135605702754 163.081835338 0.635288500851 -84.3130292755 0.635460880856 95.9260241106 0.00135605702755 163.081835339 0.438857779474 120.92673278
10.2 0.142497679219 35.1075707004 0.564813814786 60.2155688041 0.507796894915 88.2271229052 0.634682659292 -86.9653203234 0.564813814786 60.2155688041 0.140035178864 35.722012999 0.508243134112 88.3000198916 0.634873544907 93.2747746215 0.507796894915 88.2271229052 0.508243134112 88.3000198916 0.695578427729 -58.8013480789 0.00137794066761 158.400441435 0.634682659292 -86.9653203234 0.634873544907 93.2747746215 0.00137794066763 158.400441435 0.440580985968 118.364068739
10.225 0.140978701942 32.6537284681 0.56540106927 57.6321241064 0.50833010564 84.2327576691 0.63407187254 -89.6141338067 0.56540106927 57.6321241064 0.13844292717 33.2619133592 0.50876597665 84.3062564817 0.634280984275 90.6269437944 0.50833010564 84.2327576691 0.50876597665 84.3062564817 0.694806255467 -64.2777586765 0.00139992221069 153.718067724 0.63407187254 -89.6141338067 0.634280984275 90.6269437944 0.00139992221069 153.718067724 0.442310449386 115.803169048
10.25 0.139436657349 30.2040144517 0.565967012134 55.0529690592 0.508893022161 80.2385788909 0.633456116679 -92.2595320947 0.565967012134 55.0529690592 0.136827527525 30.8055228094 0.509318419279 80.3127218119 0.633683135857 87.9824693984 0.508893022161 80.2385788909 0.509318419279 80.3127218119 0.693988917554 -69.7581230509 0.00142200243787 149.034606704 0.633456116679 -92.2595320947 0.633683135857 87.9824693984 0.00142200243787 149.034606704 0.444046179446 113.243986702
10.275 0.137870272951 27.7590296906 0.566511181466 52.4782192559 0.509486277212 76.2441776781 0.632835367832 -94.9015768691 0.566511181466 52.4782192559 0.135187779616 28.3534538404 0.509901108332 76.3190071836 0.633079936246 85.341290065 0.509486277212 76.2441776781 0.509901108332 76.3190071836 0.693125170683 -75.2435011146 0.00144418189677 144.349932961 0.632835367833 -94.9015768691 0.633079936246 85.341290065 0.00144418189677 144.349932961 0.445788185013 110.686475255
10.3 0.136278317574 25.3194484362 0.567033175472 49.9079972972 0.510110397358 72.2491340671 0.63220960213 -97.5403291568 0.567033175472 49.9079972972 0.133522525369 25.9063951076 0.510514584344 72.3246927499 0.632471321801 82.7033452614 0.510110397358 72.2491340671 0.510514584344 72.3246927499 0.692213900036 -80.7349898263 0.00146646086003 139.663904016 0.63220960213 -97.5403291568 0.632471321801 82.7033452614 0.00146646086001 139.663904016 0.447536474032 108.130588808
10.325 0.134659606031 22.8860246874 0.567532656534 47.3424328861 0.510765797121 68.2530170924 0.631578795684 -100.175849362 0.567532656534 47.3424328861 0.131830653372 23.4651184571 0.511159276204 68.329347582 0.631857228731 80.0685752644 0.510765797121 68.2530170924 0.511159276204 68.329347582 0.691254128449 -86.2337235004 0.00148883928164 134.976361137 0.631578795684 -100.175849362 0.631857228731 80.0685752644 0.00148883928162 134.976361137 0.449291053464 105.576282001
10.35 0.133013004426 20.4595995993 0.568009355676 44.7816629309 0.51145277273 64.2553848599 0.630942924559 -102.808197301 0.568009355676 44.7816629309 0.130111103929 21.0304869105 0.511835494913 64.3325297379 0.631237593175 77.4369211341 0.51145277273 64.2553848599 0.511835494913 64.3325297379 0.690245026569 -91.7408741506 0.00151131675094 130.287130116 0.630942924559 -102.808197301 0.631237593175 77.4369211341 0.00151131675092 130.287130115 0.451051929218 103.023510003
10.375 0.131337436218 18.0411098782 0.568463077487 42.2258316519 0.512171495455 60.2557846237 0.630301964735 -105.437432228 0.568463077487 42.2258316519 0.128362874841 18.60346374 0.512543426934 60.3337863357 0.630612351291 74.8083246879 0.512171495455 60.2557846237 0.512543426934 60.3337863357 0.689185924082 -97.2576518568 0.00153389244391 125.596022017 0.630301964735 -105.437432228 0.630612351291 74.8083246879 0.00153389244389 125.596022017 0.452819106085 100.472228505
10.4 0.129631889165 15.6315972896 0.568893705561 39.6750906884 0.512922004479 56.2537528712 0.629655892074 -108.063612873 0.568893705561 39.6750906884 0.126585028092 16.1851227786 0.513283127086 56.3326536346 0.629981439343 72.1827284741 0.512922004479 56.2537528712 0.513283127086 56.3326536346 0.688076322132 -102.785305138 0.00155656507165 120.902833919 0.629655892074 -108.063612873 0.629981439343 72.1827284741 0.00155656507163 120.902833918 0.454592587672 97.9223937095
10.425 0.127895423342 13.2322194226 0.569301208477 37.1295991998 0.513704199277 52.2488154182 0.629004682282 -110.68679747 0.569301208477 37.1295991998 0.124776697574 13.776660131 0.514054510937 52.3286571255 0.629344793803 69.5600757468 0.513704199277 52.2488154182 0.514054510937 52.3286571255 0.686915907063 -108.325121313 0.00157933282591 116.207349631 0.629004682283 -110.68679747 0.629344793803 69.5600757468 0.00157933282589 116.207349631 0.456372376335 95.3739623204
10.45 0.126127180379 10.8442618686 0.569685646392 34.5895239566 0.514517831454 48.2404875173 0.628348310868 -113.307043787 0.569685646392 34.5895239566 0.122937098051 11.3794074732 0.514857346662 48.3213116353 0.628702351447 66.9403104388 0.514517831454 48.2404875173 0.514857346662 48.3213116353 0.685704565567 -113.878426827 0.00160219332131 111.509340427 0.628348310868 -113.307043787 0.628702351447 66.9403104388 0.00160219332129 111.509340426 0.458158473107 92.8268915371
10.475 0.124326394166 8.46915199515 0.57004717827 32.0550394126 0.515362496008 44.2282739843 0.627686753098 -115.924409155 0.57004717827 32.0550394126 0.121065535597 8.99484715262 0.515691246324 44.3101214487 0.628054049462 64.323377136 0.515362496008 44.2282739843 0.515691246324 44.3101214487 0.684442401399 -119.446587522 0.00162514353419 106.808565767 0.627686753098 -115.924409155 0.628054049462 64.323377136 0.00162514353418 106.808565767 0.459950877632 90.2811390437
10.5 0.12249240324 6.10847451076 0.570386069809 29.5263277528 0.516237621977 40.2116693459 0.627019983952 -118.538950502 0.570386069809 29.5263277528 0.119161419731 6.62462932471 0.516555656545 40.2945804513 0.62739982556 61.7092210508 0.516237621977 40.2116693459 0.516555656545 40.2945804513 0.683129753744 -125.031008816 0.00164817973791 102.104774052 0.627019983952 -118.538950502 0.62739982556 61.7092210508 0.0016481797379 102.104774052 0.461749588092 87.736663
10.525 0.120624665163 3.76398904141 0.570702702094 27.0035789064 0.517142462439 36.1901580143 0.626347978075 -121.150724379 0.570702702094 27.0035789064 0.117224277574 4.27059139538 0.517449848521 36.2741722987 0.626739618091 59.0977879954 0.517142462439 36.1901580143 0.517449848521 36.2741722987 0.681767217378 -130.633135778 0.00167129743434 97.3977033857 0.626347978075 -121.150724379 0.626739618091 59.0977879954 0.00167129743433 97.3977033856 0.463554601134 85.1934220322
10.55 0.118722773197 1.43764995739 0.570997581029 24.486990517 0.518076083831 32.1632144932 0.625670709724 -123.759786988 0.570997581029 24.486990517 0.115253770359 1.9347800628 0.518372907359 32.2483706186 0.626073366171 56.4890243544 0.518076083831 32.1632144932 0.518372907359 32.2483706186 0.68035566473 -136.254453039 0.00169449128147 92.6870823808 0.625670709724 -123.759786988 0.626073366171 56.4890243544 0.00169449128147 92.6870823807 0.465365911794 82.6513752239
10.575 0.11678647566 -0.868371290365 0.571271347578 21.9767678569 0.51903735455 28.1303036225 0.624988152719 -126.366194215 0.571271347578 21.9767678569 0.113249712692 -0.380523714171 0.519323720702 28.2166392491 0.62540100981 53.8828770573 0.51903735455 28.1303036225 0.519323720702 28.2166392491 0.67889626997 -141.896484522 0.00171775501707 87.9726309984 0.624988152719 -126.366194215 0.62540100981 53.8828770573 0.00171775501707 87.9726309983 0.467183513419 80.1104821055
10.6 0.114815698408 -3.15166104974 0.571524788838 19.4731236754 0.520024932826 24.0908808667 0.624300280381 -128.970001653 0.571524788838 19.4731236754 0.111212095034 -2.67277646717 0.520300966622 24.178432522 0.624722490049 51.2792935501 0.520024932826 24.0908808667 0.520300966622 24.178432522 0.677390535204 -147.560792943 0.0017410813781 83.2540614381 0.624300280381 -128.970001653 0.624722490049 51.2792935501 0.0017410813781 83.2540614381 0.469007397584 77.5707026448
10.625 0.112810570936 -5.40953527869 0.571758849994 16.9762779654 0.521037253841 20.044392655 0.623607065481 -131.571264633 0.571758849994 16.9762779654 0.109141109961 -4.93914031211 0.521303100746 20.1331955974 0.624037749102 48.6782217661 0.521037253841 20.044392655 0.521303100746 20.1331955974 0.675840318898 -153.248979035 0.00176446201602 78.531079086 0.623607065481 -131.571264633 0.624037749102 48.6782217661 0.00176446201602 78.5310790861 0.47083755401 75.0319972362
10.65 0.110771456685 -7.63900800612 0.571974647137 14.4864576349 0.522072516073 15.9902767815 0.622908480178 -134.170038249 0.571974647137 14.4864576349 0.107037182811 -7.17644699495 0.522328342631 16.0803648575 0.62334673051 46.0796100963 0.522072516073 15.9902767815 0.522328342631 16.0803648575 0.674247866576 -158.962680436 0.00178788740772 73.8033835285 0.622908480178 -134.170038249 0.62334673051 46.0796100963 0.00178788740772 73.8033835285 0.47267397047 72.4943266899
10.675 0.108698988238 -9.83675618008 0.572173480989 12.0038960646 0.523128666887 11.9279628726 0.622204495958 -136.766377387 0.572173480989 12.0038960646 0.104901007486 -9.38115750329 0.523374661357 12.019368368 0.622649379297 43.4834073582 0.523128666887 11.9279628726 0.523374661357 12.019368368 0.672615843864 -164.703570204 0.00181134676231 69.0706696424 0.622204495958 -136.766377387 0.622649379297 43.4834073582 0.00181134676231 69.0706696424 0.474516632698 69.9576522206
10.7 0.106594108158 -11.9990806889 0.572356851497 9.52883253446 0.524203387351 7.85687293217 0.62149508358 -139.360336748 0.572356851497 9.52883253447 0.102733588253 -11.5493168899 0.524439760363 7.9496264163 0.621945642135 40.8895627637 0.524203387351 7.85687293217 0.524439760363 7.9496264163 0.670947371884 -170.473354874 0.00183482792351 64.3326287714 0.62149508358 -139.360336748 0.621945642135 40.8895627637 0.00183482792351 64.3326287714 0.476365524287 67.4219354357
10.725 0.104458116375 -14.1218634313 0.572526473295 7.06151149817 0.525294076327 3.77642197345 0.620780213008 -141.951970876 0.572526473295 7.06151149817 0.100536288546 -13.6765040321 0.525521061544 3.87055213701 0.621235467517 38.2980258858 0.525294076327 3.77642197345 0.525521061544 3.87055213701 0.669246064983 -176.273772005 0.00185831726792 59.5889499993 0.620780213008 -141.951970876 0.621235467517 38.2980258858 0.00185831726792 59.5889499993 0.478220626586 64.8871383229
10.75 0.102292725109 -16.2005204631 0.57268429199 4.60218168327 0.52639783385 -0.313981250371 0.620059853358 -144.541334185 0.572684291991 4.60218168327 0.0983108879103 -15.757776196 0.526615688639 -0.218447765185 0.620518805935 35.7087466236 0.526397833851 -0.313981250371 0.526615688639 -0.218447765185 0.66751607072 177.893412873 0.00188179959924 54.8393215315 0.620059853358 -144.541334185 0.620518805935 35.7087466236 0.00188179959924 54.8393215315 0.480081918583 62.3532232371
10.775 0.100100122471 -18.2299514923 0.572832501206 2.15109499307 0.527511443866 -4.41493340676 0.619333972842 -147.12848098 0.572832501206 2.15109499307 0.0960596484058 -17.7876085257 0.527720449974 -4.3179721836 0.619795610069 33.1216751661 0.527511443866 -4.41493340676 0.527720449974 -4.3179721836 0.665762111981 172.026409981 0.00190525803866 50.0834321982 0.619333972842 -147.12848098 0.619795610069 33.1216751661 0.00190525803865 50.0834321982 0.48194937679 59.8201528869
10.8 0.0978830459715 -20.2044863674 0.57297356029 -0.291494815731 0.528631356395 -8.52703562259 0.618602538714 -149.713465482 0.57297356029 -0.291494815733 0.0937853919331 -19.7598289771 0.528831820619 -8.42862465643 0.619065834979 30.5367619536 0.528631356395 -8.52703562259 0.528831820619 -8.42862465643 0.663989530997 166.123409785 0.00192867391163 45.3209730925 0.618602538714 -149.713465482 0.619065834979 30.5367619536 0.00192867391163 45.3209730926 0.483822975107 57.28789032
10.825 0.0956448673046 -22.1178297578 0.573110212577 -2.72533370706 0.529753669225 -12.6508923885 0.617865517221 -152.296341856 0.573110212577 -2.72533370707 0.091491590112 -21.6675498375 0.529945924082 -12.5510122796 0.618329438303 27.9539576373 0.529753669225 -12.6508923885 0.529945924082 -12.5510122796 0.662204334977 160.182588355 0.0019520266317 40.5516393595 0.617865517221 -152.296341856 0.618329438303 27.9539576373 0.0019520266317 40.5516393596 0.485702684691 54.7563989078
10.85 0.0933896897999 -23.9630060389 0.573245504033 -5.1501692202 0.530874109262 -16.7871103151 0.617122873568 -154.877164228 0.573245504033 -5.1501692202 0.0891824684543 -23.5030979087 0.531058513641 -16.6857444724 0.617586380461 25.3732130371 0.530874109262 -16.7871103151 0.531058513641 -16.6857444724 0.660413242919 154.202113695 0.00197529358163 35.7751321521 0.617122873568 -154.877164228 0.617586380461 25.3732130371 0.00197529358163 35.7751321523 0.487588473798 52.2256423298
10.875 0.0911224599338 -25.7323075483 0.573382802079 -7.56575263497 0.531988013696 -20.936296728 0.616374571879 -157.455986714 0.573382802079 -7.56575263497 0.0868631266126 -25.2579468051 0.5321649535 -20.8334315813 0.61683662487 22.7944790964 0.531988013696 -20.936296728 0.5321649535 -20.8334315813 0.658623733058 148.180153154 0.00199844999283 30.9911607737 0.616374571879 -157.455986714 0.61683662487 22.7944790964 0.00199844999284 30.9911607739 0.489480307629 49.6955845563
10.9 0.088849094128 -27.4172510022 0.573525814335 -9.97184147804 0.533090311189 -25.099058085 0.615620575185 -160.032863441 0.573525814335 -9.97184147803 0.0845396763833 -26.9226567963 0.533260199941 -24.9946833084 0.616080138155 20.2177068344 0.533090311189 -25.099058085 0.533260199941 -24.9946833084 0.65684409026 142.114882048 0.0020214688239 26.1994450257 0.615620575184 -160.032863441 0.616080138155 20.2177068344 0.00202146882391 26.1994450259 0.491378148155 47.1661898302
10.925 0.0865766216909 -29.0085490785 0.573678606968 -12.3682024002 0.534175503304 -29.2759982043 0.614860845408 -162.607848567 0.573678606968 -12.3682024001 0.0822193987914 -28.4868304042 0.534338782727 -29.1701069497 0.615316890364 17.6428472956 0.534175503304 -29.2759982043 0.534338782727 -29.1701069497 0.655083452464 136.004493601 0.0020443206395 21.3997177835 0.614860845407 -162.607848567 0.615316890364 17.6428472956 0.00204432063952 21.3997177837 0.493281953923 44.6374226482
10.95 0.084313344035 -30.4961071368 0.57384562225 -14.7546144533 0.535237646475 -33.467716285 0.614095343377 -165.180996307 0.57384562225 -14.7546144533 0.0799109208437 -29.9390957745 0.535394787026 -33.3603054276 0.614546855195 15.0698514967 0.535237646475 -33.467716285 0.535394787026 -33.3603054276 0.653351855117 129.847210336 0.00206697349111 16.5917278219 0.614095343377 -165.180996307 0.614546855195 15.0698514967 0.00206697349114 16.5917278221 0.495191679857 42.1092477407
10.975 0.0820690090848 -31.8690588799 0.574031694859 -17.1308727937 0.53627033485 -37.6748047089 0.613324028854 -167.75236095 0.574031694859 -17.1308727937 0.0776244111817 -31.2671349034 0.536421836195 -37.5658751051 0.613770010211 12.4986703687 0.53627033485 -37.6748047089 0.536421836195 -37.5658751051 0.651660272278 123.64129705 0.00208939280135 11.7752429156 0.613324028854 -167.75236095 0.613770010211 12.4986703687 0.00208939280139 11.7752429158 0.497107277036 39.5816300504
11 0.0798549978292 -33.1158595073 0.574242066379 -19.4967928327 0.537266684376 -41.8978466076 0.612546860586 -170.321996885 0.574242066379 -19.4967928326 0.0753717916089 -32.4577802358 0.537413075803 -41.7874033661 0.612986337064 9.92925469717 0.537266684376 -41.8978466076 0.537413075803 -41.7874033661 0.650020652862 117.385075463 0.0021115412542 6.95005323808 0.612546860586 -170.321996885 0.612986337063 9.92925469718 0.00211154125426 6.95005323827 0.49902869245 37.0545347095
11.025 0.0776845170154 -34.2244604239 0.574482397338 -21.8522148499 0.538219318588 -46.1374131833 0.611763796385 -172.88995862 0.574482397338 -21.8522148498 0.0731669579281 -33.4972108514 0.538361159333 -46.02546595 0.61219582171 7.36155505728 0.538219318588 -46.1374131833 0.538361159333 -46.02546595 0.648445950197 111.076940678 0.00213337869382 2.11597508336 0.611763796385 -172.88995862 0.61219582171 7.36155505729 0.00213337869388 2.1159750835 0.50095586874 34.5279270163
11.05 0.0755727877059 -35.1825953276 0.574758776052 -24.1970090761 0.539120356599 -50.3940607705 0.610974793235 -175.456300802 0.574758776052 -24.197009076 0.0710259982631 -34.3712877847 0.539258236082 -50.2806240294 0.611398454632 4.79552174533 0.539120356599 -50.3940607705 0.539258236082 -50.2806240294 0.646950142794 104.715379502 0.00215486203484 -2.72714506521 0.610974793235 -175.456300802 0.611398454632 4.79552174534 0.00215486203492 -2.72714506513 0.502888743913 32.0017724096
11.075 0.0735372135689 -35.9782123486 0.575077723411 -26.5310812383 0.539961403853 -54.6683276303 0.610179807442 -178.021078237 0.575077723411 -26.5310812382 0.0689673896483 -35.0660754148 0.540095941795 -54.5534210198 0.61059423104 2.23110470568 0.539961403853 -54.6683276303 0.540095941795 -54.5534210198 0.645548243935 98.2989907186 0.00217594518821 -7.57942609871 0.610179807442 -178.021078237 0.61059423104 2.23110470569 0.00217594518828 -7.5794260987 0.504827251033 29.4760364422
11.1 0.0715975052266 -36.6000887189 0.575446192669 -28.854378547 0.540733546279 -58.9607304709 0.609378794817 179.415654086 0.575446192669 -28.8543785469 0.0670121439353 -35.5685992404 0.540865392689 -58.8443791178 0.60978315108 -0.331746547041 0.540733546278 -58.9607304709 0.540865392689 -58.8443791178 0.644256297399 91.8265072893 0.00219657900638 -12.4409474607 0.609378794817 179.415654086 0.609783151079 -0.33174654703 0.00219657900646 -12.4409474608 0.506771317883 26.9506847531
11.125 0.0697757280466 -37.0386598031 0.575871563178 -31.1668960826 0.541427348526 -63.2717606889 0.608571710911 176.853840981 0.575871563178 -31.1668960825 0.0651838623351 -35.8678846148 0.541557183533 -63.153995561 0.608965220019 -2.89308301069 0.541427348525 -63.2717606889 0.541557183533 -63.153995561 0.643091356366 85.296820477 0.00221671125308 -17.3117439272 0.60857171091 176.853840981 0.608965220019 -2.89308301068 0.00221671125315 -17.3117439273 0.508720866599 24.4256830377
11.15 0.0680962314754 -37.2870784748 0.576361626937 -33.4686835184 0.542032857039 -67.6018803346 0.607758511298 174.293427042 0.576361626937 -33.4686835184 0.0635086456281 -35.9562988283 0.542161390553 -67.4827386129 0.608140448429 -5.45295628369 0.542032857039 -67.6018803345 0.542161390553 -67.4827386129 0.642071442296 78.709005771 0.00223628660275 -22.1917999817 0.607758511298 174.293427042 0.608140448429 -5.45295628368 0.0022362866028 -22.1917999818 0.510675813269 21.9009970169
11.175 0.0665854105782 -37.3424883839 0.576924566769 -35.7598520845 0.542539608766 -71.951517806 0.606939151922 171.734356627 0.576924566769 -35.7598520844 0.0620147973989 -35.8311718313 0.542667579935 -71.8310432784 0.607308852348 -8.0114186587 0.542539608766 -71.951517806 0.542667579935 -71.8310432784 0.641215480401 72.062350435 0.00225524667582 -27.0810437908 0.606939151922 171.734356627 0.607308852348 -8.0114186587 0.00225524667584 -27.0810437909 0.5126360675 19.3765924045
11.2 0.0652712485746 -37.2074415965 0.577568924905 -38.0405816484 0.542936646338 -76.3210632842 0.606113589503 169.176573841 0.577568924905 -38.0405816484 0.0607322560081 -35.4965926986 0.543064822784 -76.1993067605 0.60647045342 -10.5685232222 0.542936646338 -76.3210632842 0.543064822784 -76.1993067605 0.640543208241 65.3563824019 0.00227353011618 -31.9793407927 0.606113589503 169.176573841 0.606470453421 -10.5685232222 0.00227353011615 -31.9793407926 0.514601531948 16.852434873
11.225 0.0641825978383 -36.8913185292 0.578303560781 -40.3111277504 0.543212540596 -80.7108639282 0.605281782017 166.620022517 0.578303560781 -40.3111277506 0.059691704734 -34.9651723058 0.543341717395 -80.5878836802 0.605625279025 -13.1243239603 0.543212540596 -80.7108639282 0.543341717394 -80.5878836802 0.640075053978 58.5909001309 0.00229107271775 -36.886486929 0.605281782017 166.620022517 0.605625279026 -13.1243239603 0.00229107271767 -36.8864869286 0.5165721018 14.328490018
11.25 0.0633481812395 -36.4115274421 0.579137596945 -42.5718283911 0.543355421324 -85.1212188583 0.604443689259 164.064646203 0.579137596945 -42.5718283914 0.0589233458476 -34.2594478681 0.543486419711 -84.9970810838 0.604773362368 -15.6788758708 0.543355421325 -85.1212188583 0.54348641971 -84.9970810838 0.639831981012 51.7660029284 0.00230780760721 -41.8022015644 0.60444368926 164.064646203 0.604773362368 -15.6788758709 0.00230780760706 -41.8022015636 0.518547664217 11.8047233212
11.275 0.0627953385871 -35.7941975226 0.580080352139 -44.8231103302 0.543353017067 -89.5523739631 0.603599273491 161.51038815 0.580080352138 -44.8231103306 0.0584553861411 -33.4125254787 0.54348668283 -89.4271532765 0.603914742548 -18.2322350828 0.543353017068 -89.5523739631 0.543486682829 -89.4271532765 0.639835296091 44.8821211138 0.00232366549001 -46.7261201587 0.603599273493 161.51038815 0.603914742549 -18.2322350829 0.00232366548979 -46.7261201573 0.520528097733 9.28110011118
11.3 0.0625486009608 -35.0740710293 0.581141260881 -47.0654946149 0.543192704826 -94.0045165775 0.602748500181 158.957191298 0.581141260879 -47.0654946155 0.0583123612248 -32.4675725167 0.543329906364 -93.8782965275 0.603049464593 -20.7844589825 0.543192704827 -94.0045165776 0.543329906363 -93.8782965275 0.640106418573 37.9400452914 0.00233857496646 -51.6577867767 0.602748500184 158.957191298 0.603049464594 -20.7844589825 0.00233857496615 -51.6577867746 0.52251327159 6.75758552335
11.325 0.0626282366167 -34.293381567 0.582329779276 -49.2996010204 0.542861570378 -98.4777700888 0.601891338855 156.40499827 0.582329779273 -49.2996010212 0.0585135024781 -31.475931802 0.543003196393 -98.3506437042 0.602177579456 -23.3356063468 0.54286157038 -98.4777700888 0.543003196392 -98.3506437041 0.640666609392 30.9409538814 0.00235246292422 -56.5966465443 0.601891338858 156.40499827 0.602177579457 -23.3356063469 0.00235246292382 -56.5966465413 0.524503045027 4.23414445849
11.35 0.0630489554797 -33.4996873168 0.583655277265 -51.5261510571 0.542346479827 -102.97218854 0.601027764048 153.853751364 0.583655277261 -51.5261510582 0.0590713924712 -30.493929959 0.542493436628 -102.844258904 0.601299143965 -25.8857374854 0.542346479829 -102.97218854 0.542493436626 -102.844258904 0.641536659401 23.8864379749 0.00236525501238 -61.5420381842 0.601027764052 153.853751364 0.601299143967 -25.8857374855 0.00236525501191 -61.5420381802 0.52649726651 1.71074153955
11.375 0.0638189634084 -32.7428731435 0.5851269182 -53.7459691845 0.541634162837 -107.48775131 0.600157756389 151.303392554 0.585126918194 -53.7459691857 0.0599911341258 -29.5788093328 0.541787371226 -107.359132168 0.600414220732 -28.4349143896 0.541634162839 -107.48775131 0.541787371225 -107.359132168 0.642736538242 16.7785225195 0.00237687620098 -66.4931867899 0.600157756395 151.303392555 0.600414220734 -28.4349143897 0.00237687620046 -66.4931867851 0.52849577289 -0.812658932494
11.4 0.0649395111466 -32.0717617027 0.58675352738 -55.9599818707 0.540711307787 -112.02435797 0.599281303806 148.753863494 0.586753527373 -55.9599818721 0.0612701697823 -28.7844828658 0.540871699521 -111.895174358 0.599522878004 -30.9832008903 0.540711307788 -112.02435797 0.540871699519 -111.895174358 0.644285006567 9.61968283053 0.00238725142774 -71.4491970192 0.599281303812 148.753863495 0.599522878007 -30.9832008905 0.00238725142719 -71.4491970137 0.530498388499 -3.33609302402
11.425 0.0664049944561 -31.5308881997 0.588543452105 -58.1692141626 0.539564668824 -116.581823407 0.598398402865 146.205105523 0.588543452096 -58.169214164 0.0628987537977 -28.1578685463 0.539733182623 -116.452212321 0.598625189463 -33.530662825 0.539564668825 -116.581823407 0.539733182622 -116.452212321 0.646199196485 2.41285545918 0.0023963063314 -76.4090469126 0.598398402871 146.205105523 0.598625189466 -33.5306628251 0.00239630633086 -76.4090469068 0.532504924173 -5.85959721502
11.45 0.0682035584935 -31.1579449944 0.590504416752 -60.3747834803 0.538181184481 -121.159873346 0.597509060262 143.657059682 0.590504416744 -60.3747834814 0.0648609529478 -27.736376167 0.538358761593 -121.02998443 0.597721233952 -36.0773682123 0.538181184483 -121.159873346 0.538358761591 -121.02998443 0.648494167225 -4.83855744894 0.00240396806803 -81.3715825597 0.597509060267 143.657059682 0.597721233955 -36.0773682125 0.00240396806758 -81.3715825545 0.534515176192 -8.38320844612
11.475 0.0703180747121 -30.9822128292 0.592643377431 -62.5778904293 0.536548107172 -125.758140381 0.59661329446 141.109666738 0.592643377425 -62.57789043 0.0671359664652 -27.5467830714 0.536735686488 -125.628136651 0.59681109514 -38.6233874376 0.536548107173 -125.758140381 0.536735686487 -125.628136651 0.651182445346 -12.1306910099 0.00241016620336 -86.335513851 0.596613294464 141.109666738 0.596811095142 -38.6233874377 0.00241016620308 -86.3355138475 0.53652892514 -10.9069641662
11.5 0.0727273162647 -31.0240465409 0.594966381726 -64.7798065391 0.534653142476 -130.376160654 0.595711137486 138.562867218 0.594966381726 -64.7798065391 0.069699541101 -27.6053940022 0.53485165522 -130.246219241 0.595894861108 -41.1687934463 0.534653142476 -130.376160654 0.53485165522 -130.246219241 0.654273561079 -19.4592281515 0.00241483367005 -91.299411557 0.595711137486 138.562867218 0.595894861108 -41.1687934463 0.00241483367005 -91.299411557 0.538545934678 -13.4309023804
