! Generated from PyAEDT SolutionData; AEDT ExportNetworkData workaround
# GHz S MA R 50
9 0.399418133333 7.12768636667 0.280209344386 -67.7832615186 0.594621099535 -15.3352648182 0.639041177132 44.8675449749 0.280209344386 -67.7832615186 0.399853477475 7.49668256983 0.592111037594 -15.2768318101 0.641096279064 -135.039809939 0.594621099535 -15.3352648182 0.592111037594 -15.2768318101 0.543902538694 171.933712604 0.000543644755788 49.2883459119 0.639041177132 44.8675449749 0.641096279064 -135.039809939 0.000543644755787 49.2883459118 0.424996046276 -137.063497126
9.025 0.397557102354 4.09204508043 0.279837466073 -71.4108960894 0.596415654609 -19.9075644212 0.638692525386 41.9963989998 0.279837466072 -71.4108960894 0.398004857819 4.46037531782 0.593897736079 -19.8499904789 0.640756608905 -137.912004869 0.596415654609 -19.9075644212 0.593897736078 -19.8499904788 0.539979533475 166.108844661 0.00054152313536 45.3337859581 0.638692525386 41.9963989998 0.640756608905 -137.912004869 0.000541523135364 45.3337859427 0.426031163442 -139.720325306
9.05 0.395744883423 1.06747115554 0.279504954451 -75.0211472445 0.598151360579 -24.4654461874 0.638340393718 39.1330346402 0.279504954451 -75.0211472445 0.396205001541 1.43514904962 0.595625668128 -24.4087208865 0.640413284605 -140.776397041 0.598151360579 -24.4654461874 0.595625668128 -24.4087208865 0.536143808303 160.301247633 0.000539499156754 41.3921568556 0.638340393718 39.1330346402 0.640413284605 -140.776397041 0.000539499156758 41.3921568354 0.42707388098 -142.372068642
9.075 0.39397907316 -1.94652902144 0.279212015407 -78.6145508972 0.599830820828 -29.00906897 0.637984795667 36.277307591 0.279212015407 -78.6145508972 0.394451504617 -1.57948370269 0.597297423743 -28.9531817547 0.640066337054 -143.633130604 0.599830820828 -29.00906897 0.597297423743 -28.9531817547 0.532393916074 154.511233589 0.000537568996677 37.4627609081 0.637984795667 36.277307591 0.640066337054 -143.633130604 0.000537568996679 37.4627608896 0.428124067216 -145.018827566
9.1 0.392257162995 -4.95041500446 0.278958739358 -82.1916497833 0.601456631622 -33.5386014385 0.637625742364 33.4290769771 0.278958739358 -82.1916497833 0.392741859704 -4.58397654608 0.598915585959 -33.4835416192 0.639715794503 -146.482346329 0.601456631622 -33.5386014385 0.598915585959 -33.4835416192 0.528727803822 148.739086883 0.000535728472084 33.5449411711 0.637625742364 33.4290769771 0.639715794503 -146.482346329 0.000535728472085 33.5449411577 0.429181596399 -147.660700257
9.125 0.390576562473 -7.94461221884 0.278745102854 -85.7529909799 0.603031378135 -38.0542214979 0.637263242776 30.5882052416 0.278745102854 -85.7529909799 0.39107347922 -7.57874917735 0.600482726877 -37.9999782499 0.639361682794 -149.324181713 0.603031378135 -38.0542214979 0.600482726876 -37.9999782499 0.52514291295 142.985062604 0.000533973093773 29.6380829144 0.637263242776 30.5882052416 0.639361682794 -149.324181713 0.000533973093774 29.6380829072 0.430246348528 -150.297782713
9.15 0.388934620503 -10.9295120325 0.27857097077 -89.2991235539 0.604557630251 -42.5561157704 0.636897303911 27.7545580359 0.27857097077 -89.2991235539 0.38944371639 -10.5641874716 0.602001403492 -42.5026781318 0.639004025559 -152.158771096 0.604557630251 -42.5561157704 0.602001403492 -42.5026781318 0.52163626717 137.249384903 0.000532298114505 25.7416147482 0.636897303911 27.7545580359 0.639004025559 -152.158771096 0.000532298114507 25.7416147469 0.431318209166 -152.930168825
9.175 0.387328644718 -13.9054719503 0.278436098993 -92.8305963464 0.606037938226 -47.0444791276 0.636527930993 24.9280041141 0.278436098993 -92.8305963464 0.387849884423 -13.5406436916 0.60347415336 -46.991835998 0.638642844394 -154.986245755 0.606037938226 -47.0444791276 0.60347415336 -46.991835998 0.51820454905 131.532245309 0.000530698572157 21.8550094582 0.636527930993 24.9280041141 0.638642844394 -154.986245755 0.000530698572159 21.8550094615 0.432397069274 -155.557950442
9.2 0.385755919145 -16.8728159154 0.278340137529 -96.3479558986 0.607474828223 -51.5195142632 0.6361551276 22.1084152302 0.278340137529 -96.3479558986 0.386289274011 -16.5084368022 0.604903490152 -51.4676544026 0.638278158992 -157.806734014 0.607474828223 -51.5195142632 0.604903490152 -51.4676544026 0.514844166134 125.833801116 0.000529169328396 17.9777845883 0.6361551276 22.1084152302 0.638278158992 -157.806734014 0.000529169328399 17.9777845946 0.43348282503 -158.181217443
9.225 0.384213720325 -19.8318347058 0.27828263394 -99.8517445203 0.608870797799 -55.9814313001 0.635778895788 19.2956660391 0.27828263394 -99.8517445203 0.384759169313 -19.4678528781 0.606291899148 -55.930343328 0.637909987261 -160.620361337 0.608870797799 -55.9814313001 0.606291899148 -55.930343328 0.511551307646 120.154173917 0.000527705103332 14.1095028081 0.635778895788 19.2956660391 0.637909987261 -160.620361337 0.000527705103335 14.1095028154 0.434575377663 -160.800057803
9.25 0.382699332054 -22.7827864131 0.27826303705 -103.342498502 0.610228311376 -60.4304474232 0.635399236186 16.489634001 0.27826303705 -103.342498502 0.383256862553 -22.4191455925 0.607641832724 -60.3801198181 0.637538345425 -163.427250423 0.610228311376 -60.4304474232 0.607641832724 -60.3801198181 0.508321992816 114.493448315 0.000526300506574 10.2497720927 0.635399236186 16.489634001 0.637538345425 -163.427250423 0.000526300506577 10.2497720994 0.435674633282 -163.414557653
9.275 0.381210058854 -25.7258969943 0.278280700856 -106.82074647 0.611549795756 -64.8667865329 0.635016148074 13.6901992886 0.278280700856 -106.82074647 0.381779667377 -25.3625367772 0.608955705876 -64.8172076324 0.637163248101 -166.227521299 0.611549795756 -64.8667865329 0.608955705876 -64.8172076324 0.505152111806 108.851670869 0.000524950065073 6.39824574498 0.635016148074 13.6901992886 0.637163248101 -166.227521299 0.000524950065075 6.39824574965 0.436780502717 -166.024801347
9.3 0.379743238305 -28.6613608873 0.278334888594 -110.287007882 0.612837635724 -69.2906789148 0.634629629453 10.8972446984 0.278334888594 -110.287007882 0.380324931079 -28.2982170454 0.610235891829 -69.2418369164 0.636784708369 -169.021291404 0.612837635724 -69.2906789148 0.610235891829 -69.2418369164 0.502037460233 103.228849276 0.000523648248112 2.55462228419 0.634629629453 10.8972446984 0.636784708369 -169.021291404 0.000523648248113 2.55462228583 0.437892901354 -168.63087152
9.325 0.378296252347 -31.5893416818 0.278424776917 -113.741791661 0.614094169779 -73.7023609224 0.634239677097 8.11065556467 0.278424776917 -113.741791661 0.378890045798 -31.2263464688 0.611484717778 -73.6542438838 0.636402737826 -171.808675679 0.614094169779 -73.7023609224 0.611484717778 -73.6542438838 0.49897376817 97.6249518085 0.000522389489761 -1.28135477805 0.634239677097 8.11065556467 0.636402737826 -171.808675679 0.000522389489759 -1.28135478002 0.439011748982 -171.232849148
9.35 0.376866537629 -34.5099728395 0.278549460139 -117.185594957 0.615321686033 -78.1020746684 0.633846286599 5.33031967688 0.278549460139 -117.185594957 0.377472458794 -34.1470553026 0.612704460795 -78.0546705096 0.636017346636 -174.589786642 0.615321686033 -78.1020746684 0.612704460795 -78.0546705096 0.495956724489 92.0399070103 0.000521168209076 -5.10989725246 0.633846286599 5.33031967689 0.636017346636 -174.589786642 0.00052116820907 -5.10989725821 0.440136969638 -173.830813604
9.375 0.375451595008 -37.4233584559 0.278707954528 -120.618902049 0.616522418319 -82.4900677252 0.633449452408 2.5561272 0.278707954527 -120.618902049 0.376069681852 -37.0604447522 0.613897343939 -82.4433642297 0.635628543568 -177.364734474 0.616522418319 -82.4900677252 0.613897343938 -82.4433642297 0.492981997298 86.4736036266 0.0005199788283 -8.93117265964 0.633449452408 2.55612720001 0.635628543568 -177.364734474 0.000519978828291 -8.93117266894 0.441268491461 -176.424842716
9.4 0.374048998254 -40.3295740584 0.278899202604 -124.042183361 0.617698542515 -86.8665928302 0.633049167861 -0.212029402191 0.278899202604 -124.042183361 0.374679299931 -39.9665877746 0.615065532584 -86.8205776476 0.635236336035 179.866372915 0.617698542516 -86.8665928302 0.615065532584 -86.8205776476 0.490045251167 80.9258907687 0.000518815789295 -12.7453046723 0.633049167861 -0.212029402185 0.635236336035 179.866372915 0.000518815789283 -12.7453046846 0.442406246547 -179.015012815
9.425 0.372656402047 -43.2286674359 0.279122077437 -127.455894595 0.618852173135 -91.2319075981 0.632645425208 -2.97425544092 0.279122077437 -127.455894595 0.373298979078 -42.8655299109 0.616211131012 -91.1865682468 0.634840730119 177.103429803 0.618852173135 -91.2319075981 0.616211131012 -91.1865682468 0.487142161745 75.3965782834 0.00051767356839 -16.5523735952 0.632645425208 -2.97425544091 0.634840730119 177.103429803 0.000517673568375 -16.5523736097 0.443550170808 178.398601204
9.45 0.371271549292 -46.1206594933 0.279375386911 -130.860475989 0.619985360169 -95.5862742377 0.632238215642 -5.73065407354 0.279375386911 -130.860475989 0.371926473699 -45.7572901434 0.61733617926 -95.5415981077 0.634441730606 174.346332594 0.61998536017 -95.5862742377 0.61733617926 -95.5415981077 0.484268428301 69.8854373061 0.00051654668983 -20.352416867 0.632238215642 -5.73065407353 0.634441730606 174.346332594 0.000516546689812 -20.3524168828 0.444700203836 175.815925842
9.475 0.369892277844 -49.0055451284 0.279657877946 -134.256351669 0.621100086219 -99.9299592741 0.631827529313 -8.48132637202 0.279657877946 -134.256351669 0.370559633216 -48.6418617742 0.618442650243 -99.8859336305 0.634039341004 171.594979747 0.621100086219 -99.9299592741 0.618442650243 -99.8859336305 0.481419784629 64.3922009696 0.000515429737972 -24.1454295675 0.631827529313 -8.48132637201 0.634039341004 171.594979747 0.000515429737952 -24.1454295835 0.445856288772 173.236888937
9.5 0.368516526654 -51.8832941249 0.279968240679 -137.643929105 0.622198263899 -104.263233277 0.631413355354 -11.226371389 0.279968240679 -137.643929105 0.36919640817 -51.51921332 0.619532447166 -104.219845263 0.633633563575 168.849271709 0.622198263899 -104.263233277 0.619532447166 -104.219845263 0.478592008695 58.9165652415 0.000514317368372 -27.931364914 0.631413355354 -11.226371389 0.633633563575 168.849271709 0.000514317368352 -27.9313649292 0.447018372175 170.661419623
9.525 0.367142341405 -54.7538520594 0.280305112562 -141.023598666 0.623281733537 -108.586370593 0.630995681899 -13.9658862213 0.280305112562 -141.023598666 0.367834855803 -54.3892894199 0.620607401212 -108.543607236 0.633224399353 166.109110859 0.623281733537 -108.586370593 0.620607401212 -108.543607236 0.475780931341 53.4581898619 0.000513204317874 -31.7101347331 0.630995681899 -13.9658862212 0.633224399353 166.109110859 0.000513204317855 -31.7101347465 0.448186403898 168.089448284
9.55 0.365767879659 -57.6171412177 0.280667082407 -144.395733261 0.624352261137 -112.89964909 0.630574496099 -16.6999660713 0.280667082407 -144.395733261 0.366473145164 -57.2520117528 0.621669269509 -112.857497304 0.632811848169 163.374401441 0.624352261137 -112.89964909 0.621669269509 -112.857497304 0.47298244427 48.0166993533 0.00051208541382 -35.481609889 0.630574496099 -16.6999660713 0.632811848169 163.374401441 0.000512085413803 -35.4816098998 0.449360336968 165.520906504
9.575 0.364391415565 -60.473061518 0.281052694341 -147.760688055 0.62541153663 -117.203349901 0.630149784143 -19.4287043064 0.281052694341 -147.760688055 0.365109561777 -60.1072799615 0.622719733364 -117.161796492 0.632395908675 160.645049509 0.62541153663 -117.203349901 0.622719733364 -117.161796492 0.470192507529 42.5916840752 0.000510955582469 -39.2456206555 0.630149784143 -19.4287043064 0.632395908675 160.645049509 0.000510955582456 -39.245620663 0.450540127469 162.955727029
9.6 0.363011344161 -63.3214914387 0.281460451683 -151.118800273 0.62646117237 -121.497757188 0.629721531274 -22.1521925158 0.281460451683 -151.118800273 0.363742511896 -62.9549725803 0.623760396765 -121.456788855 0.631976578368 157.92096287 0.62646117237 -121.497757188 0.623760396765 -121.456788855 0.467407156599 37.1827013013 0.00050980985674 -43.0019570135 0.629721531274 -22.1521925158 0.631976578368 157.92096287 0.000509809856732 -43.0019570174 0.45172573442 160.393843724
9.625 0.361626185299 -66.162288947 0.281888820735 -154.470389062 0.627502701887 -125.783157898 0.62928972181 -24.8705205657 0.281888820735 -154.470389062 0.362370526394 -65.7949479653 0.624792785116 -125.742761247 0.631553853613 155.20205103 0.627502701887 -125.783157898 0.624792785116 -125.742761247 0.46462250922 31.7892762931 0.000508643383345 -46.7503688586 0.62928972181 -24.8705205657 0.631553853613 155.20205103 0.000508643383343 -46.7503688587 0.452917119673 157.835191532
9.65 0.360234587229 -68.9952924296 0.282336234481 -157.815755424 0.628537578863 -130.059841551 0.628854339157 -27.583776653 0.282336234481 -157.815755424 0.360992264312 -68.6270452245 0.62581834421 -130.02000309 0.631127729667 152.488225143 0.628537578863 -130.059841551 0.62581834421 -130.02000309 0.461834772001 26.410903352 0.000507451429414 -50.4905661017 0.628854339157 -27.583776653 0.631127729667 152.488225143 0.000507451429418 -50.490566098 0.454114247798 155.279706431
9.675 0.358835329875 -71.8203216225 0.282801096196 -161.155182196 0.629567176327 -134.328100018 0.628415365835 -30.2920473567 0.282801096196 -161.155182196 0.359606516098 -71.4510851488 0.626838439411 -134.288806168 0.630698200707 149.779397958 0.629567176327 -134.328100018 0.626838439411 -134.288806168 0.45904024685 21.0470468306 0.000506229388707 -54.2222186461 0.628415365835 -30.2920473567 0.630698200707 149.779397958 0.000506229388719 -54.2222186389 0.455317085977 152.727325405
9.7 0.357427327841 -74.6371785401 0.283281782959 -164.48893409 0.630592786033 -138.588227324 0.627972783488 -32.9954176876 0.283281782959 -164.48893409 0.358212206571 -74.2668711415 0.627854355022 -138.549464423 0.630265259856 147.075483772 0.630592786033 -138.588227324 0.627854355022 -138.549464423 0.456235337258 15.6971420886 0.000504972787492 -57.9449562239 0.627972783488 -32.9954176876 0.630265259856 147.075483772 0.00050497278751 -57.9449562138 0.456525603901 150.177986397
9.725 0.356009633162 -77.4456484059 0.283776649077 -167.817257771 0.631615618026 -142.840519458 0.627526572907 -35.6939711372 0.283776649077 -167.817257771 0.356808397638 -77.0741901496 0.628867293836 -142.802273766 0.629828899208 144.376398382 0.631615618026 -142.840519458 0.628867293836 -142.802273766 0.453416554418 10.3605963802 0.000503677290191 -61.658368074 0.627526572907 -35.6939711372 0.629828899208 144.376398382 0.000503677290216 -61.6583680615 0.457739773669 147.631628279
9.75 0.354581437851 -80.2455005843 0.284284029411 -171.140381968 0.632636800346 -147.085274197 0.627076714045 -38.3877897242 0.284284029411 -171.140381968 0.355394290801 -79.8728135968 0.629878376836 -147.047531904 0.629389109859 141.682059038 0.632636800346 -147.085274197 0.629878376836 -147.047531904 0.450580523201 5.0367896624 0.000502338704904 -65.362002443 0.627076714045 -38.3877897242 0.629389109859 141.682059038 0.000502338704933 -65.362002429 0.458959569688 145.088190817
9.775 0.353142076252 -83.0364895177 0.284802242618 -174.458517623 0.633657378883 -151.322790942 0.626623186036 -41.0769540399 0.284802242618 -174.458517623 0.353969229472 -82.6624983212 0.630888643022 -151.285538169 0.628945881935 138.992384404 0.633657378883 -151.322790942 0.630888643022 -151.285538169 0.447723987946 -0.27492468337 0.00050095298891 -69.0553658933 0.626623186036 -41.0769540399 0.628945881935 138.992384404 0.000500952988943 -69.0553658787 0.460184968573 142.547614636
9.8 0.351691027245 -85.8183556721 0.285329594301 -177.771858059 0.634678317333 -155.553370568 0.62616596721 -43.7615432926 0.285329594301 -177.771858059 0.352532701129 -85.4429875225 0.631899049365 -155.516593378 0.628499204622 136.307294506 0.634678317333 -155.553370568 0.631899049365 -155.516593378 0.444843818085 -5.57521922223 0.000499516254275 -72.7379223966 0.62616596721 -43.7615432926 0.628499204622 136.307294506 0.000499516254311 -72.7379223822 0.461415949056 140.009841187
9.825 0.350227916317 -88.5908264958 0.285864380079 178.919420831 0.635700497265 -159.777315291 0.625705035107 -46.4416353505 0.28586438008 178.919420831 0.351084339346 -88.2140117211 0.632910470849 -159.740999689 0.628049066195 133.626710698 0.635700497265 -159.777315291 0.632910470849 -159.740999689 0.441937013577 -10.8647919341 0.000498024773697 -76.4090921956 0.625705035107 -46.4416353505 0.628049066195 133.626710698 0.000498024773732 -76.4090921823 0.462652491886 137.474812718
9.85 0.348752517526 -91.3536173973 0.286404888582 175.615160391 0.63672471826 -163.994928542 0.625240366496 -49.1173067828 0.286404888582 175.615160391 0.349623925708 -90.975289738 0.633923700601 -163.959060486 0.627595454054 130.950555619 0.63672471826 -163.994928542 0.633923700601 -163.959060486 0.439000710166 -16.1443657813 0.00049647498672 -80.0682504141 0.625240366496 -49.1173067828 0.627595454054 130.950555619 0.000496474986752 -80.0682504028 0.463894579739 134.94247224
9.875 0.347264755387 -94.1064327501 0.286949404374 172.315218994 0.637751698118 -168.206514864 0.624771937383 -51.7886329008 0.286949404374 172.315218994 0.348151391635 -93.7265297004 0.634939450073 -168.171080267 0.627138354754 128.278753154 0.637751698118 -168.206514864 0.634939450073 -168.171080267 0.436032184457 -21.4146883769 0.000494863506491 -83.714725395 0.624771937383 -51.7886329008 0.627138354754 128.278753154 0.000494863506519 -83.7147253864 0.465142197126 132.412763502
9.9 0.345764706683 -96.8489669327 0.287496210825 169.019471846 0.638782073124 -172.412379816 0.624299723026 -54.455687797 0.287496210825 169.019471846 0.346666820141 -96.467430082 0.635958349296 -172.377364552 0.62667775404 125.611228392 0.638782073124 -172.412379816 0.635958349296 -172.377364552 0.433028858849 -26.6765317535 0.000493187127231 -87.3477967451 0.624299723026 -54.455687797 0.62667775404 125.611228392 0.000493187127251 -87.3477967397 0.466395330303 129.885630957
9.925 0.344252602233 -99.5809054125 0.288043592937 165.727810783 0.639816398347 -176.612829898 0.623823697945 -57.1185443833 0.288043592937 165.727810783 0.345170447534 -99.1976807881 0.636980947151 -176.578219809 0.626213636878 122.947907595 0.639816398347 -176.612829898 0.636980947151 -176.578219809 0.429988306341 -31.9306922332 0.000491442832593 -90.9666930653 0.623823697945 -57.1185443833 0.626213636878 122.947907595 0.000491442832603 -90.9666930635 0.467653967178 127.36101974
9.95 0.342728828604 -102.301925887 0.288589840139 162.440144098 0.640855147971 179.191827513 0.623343835933 -59.7772744288 0.288589840139 162.440144098 0.343662665052 -101.916964296 0.638007711688 179.226046614 0.6257459875 120.28871816 0.640855147971 179.191827513 0.638007711688 179.226046614 0.426908255267 -37.1779903958 0.00048962780514 -94.5705893442 0.623343835933 -59.7772744288 0.6257459875 120.28871816 0.00048962780514 -94.5705893462 0.46891809723 124.838875637
9.975 0.341193929793 -105.011699493 0.289133249069 159.156396371 0.641898715649 175.001284209 0.622860110057 -62.4319485957 0.289133249069 159.156396371 0.342144020466 -104.624956864 0.639039030457 175.035126533 0.625274789431 117.633588578 0.641898715649 175.001284209 0.639039030457 175.035126533 0.423786594007 -42.4192711455 0.000487739437172 -98.1586039908 0.622860110057 -62.4319485957 0.625274789431 117.633588578 0.00048773943716 -98.1586039964 0.470187711411 122.319145061
10 0.339648608849 -107.709892097 0.289672126369 155.876508332 0.642947414879 170.815231186 0.62237249267 -65.082636475 0.289672126369 155.876508332 0.340615219619 -107.321329818 0.640075210851 170.84871096 0.624800025536 114.982448409 0.642947414879 170.815231186 0.640075210851 170.84871096 0.420621375745 -47.6554038731 0.000485775343151 -101.729795482 0.62237249267 -65.082636475 0.624800025536 114.982448409 0.000485775343127 -101.729795491 0.471462802068 119.801775028
10.025 0.338093729447 -110.396165683 0.290204791506 152.600436746 0.644001479376 166.633358656 0.621880955413 -67.7294066212 0.290204791506 152.600436746 0.339077127896 -110.005750936 0.641116480468 166.666490123 0.624321678057 112.335228239 0.644001479376 166.633358656 0.641116480468 166.666490123 0.417410823354 -52.8872827131 0.000483733374027 -105.283158603 0.621880955413 -67.7294066212 0.624321678057 112.335228239 0.00048373337399 -105.283158615 0.472743362852 117.286713128
10.05 0.336530317381 -113.070179853 0.290729579647 149.328154334 0.645061063468 162.455356048 0.621385469214 -70.372326586 0.290729579647 149.328154334 0.337530771612 -112.677885946 0.64216298747 162.48815346 0.623839728654 109.691859655 0.645061063468 162.455356048 0.64216298747 162.48815346 0.414153334481 -58.1158268936 0.000481611633783 -108.817620243 0.621385469214 -70.372326586 0.623839728654 109.691859655 0.000481611633735 -108.817620258 0.474029388633 114.77390751
10.075 0.334959561946 -115.731593459 0.291244844627 146.059649733 0.646126242491 158.28091199 0.620886004291 -73.0114629512 0.291244844627 146.059649733 0.335977339285 -115.337400141 0.643214800958 158.313389605 0.623354158453 107.052275205 0.646126242491 158.28091199 0.643214800958 158.313389605 0.410847486941 -63.3419811773 0.000479408498568 -112.332034741 0.620886004291 -73.0114629512 0.623354158453 107.052275205 0.000479408498509 -112.332034757 0.475320875417 112.263306852
10.1 0.333382817182 -118.380066377 0.291748962018 142.794927492 0.647197013192 154.109714274 0.620382530146 -75.6468813612 0.291748962018 142.794927492 0.334418182743 -117.983960153 0.644271911341 154.141886352 0.622864948089 104.416408375 0.647197013192 154.109714274 0.644271911341 154.141886352 0.407492044506 -68.5667163926 0.000477122638827 -115.825178725 0.620382530146 -75.6468813612 0.622864948089 104.416408375 0.000477122638761 -115.825178742 0.476617820259 109.754860341
10.125 0.331801602919 -121.015261453 0.29224033236 139.534008112 0.648273294141 149.9414498 0.619875015567 -78.278646554 0.29224033236 139.534008112 0.332854818041 -120.617235873 0.645334230722 149.973330601 0.622372077757 101.784193549 0.648273294141 149.9414498 0.645334230722 149.973330601 0.404085963193 -73.7910300517 0.000474753044903 -119.295745443 0.619875015567 -78.278646554 0.622372077757 101.784193549 0.000474753044831 -119.29574546 0.477920221179 107.248517655
10.15 0.330217605573 -123.636846625 0.292717384562 136.276928143 0.649354926159 145.775804504 0.619363428612 -80.9068223928 0.292717384562 136.276928143 0.331288926109 -123.236902561 0.646401593287 145.807408284 0.621875527261 99.1555659861 0.649354926159 145.775804504 0.646401593287 145.807408284 0.400628398156 -79.0159470542 0.000472299056627 -122.742338543 0.619363428612 -80.9068223928 0.621875527261 99.1555659861 0.000472299056552 -122.742338559 0.479228077079 104.744228939
10.175 0.328632678618 -126.244497255 0.293178579539 133.023740317 0.650441672758 141.612463262 0.61884773661 -83.5314718954 0.293178579539 133.023740317 0.329722353066 -125.842643151 0.647473755715 141.643804274 0.62137527607 96.5304617846 0.650441672758 141.612463262 0.647473755715 141.643804274 0.397118711281 -84.2425204732 0.000469760397532 -126.163465283 0.61884773661 -83.5314718954 0.62137527607 96.5304617846 0.000469760397459 -126.163465297 0.480541387661 102.241944789
10.2 0.327048842658 -128.837898679 0.293622414101 129.774513744 0.651533220605 137.451109772 0.618327906142 -86.1526572641 0.293622414101 129.774513744 0.328157110128 -128.434150765 0.648550397602 137.482202261 0.620871303376 93.9088178557 0.651533220605 137.451109772 0.648550397602 137.482202261 0.393556479586 -89.4718324179 0.000467137214359 -129.557529143 0.618327906142 -86.1526572641 0.620871303376 93.9088178557 0.000467137214289 -129.557529156 0.481860153339 99.7416162287
10.225 0.325468284998 -131.416748989 0.294047425163 126.529334159 0.652629180009 133.291426413 0.617803903034 -88.7704399145 0.294047425163 126.529334159 0.326595373004 -131.011131467 0.64963112191 133.322284617 0.620363588153 91.2905718933 0.652629180009 133.291426413 0.64963112191 133.322284617 0.389941504523 -94.7049949675 0.000464430122673 -132.922821833 0.617803903035 -88.7704399145 0.620363588153 91.2905718933 0.00046443012261 -132.922821842 0.483184375163 97.2431946946
10.25 0.32389335862 -133.980762081 0.2944521943 123.288304221 0.65372908545 129.133094075 0.617275692337 -91.3848805037 0.2944521943 123.288304221 0.32503948069 -133.573307254 0.650715455447 129.163732226 0.619852109223 88.6756623443 0.65372908545 129.133094075 0.650715455447 129.163732226 0.386273822265 -99.9431511666 0.000461640259511 -136.257514666 0.617275692337 -91.3848805037 0.619852109223 88.6756623443 0.000461640259458 -136.257514672 0.484514054729 94.7466320172
10.275 0.322326580439 -136.529670961 0.294835352719 120.051543881 0.654832396141 124.975791963 0.616743238309 -93.9960389583 0.294835352719 120.051543881 0.323491933535 -136.120419319 0.651802849385 125.006224286 0.619336845323 86.0640283805 0.654832396141 124.975791963 0.651802849385 125.006224286 0.38255371508 -105.18747607 0.000458769344122 -139.55964933 0.616743238309 -93.9960389583 0.619336845323 86.0640283805 0.000458769344081 -139.559649333 0.485849194102 92.2518804038
10.3 0.320770628717 -139.063231343 0.29519558669 116.819190794 0.65593849664 120.819197369 0.616206504394 -96.6039745014 0.29519558669 116.819190794 0.321955390461 -138.652231574 0.652892679824 120.849438082 0.618817775182 83.4556098695 0.65593849664 120.819197369 0.652892679824 120.849438082 0.378781723846 -110.439177816 0.000455819748021 -142.827128045 0.616206504395 -96.6039745014 0.618817775182 83.4556098695 0.000455819747994 -142.827128045 0.487189795728 89.7588924222
10.325 0.319228339495 -141.58122553 0.295531643494 113.5914008 0.657046697523 116.662985404 0.615665453201 -99.2087456792 0.295531643494 113.5914008 0.320432665198 -141.168534459 0.653984248402 116.693048726 0.618294877595 80.850347346 0.657046697523 116.662985404 0.653984248402 116.693048726 0.374958661796 -115.699498716 0.000452794575785 -146.057703174 0.615665453201 -99.2087456793 0.618294877595 80.850347346 0.000452794575772 -146.05770317 0.488535862356 87.2676209848
10.35 0.317702701893 -144.083466602 0.295842337965 110.368348465 0.658156236109 112.5068287 0.615120046472 -101.810410387 0.295842337965 110.368348465 0.318926721384 -143.669149042 0.655076782968 112.536728849 0.617768131508 78.248181984 0.658156236109 112.5068287 0.655076782968 112.536728849 0.371085629548 -120.969716314 0.000449697758202 -149.248966344 0.615120046472 -101.810410387 0.617768131508 78.248181984 0.000449697758202 -149.248966338 0.489887396948 84.7780193329
10.375 0.316196852117 -146.569802894 0.296126559673 107.150227677 0.659266277266 108.350397064 0.614570245051 -104.409025897 0.296126559673 107.150227677 0.317440666375 -146.153931399 0.656169438316 108.380148264 0.617237516108 75.6490555671 0.659266277266 108.350397064 0.656169438316 108.380148264 0.367164031457 -126.251144391 0.00044653415966 -152.398337221 0.614570245051 -104.409025897 0.617237516108 75.6490555671 0.000446534159673 -152.398337213 0.491244402603 82.2900410219
10.4 0.314714066009 -149.040122789 0.296383280854 103.937252307 0.660375914291 104.193357083 0.614016008855 -107.004648878 0.296383280854 103.937252307 0.315977743604 -148.622777281 0.657261296994 104.222973571 0.616703010915 73.0529104609 0.660375914291 104.193357083 0.657261296994 104.222973571 0.363195593362 -131.545133861 0.000443309701918 -155.503052085 0.614016008855 -107.004648878 0.616703010915 73.0529104609 0.00044330970194 -155.503052076 0.492606882463 79.8036399069
10.425 0.313257749955 -151.494359783 0.29661156514 100.729656929 0.661484169867 100.035371684 0.613457296826 -109.597335427 0.29661156514 100.729656929 0.314541323299 -151.075627059 0.658351370188 100.064867714 0.616164595887 70.4596895832 0.661484169867 100.035371684 0.658351370188 100.064867714 0.359182381725 -136.853073498 0.000440031506694 -158.560152496 0.613457296826 -109.597335427 0.616164595887 70.4596895832 0.000440031506722 -158.560152486 0.493974839636 77.3187701284
10.45 0.311831429972 -153.932497843 0.296810577203 97.5276976013 0.662589997124 95.8760996247 0.612894066894 -112.18714109 0.296810577203 97.5276976012 0.313134891399 -153.512470927 0.65943859869 95.9054894773 0.615622251529 67.8693363757 0.662589997124 95.8760996247 0.65943859869 95.9054894773 0.355126824213 -142.176390417 0.000436708059861 -161.566474382 0.612894066894 -112.18714109 0.615622251529 67.8693363757 0.000436708059892 -161.566474373 0.495348277104 74.835386099
10.475 0.310438738771 -156.354577014 0.296979593419 94.3316527022 0.663692280786 91.7151949261 0.612326275924 -114.774120883 0.296979593419 94.3316527022 0.311762036464 -155.933354351 0.660521853953 91.7444929195 0.615075959008 65.2817947739 0.663692280786 91.7151949261 0.660521853953 91.7444929195 0.351031731713 -147.516550217 0.000433349400376 -164.518638057 0.612326275924 -114.774120883 0.615075959008 65.2817947739 0.000433349400406 -164.518638049 0.496727197637 72.3534424895
10.5 0.309083400613 -158.760699256 0.297118013655 91.1418238277 0.664789838428 87.552306228 0.611753879661 -117.358329321 0.297118013655 91.1418238277 0.310426434381 -158.338383721 0.661599939245 87.5815267283 0.614525700281 62.6970091776 0.664789838428 87.552306228 0.661599939245 87.5815267283 0.346900321801 -152.875056681 0.000429967337416 -167.413039817 0.611753879661 -117.358329321 0.614525700281 62.6970091776 0.000429967337441 -167.413039811 0.498111603703 69.8728942169
10.525 0.307769213736 -161.15103448 0.297225374333 87.9585367395 0.665881421835 83.387076061 0.611176832664 -119.939820437 0.297225374333 87.9585367395 0.309131830685 -160.727732186 0.662671590896 83.4162334958 0.613971458228 60.1149244201 0.665881421835 83.387076061 0.662671590896 83.4162334958 0.342736243616 -158.253450888 0.000426575699578 -170.245845981 0.611176832664 -119.939820437 0.613971458228 60.1149244201 0.000426575699594 -170.245845978 0.499501497375 67.3936964311
10.55 0.306500030159 -163.525826725 0.29730136291 84.782142364 0.666965718483 79.2191400254 0.610595088241 -122.518647805 0.29730136291 84.782142364 0.307882020273 -163.101645624 0.663735479646 79.2482488992 0.613413216803 57.5354857375 0.666965718483 79.2191400254 0.663735479646 79.2482488992 0.338543604144 -163.653309594 0.000423190620298 -173.012990523 0.610595088241 -122.518647805 0.613413216803 57.5354857375 0.000423190620304 -173.012990521 0.500896880241 64.9158045028
10.575 0.305279732645 -165.885400447 0.297345833964 81.6130178353 0.668041353129 75.0481258633 0.610008598362 -125.094864563 0.297345833964 81.6130178353 0.306680824315 -165.460448689 0.664790212101 75.0772007748 0.612850961187 54.9586387367 0.668041353129 75.0481258633 0.664790212101 75.0772007748 0.33432699582 -169.076242678 0.000419830863916 -175.710177724 0.610008598362 -125.094864563 0.612850961187 54.9586387367 0.000419830863911 -175.710177724 0.502297753305 62.4391740116
10.6 0.304112208614 -168.230166839 0.297358827075 78.4515675724 0.669106889532 70.8736524111 0.609417313576 -127.668523431 0.297358827075 78.4515675724 0.305532064148 -167.804550888 0.665834332293 70.9027080729 0.612284677961 52.3843293626 0.669106889532 70.8736524111 0.665834332293 70.9027080729 0.330091525389 -174.523889456 0.000416518196925 -178.332891712 0.609417313576 -127.668523431 0.612284677961 52.3843293626 0.000416518196909 -178.332891715 0.503704116889 59.9637607343
10.625 0.303001320783 -170.560630132 0.297340586743 75.2982243809 0.67016083229 66.6953284152 0.608821182903 -130.239676735 0.297340586743 75.2982243809 0.304439531947 -170.134452617 0.666866323354 66.7243796762 0.611714355293 49.8125038646 0.67016083229 66.6953284152 0.666866323354 66.7243796762 0.325842843891 -179.997913592 0.000413277808893 179.123584838 0.608821182903 -130.239676735 0.611714355293 49.8125038646 0.000413277808871 179.123584834 0.505115970532 57.4895206333
10.65 0.301950874332 -172.877393801 0.29729158461 72.153450563 0.671201628814 62.5127511919 0.60822015372 -132.808376424 0.297291584609 72.153450563 0.303406957955 -172.450751085 0.66788460929 62.5418130622 0.611139983141 47.2431087613 0.671201628814 62.5127511919 0.66788460929 62.5418130622 0.321587177622 174.50000366 0.000410138787186 176.664140047 0.60822015372 -132.808376424 0.611139983141 47.2431087613 0.000410138787161 176.664140043 0.506533312884 55.0164098451
10.675 0.300964580361 -175.181166588 0.297212544279 69.0177390145 0.672227671429 58.3255051103 0.607614171635 -135.374674089 0.297212544279 69.0177390145 0.302437974062 -174.754146058 0.668887556869 58.3545927897 0.610561553472 44.6760908043 0.672227671429 58.3255051103 0.668887556869 58.3545927897 0.317331359839 168.968172222 0.000407134648832 174.29378685 0.607614171635 -135.374674089 0.610561553472 44.6760908043 0.000407134648811 174.293786847 0.507956141595 52.5443846693
10.7 0.30004601542 -177.472768293 0.297104469105 65.8916142834 0.673237299599 54.1331598713 0.607003180334 -137.938620983 0.297104469105 65.8916142834 0.301536073498 -177.045445338 0.669873477614 54.1622887809 0.609979060511 42.1113969401 0.673237299599 54.1331598713 0.669873477614 54.1622887809 0.313082862951 163.404904319 0.000404303931575 172.017597821 0.607003180334 -137.938620983 0.609979060511 42.1113969401 0.000404303931564 172.017597819 0.509384453208 50.0734015575
10.725 0.299198576887 -179.753135216 0.296968673339 62.7756335537 0.674228802287 49.9352685538 0.606387121418 -140.500268035 0.296968673339 62.7756335537 0.300704566432 -179.325569912 0.670840629887 49.9644543713 0.609392501003 39.5489742703 0.674228802287 49.9352685538 0.670840629887 49.9644543713 0.308849830816 157.808528373 0.000401690844081 169.840616426 0.606387121418 -140.500268035 0.609392501003 39.5489742703 0.000401690844088 169.840616426 0.510818243032 47.6034171025
10.75 0.298425433951 177.976674786 0.296806817107 59.6703875114 0.675200420428 45.7313653905 0.605765934212 -143.059665866 0.296806817107 59.6703875114 0.299946531211 178.404441313 0.671787221068 45.7606240902 0.60880187451 36.9887700093 0.675200420428 45.7313653905 0.671787221068 45.7606240902 0.304641110717 152.177406088 0.000399345972353 167.767740047 0.605765934212 -143.059665866 0.60880187451 36.9887700093 0.000399345972383 167.76774005 0.512257505027 45.1343880267
10.775 0.297729473938 175.715477732 0.29662094575 56.5765010348 0.676150349515 41.5209632344 0.605139555553 -145.616864805 0.29662094575 56.5765010348 0.299264760999 176.14342725 0.672711409799 41.5503111314 0.608207183743 34.4307314396 0.676150349515 41.5209632344 0.672711409799 41.5503111314 0.300466284463 146.50995319 0.000397327035432 165.803570177 0.605139555553 -145.616864805 0.608207183743 34.4307314396 0.000397327035485 165.803570182 0.513702231671 42.6662711721
10.8 0.297113243708 173.461959457 0.296413534146 53.49463364 0.677076742269 37.3035506636 0.604507919547 -148.171914898 0.296413534146 53.49463364 0.298661705518 173.890100895 0.673611308275 37.3330044638 0.607608434924 31.8748058642 0.677076742269 37.3035506636 0.673611308275 37.3330044638 0.296335697963 140.804664296 0.000395699678454 163.952225754 0.604507919547 -148.171914898 0.607608434924 31.8748058642 0.000395699678527 163.952225761 0.515152413826 40.1990234882
10.825 0.296578885799 171.214672129 0.296187536718 50.425479592 0.677977711369 33.0785886678 0.60387095729 -150.724865917 0.296187536718 50.425479592 0.298139407566 171.64304616 0.67448498454 33.1081655231 0.607005638197 29.3209405549 0.677977711369 33.0785886678 0.67448498454 33.1081655231 0.292260488512 135.060142396 0.000394538285115 162.21711708 0.60387095729 -150.724865917 0.607005638197 29.3209405549 0.000394538285194 162.217117086 0.516608040596 37.7326020217
10.85 0.296128068955 168.972031338 0.295946443947 47.3697675736 0.678851332194 28.8455068458 0.603228596561 -153.275767374 0.295946443947 47.3697675736 0.29769943394 169.400715282 0.675330464743 28.8752244166 0.606398808085 26.7690826972 0.678851332194 28.8455068458 0.675330464743 28.8752244166 0.288252608933 129.275133392 0.000393926785002 160.600680227 0.603228596561 -153.275767374 0.606398808085 26.7690826972 0.000393926785064 160.600680232 0.518069099177 35.2669639045
10.875 0.295761912589 166.732313749 0.295694346352 44.3282597783 0.679695645503 24.6036990317 0.60258076146 -155.824668516 0.295694346352 44.3282597783 0.297342800298 167.161426798 0.676145735261 24.6335755563 0.605787964006 24.2191793294 0.679695645503 24.6036990317 0.676145735261 24.6335755563 0.28432484761 123.448566111 0.0003939594248 159.104075845 0.60258076146 -155.824668516 0.605787964006 24.2191793294 0.000393959424808 159.104075845 0.519535574701 32.8020663426
10.9 0.295480904666 164.493655256 0.295436007029 41.3017502628 0.680508659973 20.3525182499 0.601927372006 -158.371618331 0.295436007029 41.3017502628 0.297069889417 164.923364041 0.6769287446 20.3825726226 0.605173130859 21.6711772762 0.680508659973 20.3525182499 0.6769287446 20.3825726226 0.280490843437 117.579598112 0.000394741467361 157.726861635 0.601927372006 -158.371618331 0.605173130859 21.6711772762 0.000394741467266 157.726861629 0.521007450066 30.3378666035
10.925 0.29528481232 162.254049555 0.29517694406 38.2910623614 0.681288354435 16.0912708809 0.601268343673 -160.916665544 0.29517694406 38.2910623614 0.296880362155 162.68457405 0.677677404909 16.1215227391 0.604554339682 19.1250230755 0.681288354435 16.0912708809 0.677677404909 16.1215227391 0.276765094711 111.667667477 0.000396389780747 156.466654697 0.601268343673 -160.916665544 0.604554339682 19.1250230755 0.000396389780486 156.466654683 0.522484705762 27.8743220043
10.95 0.295172584378 160.011346946 0.294923524318 35.2970449199 0.682032679629 11.819209894 0.600603586854 -163.459858605 0.294923524318 35.29704492 0.296773060255 160.442966759 0.678389592901 11.8496797164 0.603931628407 16.5806628958 0.682032679629 11.819209894 0.678389592901 11.8496797164 0.273162961107 105.712550612 0.000399033283031 155.318807624 0.600603586855 -163.459858605 0.603931628407 16.5806628958 0.000399033282532 155.318807603 0.523967319675 25.4113898988
10.975 0.29514224473 157.763253183 0.29468307048 32.3205670581 0.682739559209 7.53552697548 0.599933006262 -166.001245673 0.29468307048 32.3205670582 0.296745899887 158.196314263 0.679063149903 7.56623619236 0.603305042715 14.0380424446 0.682739559209 7.53552697546 0.679063149903 7.56623619238 0.26970065814 99.7144258187 0.000402813220167 154.276129771 0.599933006262 -166.001245673 0.603305042715 14.0380424446 0.000402813219355 154.276129744 0.525455266891 22.9490276638
11 0.295190775165 155.50732802 0.294463983428 29.3625111067 0.683406889622 3.23934334338 0.599256500217 -168.540874595 0.294463983429 29.3625111068 0.296795754529 155.942249851 0.679695880633 3.270314461 0.60267463702 11.4971068636 0.683406889622 3.23934334335 0.679695880633 3.27031446103 0.266395243935 93.6739421545 0.000407883275791 153.328690624 0.599256500218 -168.540874595 0.60267463702 11.4971068636 0.000407883274597 153.328690595 0.526948519474 20.4871926851
11.025 0.295313985916 153.240983092 0.294275882666 26.4237632932 0.684032538357 -1.07030100375 0.598573959847 -171.078792866 0.294275882666 26.4237632934 0.29691832538 153.678266464 0.680285550166 -1.03904426302 0.602040475591 8.95780060946 0.684032538357 -1.07030100379 0.680285550166 -1.03904426298 0.263264598815 87.5922927283 0.000414409544189 152.463743731 0.598573959847 -171.078792866 0.60204047559 8.95780060943 0.000414409542567 152.463743707 0.528447046234 18.025842343
11.05 0.295506371625 150.961478588 0.294129767917 23.505201661 0.684614339867 -5.39445991282 0.597885268135 -173.615047585 0.294129767917 23.5052016612 0.297107996959 151.401714077 0.68082987838 -5.36289245159 0.601402633844 6.420067316 0.684614339867 -5.39445991286 0.68082987838 -5.36289245153 0.260327399174 81.4712912376 0.000422570439772 151.665804931 0.597885268136 -173.615047585 0.601402633844 6.42006731597 0.000422570437719 151.665804918 0.529950812471 15.5649339965
11.075 0.295760949745 148.665918073 0.294038205833 20.6076805948 0.685150088218 -9.73429595328 0.597190298833 -176.149685393 0.294038205834 20.607680595 0.297357674856 149.109795406 0.681326530875 -9.70239111872 0.60076119983 3.88384963489 0.685150088218 -9.73429595333 0.681326530875 -9.70239111866 0.25760308843 75.3134501934 0.000432556664347 150.916906508 0.597190298834 -176.149685393 0.600761199829 3.88384963485 0.000432556661925 150.916906512 0.531459779706 13.1044249669
11.1 0.296069077479 146.351240615 0.294015546628 17.7320111943 0.685637525181 -14.0910980082 0.596488915165 -178.682752383 0.294015546629 17.7320111945 0.297658601673 146.799559163 0.681773105041 -14.0588273865 0.600116275944 1.3490890487 0.68563752518 -14.0910980083 0.681773105041 -14.0588273864 0.25511184961 69.1220589667 0.000444571401034 150.197029643 0.596488915166 -178.682752383 0.600116275943 1.34908904866 0.000444571398402 150.197029668 0.532973905382 10.6442725211
11.125 0.296420242127 144.014209178 0.294078176633 14.8789365645 0.686074321997 -18.4663021501 0.595780968314 178.785706001 0.294078176634 14.8789365647 0.298000145941 144.467889893 0.682167109466 -18.4336353311 0.599467980906 -1.18427434914 0.686074321997 -18.4663021501 0.682167109466 -18.433635331 0.252874586353 62.9012596016 0.000458830943386 149.484693638 0.595780968315 178.785706001 0.599467980905 -1.18427434918 0.000458830940831 149.484693682 0.534493142542 8.18443385288
11.15 0.29680181808 141.651393937 0.294244814298 12.0491008808 0.686458052454 -22.8615165072 0.595066295613 176.255645115 0.294244814299 12.049100881 0.298369557163 142.111493153 0.682505934214 -22.8284208142 0.598816452044 -3.71630211555 0.686458052454 -22.8615165073 0.682505934214 -22.8284208141 0.250912921882 56.656118338 0.000475565993359 148.757656261 0.595066295614 176.255645115 0.598816452043 -3.71630211558 0.000475565991326 148.75765631 0.536017439479 5.72486606467
11.175 0.29719878144 139.259148826 0.294536859106 9.24301081553 0.686786153992 -27.2785510016 0.594344718391 173.727021299 0.294536859107 9.2430108156 0.298751677857 139.72687448 0.682786808644 -27.2449911784 0.598161847933 -6.24705777006 0.686786153991 -27.2785510016 0.682786808644 -27.2449911784 0.24924922887 50.3926910815 0.000495023869262 147.993660655 0.594344718391 173.727021299 0.598161847933 -6.24705777007 0.000495023868383 147.993660682 0.537546739356 3.26552614736
11.2 0.297593370219 136.833579134 0.294978805405 6.46098755919 0.6870558724 -31.7194530563 0.593616039364 171.19979212 0.294978805405 6.46098755911 0.299128600411 137.310310125 0.683006742201 -31.6853909041 0.597504351453 -8.77660717036 0.6870558724 -31.7194530562 0.683006742201 -31.6853909041 0.24790670712 44.118081752 0.000517471856927 147.171155212 0.593616039363 171.19979212 0.597504351453 -8.77660717034 0.000517471858039 147.171155171 0.539080979788 0.806370959945
11.225 0.297964673843 134.370497297 0.295598736453 3.70310721723 0.687264184006 -36.1865506561 0.592880039471 168.673916698 0.295598736451 3.70310721694 0.299479252334 134.85780695 0.683162441961 -36.1519446078 0.596844173315 -11.3050189671 0.687264184006 -36.186550656 0.68316244196 -36.1519446079 0.246909530719 37.8404936446 0.000543201922072 146.269915899 0.592880039469 168.673916698 0.596844173315 -11.305018967 0.000543201926222 146.269915723 0.540620092392 -1.65264279182
11.25 0.298288129852 131.865363165 0.296428918249 0.969126755977 0.687407686933 -40.6825045091 0.592136473995 166.14935613 0.296428918246 0.969126755422 0.299778887544 132.365048065 0.683250198331 -40.6473091271 0.596181556142 -13.8323651579 0.687407686935 -40.682504509 0.68325019833 -40.6473091273 0.246283091945 31.5692757713 0.000572536991741 145.271514867 0.59213647399 166.14935613 0.596181556143 -13.8323651578 0.000572537000164 145.271514468 0.542164002291 -4.11155857736
11.275 0.298534897399 129.313203739 0.297506518317 -1.74160812909 0.687482449799 -45.2103715299 0.59138506775 163.626074064 0.297506518313 -1.74160812996 0.299998453083 129.827319614 0.683265727097 -45.1745369079 0.595516779176 -16.3587217664 0.687482449803 -45.2103715296 0.683265727095 -45.1745369082 0.246054375872 25.3149687293 0.000605839021629 144.159600834 0.591385067742 163.626074063 0.595516779178 -16.3587217662 0.000605839035693 144.159600108 0.54371262758 -6.57042006375
11.3 0.298671065432 126.70850563 0.298874481902 -4.43027793421 0.687483801646 -49.7736824836 0.590625509085 161.104037468 0.298874481895 -4.43027793543 0.300103788738 127.239412581 0.683203951337 -49.7371535272 0.594850163697 -18.8841696795 0.687483801651 -49.7736824832 0.683203951334 -49.7371535276 0.246252507876 19.0893581061 0.000643519107054 142.919980389 0.590625509073 161.104037467 0.594850163699 -18.8841696792 0.000643519128151 142.919979223 0.545265878739 -9.02927113866
11.325 0.298656636494 124.045070949 0.300582607595 -7.09873324395 0.687406040399 -54.3765374425 0.589857442322 158.58321769 0.300582607584 -7.0987332455 0.300054600032 124.595491124 0.683058700212 -54.3392529941 0.594182079227 -21.4087956851 0.687406040406 -54.376537442 0.683058700207 -54.3392529947 0.246909526567 12.9055479761 0.000686049978521 141.54050988 0.589857442304 158.58321769 0.594182079231 -21.4087956847 0.000686050007889 141.540508164 0.546823658001 -11.4881559335
11.35 0.298444202347 121.315823665 0.302688876902 -9.74967582178 0.687242027831 -59.0237237749 0.589080458138 156.063591926 0.302688876887 -9.74967582362 0.299803120101 121.888915694 0.682822292201 -58.9856155355 0.593512950622 -23.9326937666 0.687242027841 -59.0237237743 0.682822292194 -58.9856155363 0.248061448218 6.7780729893 0.000733981355972 140.010821354 0.589080458113 156.063591926 0.593512950628 -23.932693766 0.000733981394408 140.010819007 0.548385858662 -13.9471188464
11.375 0.297977191007 118.51254802 0.305261108515 -12.38688794 0.686982625489 -63.7208628069 0.588294081258 153.54514529 0.305261108496 -12.386887942 0.299292339015 119.112004287 0.682484956792 -63.6818539884 0.592843266087 -26.4559667259 0.686982625502 -63.7208628062 0.682484956783 -63.6818539894 0.249749706805 0.723075460962 0.000787958825979 138.321911774 0.588294081224 153.54514529 0.592843266094 -26.4559667252 0.000787958873414 138.321908774 0.549952364336 -16.4062045657
11.4 0.297187509686 115.62553239 0.308379029076 -15.0155249677 0.686615906323 -68.4745931837 0.587497754604 151.027873799 0.308379029052 -15.0155249697 0.298453623522 116.255707866 0.682034028782 -68.4345967987 0.59217358614 -28.9787282303 0.686615906338 -68.4745931828 0.682034028771 -68.4345967999 0.252023078125 -5.24141523966 0.000848747161741 136.465622801 0.587497754563 151.027873798 0.592173586148 -28.9787282296 0.000848747216618 136.465619234 0.551523048146 -18.8654580921
11.425 0.295992323965 112.64307942 0.312136878931 -17.6424918798 0.686126047703 -73.2928014786 0.586690818859 148.511788746 0.312136878904 -17.6424918816 0.297203465118 113.309164845 0.681452820199 -73.2517181335 0.591504553478 -31.5011054079 0.68612604772 -73.2928014777 0.681452820186 -73.2517181348 0.254940229099 -11.0950480877 0.000917259338851 134.434030374 0.586690818811 148.511788746 0.591504553487 -31.501105407 0.000917259397231 134.434026499 0.553097771859 -21.3249247609
11.45 0.294289582485 109.550823466 0.31664670433 -20.2769324399 0.685491768291 -78.1849139635 0.585872486242 145.996923277 0.316646704304 -20.2769324412 0.295438961767 110.259082134 0.680719031525 -78.1426289552 0.590836903524 -34.023242156 0.685491768308 -78.1849139626 0.680719031512 -78.1426289564 0.258573075396 -16.8144842732 0.000994592926036 132.218750821 0.585872486192 145.996923277 0.590836903533 -34.0232421553 0.000994592980361 132.218747154 0.554676384945 -23.7846502628
11.475 0.291951688662 106.330764644 0.322042525657 -22.9308715126 0.684684106481 -83.1622679391 0.58504180753 143.483342513 0.322042525638 -22.9308715132 0.293031428056 107.08886253 0.679802499109 -83.1186473623 0.590171475247 -36.5453033838 0.684684106493 -83.1622679386 0.6798024991 -83.1186473631 0.26301117988 -22.3723868597 0.00108207606589 129.81015452 0.585041807492 143.483342514 0.590171475254 -36.5453033833 0.00108207610328 129.810151961 0.556258723567 -26.2446806637
11.5 0.288816384803 102.959876134 0.328485609697 -25.6200680063 0.68366324027 -88.2385869656 0.584197632651 140.971159606 0.328485609697 -25.6200680063 0.289817187027 103.77735286 0.678661977872 -88.1934723798 0.589509221401 -39.0674804771 0.68366324027 -88.2385869656 0.678661977872 -88.1934723798 0.268367468527 -27.7358953407 0.00118132591235 127.196459687 0.584197632651 140.971159606 0.589509221401 -39.0674804771 0.00118132591235 127.196459687 0.557844609508 -28.7050624228
