! Touchstone file exported from HFSS 2025.2.4
!        File:           C:/Users/chaoy/Documents/single_magictee_v2_stageA/g2_4p60mm_lt_4p50mm/single_magictee_v2.aedt
!        Generated:      02:54:34 PM Sep 19, 2026
!        Design:         SingleMagicT_v2
!        Project:        single_magictee_v2
!
! Variables:
!        f_adapt = 10.2GHz
!        ridge_g1 = 7.672mm
!        ridge_g2 = 4.6mm
!        ridge_l1 = 9.872mm
!        ridge_l2 = 8.857mm
!        ridge_w = 4.572mm
!        terminal_ridge_len = 4.5mm
!        wg_a = 22.86mm
!        wg_b = 10.16mm
!
!Data is not renormalized
# GHz S MA
! Terminal data exported
! Port[1] = P1_CollinearMinusX
! Port[2] = P2_CollinearPlusX
! Port[3] = P3_HArm_Ridged
! Port[4] = P4_EArm
9                              0.196355874442795 -150.864252317761 0.545184227211333 -156.667550949845 0.474902107489439 112.49808936688  0.662334143219182 45.2571536615253 
                               0.545184227211317 -156.667550949846 0.197378498197524 -150.819844748233 0.474274685568051 112.401438539759 0.662479742693013 -134.774263274117 
                               0.474902107489439 112.498089366882 0.474274685568053 112.401438539757 0.741303364855325 -159.977515547964 0.000912242066207432 -66.7315638197497 
                               0.662334143219177 45.2571536615247 0.662479742693019 -134.774263274116 0.000912242066193972 -66.7315638188578 0.349904617091461 -109.575650259238 
9.025                          0.196607169912631 -153.547582208089 0.546961233988985 -159.628596128903 0.473381393668192 109.511104355412 0.661882545613698 42.3473731569133 
                               0.546961233988989 -159.628596128904 0.197612448978091 -153.502275852953 0.472748183805452 109.414302128066 0.6620357270686  -137.68333723814 
                               0.473381393668192 109.511104355415 0.472748183805452 109.414302128063 0.74324776057858 -163.061921847883 0.000911137843350467 -69.8254822705025 
                               0.66188254561369 42.3473731569122 0.66203572706859 -137.683337238139 0.000911137843340765 -69.825482269303 0.351594511923638 -112.289976129034 
9.05                           0.196855239638285 -156.223894644163 0.548733157480244 -162.580456326546 0.471860877896282 106.529136051987 0.661427498576962 39.4455372898191 
                               0.548733157480262 -162.580456326546 0.197842920290553 -156.177702600241 0.471221802818042 106.432183595755 0.661588394461443 -140.584481687163 
                               0.471860877896282 106.52913605199  0.471221802818039 106.432183595752 0.745180955165436 -166.144643427875 0.000910025110052311 -72.9079589558683 
                               0.661427498576953 39.4455372898177 0.661588394461422 -140.584481687162 0.000910025110045775 -72.9079589544926 0.353288246992472 -114.999914104639 
9.075                          0.197100379741876 -158.893386133767 0.550500332998492 -165.523323295114 0.470340062899804 103.552108896927 0.660968976891872 36.5515110859606 
                               0.55050033299852 -165.523323295115 0.198070209716344 -158.846322488729 0.469695048790614 103.455007986411 0.661137715894267 -143.477831861763 
                               0.470340062899804 103.55210889693  0.46969504879061 103.455007986407 0.747103590303421 -169.225649651761 0.000908906106656105 -75.9787332083431 
                               0.660968976891863 36.551511085959  0.661137715894239 -143.477831861761 0.000908906106652158 -75.9787332068982 0.354985744346196 -117.705538716403 
9.1                            0.197342862975679 -161.556253364747 0.552263092128802 -168.45738684192 0.46881846259209 100.579948083485 0.660506958334035 33.6651601444612 
                               0.552263092128833 -168.45738684192 0.198294592244101 -161.508333170512 0.468167438897898 100.482701068518 0.660683665327482 -146.363522428336 
                               0.46881846259209 100.579948083488 0.468167438897893 100.482701068515 0.749016289768583 -172.304908401646 0.000907783085104883 -79.03755904829  
                               0.660506958334026 33.6651601444596 0.660683665327452 -146.363522428335 0.000907783085102982 -79.0375590468608 0.356686933566166 -120.406923406605 
9.125                          0.197582938675866 -164.212692598971 0.554021760744919 -171.382834519421 0.46729560357754 97.6125799068383 0.660041423150653 30.7863509200454 
                               0.554021760744952 -171.382834519421 0.198516320210586 -164.163931848957 0.466638502835402 97.5151896868816 0.660226219124191 -149.241687196443 
                               0.46729560357754 97.6125799068413 0.466638502835396 97.5151896868784 0.750919656953336 -175.382385922835 0.000906658324844224 -82.084203655934 
                               0.660041423150646 30.7863509200439 0.66022621912416 -149.241687196441 0.000906658324843864 -82.0842036545859 0.358391751274352 -123.104140532359 
9.15                           0.197820832813013 -166.862899108525 0.555776657248007 -174.299851354108 0.465771026544383 94.649932070724  0.659572353585932 27.9149509705868 
                               0.555776657248039 -174.299851354108 0.198735623337993 -166.813314718437 0.465107784237042 94.5524020714977 0.65976535556281 -152.112458870749 
                               0.465771026544384 94.6499320707266 0.465107784237036 94.5524020714948 0.752814272640243 -178.458046700887 0.000905534149495471 -85.1184459616814 
                               0.659572353585925 27.9149509705854 0.659765355562781 -152.112458870747 0.000905534149496193 -85.1184459604624 0.360100140678191 -125.797261372398 
9.175                          0.198056748131297 -169.507066653022 0.557528091016758 -177.208619611435 0.464244287547083 91.6919339532542 0.659099733450896 25.0508291722052 
                               0.557528091016788 -177.208619611435 0.198952708859704 -169.45667644485 0.463574841980225 91.5942681054465 0.659301054395219 -154.975968835388 
                               0.464244287547083 91.6919339532565 0.46357484198022 91.5942681054441 0.754700693019094 178.468146629731 0.000904412944080501 -88.1400753679164 
                               0.659099733450891 25.050829172204  0.659301054395192 -154.975968835387 0.000904412944081901 -88.1400753668596 0.3618120511512  -128.486356137218 
9.2                            0.198290864368781 -172.145386996751 0.559276361058175 179.890681405791 0.462714959179348 88.7385168335749 0.658623547735359 22.1938559040926 
                               0.559276361058201 179.890681405791 0.199167761726936 -172.094209685689 0.462039251379372 88.6407195534558 0.65883329644819 -157.832346968559 
                               0.462714959179348 88.7385168335767 0.462039251379367 88.6407195534538 0.756579447943517 175.396233346113 0.000903297172579602 -91.1488906134028 
                               0.658623547735355 22.1938559040916 0.658833296448167 -157.832346968559 0.000903297172581336 -91.1488906125281 0.363527437847708 -131.171493982151 
9.225                          0.198523338551618 -174.778049464336 0.561021754848026 176.997875528064 0.461182631639011 85.7896140811097 0.658143782259708 19.3439032052105 
                               0.561021754848047 176.997875528065 0.199380944889207 -174.72610464831 0.460500605269122 85.6916902528844 0.658362063265779 -160.681721485228 
                               0.461182631639011 85.7896140811112 0.460500605269117 85.6916902528828 0.758451039422345 172.326254667322 0.000902189395606694 -94.1446987893809 
                               0.658143782259706 19.3439032052097 0.658362063265761 -160.681721485228 0.000902189395608471 -94.1446987886976 0.365246261349961 -133.852743022905 
9.25                           0.198754305355469 -177.405240533465 0.56276454734989 174.112789861306 0.459646913686228 82.8451613092105 0.657660423364131 16.5008449049639 
                               0.562764547349907 174.112789861306 0.199592399641945 -177.352548685   0.458958514978736 82.747116268948  0.657887336790284 -163.524218805819 
                               0.459646913686229 82.8451613092116 0.458958514978733 82.7471162689468 0.760315940340057 169.258253755728 0.000901092287990724 -97.1273145144183 
                               0.657660423364129 16.5008449049633 0.657887336790269 -163.524218805819 0.000901092287992314 -97.1273145139266 0.366968487345852 -136.530170353213 
9.275                          0.198983877527897 179.972856536759 0.564505000201654 171.235254902774 0.458107433496715 79.9050964950858 0.657173457632841 13.6645567299002 
                               0.564505000201665 171.235254902774 0.199802246035037 -179.973725923379 0.457412611199431 79.806936016066  0.657409099079344 -166.359963448866 
                               0.458107433496716 79.9050964950865 0.457412611199429 79.8069360160653 0.762174593399718 166.192275690356 0.000900008656058679 -100.096559273047 
                               0.65717345763284 13.6645567298998 0.657409099079334 -166.359963448866 0.000900008656059907 -100.096559272739 0.36869408633546 -139.203842064196 
9.3                            0.199212146365907 177.356062043384 0.566243361058387 168.365104633006 0.456563839411916 76.9693600679283 0.656682871650911 10.8349163884253 
                               0.566243361058394 168.365104633006 0.200010583336509 177.41018306935  0.455862544746605 76.8710903472534 0.656927332056756 -169.189077945623 
                               0.456563839411916 76.9693600679285 0.455862544746603 76.871090347253  0.764027410281152 163.128367413447 0.000898941454423952 -103.052260921228 
                               0.656682871650911 10.8349163884251 0.65692733205675 -169.189077945622 0.000898941454424695 -103.052260921092 0.370423033364589 -141.873823265141 
9.325                          0.199439182243269 174.744200144587 0.567979863080664 165.502176585892 0.455015800588216 74.0378949671868 0.656188651791277 8.01180363545878 
                               0.567979863080667 165.502176585892 0.200217490545977 174.79900158984  0.454307987219128 73.9395226135119 0.656442017294562 -172.01168277472 
                               0.455015800588215 74.0378949671867 0.454307987219126 73.9395226135118 0.765874771006326 160.06657765153  0.000897893802094005 -105.99425335974 
                               0.656188651791276 8.01180363545878 0.656442017294558 -172.01168277472 0.000897893802094191 -105.994253359759 0.372155307783477 -144.540178105359 
9.35                           0.199665035182617 172.137099133633 0.569714724557568 162.646311898936 0.453463007547498 71.1106466729501 0.655690784029567 5.195100318883   
                               0.569714724557566 162.646311898936 0.200423026952865 172.192557071226 0.452748631558075 71.0121786951941 0.655953135824032 -174.827896315015 
                               0.453463007547497 71.1106466729498 0.452748631558074 71.0121786951943 0.767717023503365 157.006956812391 0.000896868997723075 -108.92237637466 
                               0.655690784029567 5.19510031888315 0.655953135824032 -174.827896315015 0.000896868997722676 -108.922376374815 0.373890893028863 -147.202969796874 
9.375                          0.199889735467738 169.534591683334 0.571448148653878 159.797355345583 0.451905172631518 68.1875632104114 0.655189253784431 2.38469040955921 
                               0.571448148653873 159.797355345583 0.200627232734775 169.590681326479 0.451184192507459 68.0890070073183 0.6554606679732  -177.637834814862 
                               0.451905172631517 68.1875632104108 0.451184192507459 68.0890070073188 0.769554483360053 153.949556859399 0.000895870533849098 -111.836475642304 
                               0.655189253784431 2.38469040955947 0.655460667973202 -177.637834814862 0.000895870533848122 -111.836475642572 0.375629776427588 -149.862260637668 
9.4                            0.200113294291804 166.936515062544 0.573180323271216 156.955155351463 0.450342030362759 65.2685951303802 0.654684045781107 -0.419539983391176 
                               0.573180323271208 156.955155351463 0.200830129591762 166.993210764003 0.449614406979708 65.1699584808102 0.654964593228639 179.558387623891 
                               0.450342030362758 65.2685951303794 0.449614406979708 65.1699584808109 0.771387433757218 150.894431164708 0.000894902109968989 -114.736402894177 
                               0.654684045781106 -0.419539983390827 0.654964593228643 179.558387623891 0.000894902109967478 -114.736402894536 0.377371949019978 -152.51811203527 
9.425                          0.20033570443762 164.342711326182 0.574911421013264 154.119563996229 0.44877333771459 62.3536954677929 0.654175143936061 -3.21770261042854 
                               0.574911421013254 154.119563996229 0.201031721412536 164.399986576944 0.448039034328823 62.2549865216297 0.654464890119305 176.760659048784 
                               0.448773337714588 62.353695467792  0.448039034328823 62.2549865216306 0.773216125571982 147.841634342921 0.000893967644322682 -117.622016235857 
                               0.65417514393606 -3.21770261042811 0.65446489011931 176.760659048783 0.000893967644320704 -117.622016236286 0.379117405401242 -155.170584530478 
9.45                           0.200556940986286 161.753027480279 0.576641599245508 151.29043700261  0.447198874293717 59.4428196801465 0.653662531260609 -6.00990709103001 
                               0.576641599245496 151.29043700261  0.201231994968981 161.810854907711 0.446457856534293 59.3440469497196 0.653961536120284 173.96886964804  
                               0.447198874293716 59.4428196801455 0.446457856534295 59.3440469497206 0.775040777640568 144.791222066824 0.00089307128427387 -120.493180612106 
                               0.653662531260607 -6.00990709102954 0.65396153612029 173.96886964804  0.000893071284271515 -120.493180612583 0.380866143579181 -157.819737821024 
9.475                          0.20077696205093 159.167315623483 0.578371000240329 148.467633714159 0.445618442438069 56.5359255677484 0.653146189781514 -8.79626093327578 
                               0.578371000240315 148.46763371416  0.201430920635595 159.225666989112 0.444870678299025 56.437097919677  0.653454507574433 171.182911731709 
                               0.445618442438068 56.5359255677473 0.444870678299026 56.4370979196781 0.776861577170015 141.743250866844 0.000892217415193922 -123.34976840905 
                               0.653146189781512 -8.79626093327528 0.65345450757444 171.182911731709 0.000892217415191288 -123.349768409556 0.382618164846573 -160.465630785026 
9.5                            0.20099570953243 156.58543306645  0.580099751398691 145.651017063114 0.444031867233398 53.6329731776327 0.652626100476676 -11.5768695622294 
                               0.580099751398678 145.651017063114 0.201628453130733 156.644279263532 0.443277327064669 53.5340998250091 0.652943779629969 168.402679704016 
                               0.444031867233397 53.6329731776316 0.443277327064671 53.5340998250102 0.778678680288038 138.697777915877 0.000891410667774759 -126.191660182904 
                               0.652626100476673 -11.5768695622289 0.652943779629975 168.402679704016 0.000891410667771956 -126.19166018342 0.38437347366661 -163.108321504073 
9.525                          0.201213109894264 154.00724243048  0.581827965540046 142.840453529644 0.442438996452023 50.7339246929451 0.652102243224117 -14.3518363558429 
                               0.581827965540032 142.840453529644 0.201824532276758 154.066553481499 0.441677652947894 50.6350151877837 0.652429326192163 165.628070028181 
                               0.442438996452022 50.733924692944  0.441677652947896 50.6350151877848 0.780492212720048 135.654860801177 0.000890655923716467 -129.018745503492 
                               0.652102243224114 -14.3518363558424 0.652429326192169 165.628070028181 0.000890655923713603 -129.018745504002 0.386132077569862 -165.747867285814 
9.55                           0.201429074953821 151.432611726737 0.583555741252498 140.035813093701 0.440839700417246 47.8387443095394 0.651574596762584 -17.1212626872029 
                               0.583555741252485 140.035813093701 0.20201908377639 151.492356780967 0.440071528601239 47.7398085354293 0.651911119887438 162.858981184891 
                               0.440839700417244 47.8387443095383 0.440071528601241 47.7398085354304 0.782302270582341 132.614557284948 0.000889958319755576 -131.830923899717 
                               0.651574596762581 -17.1212626872024 0.651911119887444 162.858981184891 0.000889958319752761 -131.830923900208 0.387893987061294 -168.38432468594 
9.575                          0.201643502687713 148.861414417348 0.585283163295722 137.236969180567 0.439233871797095 44.9473981014695 0.6510431386622  -19.8852479720215 
                               0.58528316329571 137.236969180567 0.202212020002746 148.921561748598 0.438458849002321 44.848446266377  0.65138913203824 160.095313625524 
                               0.439233871797093 44.9473981014685 0.438458849002323 44.848446266378  0.7841089212804  129.576925055284 0.000889323250020271 -134.62810589318 
                               0.651043138662196 -19.8852479720211 0.651389132038245 160.095313625524 0.000889323250017602 -134.628105893641 0.389659215535931 -171.017749529456 
9.6                            0.20185627804874 146.293529459621 0.587010303049507 134.443798601111 0.437621425331134 42.0598538769901 0.650507845303703 -22.6438897203573 
                               0.587010303049495 134.443798601111 0.202403240800695 146.354046464267 0.436839531175243 41.960896506167  0.650863332647184 157.336969721133 
                               0.437621425331133 42.0598538769891 0.436839531175245 41.9608965061679 0.785912204501332 126.5420214691   0.000888756366718731 -137.410214105379 
                               0.650507845303699 -22.643889720357 0.650863332647188 157.336969721132 0.000888756366716295 -137.410214105802 0.391427779201836 -173.648196931163 
9.625                          0.202067273792345 143.728841334584 0.588737219001262 131.656181487688 0.436002297494157 39.1760810266054 0.649968691864936 -25.3972835916377 
                               0.588737219001252 131.656181487688 0.202592634297317 143.789694529991 0.435213513848134 39.0771289555691 0.650333690389094 154.583853708112 
                               0.436002297494155 39.1760810266045 0.435213513848136 39.07712895557   0.787712133289561 123.50990328859  0.000888263579186312 -140.177184423235 
                               0.649968691864931 -25.3972835916374 0.650333690389096 154.583853708111 0.000888263579184183 -140.177184423612 0.393199697009169 -176.275721315275 
9.65                           0.202276351310497 141.167240060994 0.590463957266226 128.874001226504 0.434376446100627 36.2960503646275 0.649425652313353 -28.1455234521348 
                               0.590463957266217 128.874001226504 0.202780077719369 141.228395084432 0.433580757050799 36.1971147321868 0.649800172609663 151.835871631408 
                               0.434376446100626 36.2960503646268 0.4335807570508  36.1971147321876 0.789508695195068 120.480626412788 0.00088785105133587 -142.928967207259 
                               0.649425652313348 -28.1455234521346 0.649800172609665 151.835871631408 0.000887851051334102 -142.928967207587 0.394974990584127 -178.900376434107 
9.675                          0.202483361471038 138.608621195954 0.59219055213453 126.09714438722  0.432743849853801 33.4197339656259 0.648878699403423 -30.8887014341231 
                               0.592190552134523 126.097144387221 0.202965438215767 138.670042804063 0.4319412416565  33.3208262069343 0.649262745329569 149.092931286032 
                               0.4327438498538  33.4197339656252 0.431941241656501 33.320826206935  0.791301853483682 117.454245605677 0.000887525197572979 -145.66552852633 
                               0.648878699403419 -30.8887014341229 0.64926274532957 149.092931286032 0.000887525197571612 -145.665528526607 0.396753684166693 178.477784614209 
9.7                            0.202688145460643 136.052885823161 0.593917026639704 123.325500650454 0.431104507843445 30.5471049970556 0.648327804677923 -33.6269079960309 
                               0.593917026639699 123.325500650454 0.203148573683203 136.114537892066 0.430294968871912 30.4482368366849 0.648721373252992 146.354942157558 
                               0.431104507843444 30.5471049970551 0.430294968871913 30.4482368366854 0.793091548399206 114.430814222277 0.000887292677254021 -148.386851402895 
                               0.648327804677918 -33.6269079960308 0.648721373252992 146.354942157558 0.000887292677253071 -148.386851403121 0.398535804551174 175.858709369018 
9.725                          0.202890535629623 133.499940529861 0.595643393143591 120.558962733799 0.429458438996083 27.6781375492748 0.647772938472214 -36.3602319829661 
                               0.595643393143587 120.558962733799 0.20332933359308 133.561786055979 0.428641959679259 27.5793209943041 0.648176019779602 143.62181536224  
                               0.429458438996083 27.6781375492743 0.42864195967926 27.5793209943045 0.79487769846751 111.410383934031 0.000887160387779522 -151.092937052422 
                               0.647772938472209 -36.360231982966 0.648176019779601 143.62181536224  0.00088716038777899 -151.092937052598 0.400321381028594 173.242345991486 
9.75                           0.203090356336858 130.949697373446 0.597369653933052 117.797426316888 0.427805681481687 24.8128064640597 0.647214069920709 -39.0887606870705 
                               0.59736965393305 117.797426316888 0.203507559818063 131.011698475052 0.426982254234652 24.7140537971875 0.647626647019176 140.893463587281 
                               0.427805681481686 24.8128064640594 0.426982254234653 24.7140537971879 0.796660201833076 108.393004454767 0.000887135456427986 -153.783806101078 
                               0.647214069920705 -39.0887606870705 0.647626647019175 140.893463587281 0.000887135456427852 -153.783806101206 0.402110445330107 170.628643249999 
9.775                          0.203287424793231 128.402073838664 0.599095801824222 115.040789965957 0.42614629208066 21.9510871626399 0.646651166964829 -41.8125799072292 
                               0.599095801824221 115.040789965957 0.203683087456567 128.464191758264 0.425315911226559 21.8524109353291 0.647073215808104 138.169801031725 
                               0.426146292080659 21.9510871626397 0.425315911226559 21.8524109353293 0.798438937618905 105.378723268392 0.000887225231046196 -156.459499765916 
                               0.646651166964826 -41.8125799072292 0.647073215808103 138.169801031725 0.000887225231046424 -156.459499766001 0.403903031570655 168.017550506648 
9.8                            0.203481551901999 125.856992786335 0.600821820770449 112.288955058326 0.424480345514921 19.092955474178  0.646084196361841 -44.5317740077238 
                               0.600821820770449 112.288955058326 0.203855745653609 125.919187893872 0.423643007198289 18.9943684998519 0.646515685727156 135.450743348395 
                               0.42448034551492 19.0929554741779 0.423643007198289 18.994368499852  0.80021376730119 102.367585359411 0.00088743726972082 -159.120080982317 
                               0.646084196361839 -44.5317740077238 0.646515685727154 135.450743348395 0.000887437269721358 -159.120080982362 0.40569917619218 165.409017704785 
9.825                          0.203672543094572 123.314382394421 0.602547686470417 109.541825707121 0.422807933746777 16.2383874655269 0.645513123694081 -47.2464259754835 
                               0.602547686470418 109.541825707121 0.204025358416503 123.376614191359 0.421963635838277 16.1399028128381 0.645954015119965 132.736207587205 
                               0.422807933746777 16.2383874655268 0.421963635838277 16.1399028128381 0.801984536090626 99.3596329472336 0.000887779329562802 -161.765635463986 
                               0.645513123694079 -47.2464259754835 0.645954015119963 132.736207587205 0.000887779329563585 -161.765635463996 0.407498917905802 162.802995357669 
9.85                           0.203860199160266 120.774176092291 0.604273366973309 106.799308686535 0.421129165249207 13.3873592729989 0.644937913378127 -49.9566174756487 
                               0.604273366973311 106.799308686535 0.204191745423912 120.836403216587 0.420277907241814 13.2889902591998 0.645388161111778 130.026112140147 
                               0.421129165249207 13.3873592729989 0.420277907241813 13.2889902591998 0.803751074312785 96.3549052251814 0.000888259354740723 -164.396272681566 
                               0.644937913378126 -49.9566174756488 0.645388161111777 130.026112140147 0.000888259354741677 -164.396272681546 0.4093022976324  160.199434538187 
9.875                          0.204044317068609 118.236312488953 0.605998823278184 104.061313357858 0.419444164250993 10.5398469367897 0.644358528673592 -52.6624289052185 
                               0.605998823278187 104.061313357858 0.204354722826886 118.298492720938 0.418585947147766 10.4416071212347 0.644818079628104 127.320376688164 
                               0.419444164250993 10.5398469367898 0.418585947147765 10.4416071212347 0.805513198780545 93.3534381049377 0.000888885463901845 -167.012126746703 
                               0.644358528673592 -52.6624289052186 0.644818079628103 127.320376688164 0.000888885463902887 -167.012126746658 0.411109358441178 157.598286869626 
9.9                            0.204224690782875 115.700735296008 0.607724009925091 101.327751596447 0.417753069960051 7.69582623860663 0.643774931691272 -55.3639394446043 
                               0.607724009925095 101.327751596447 0.204514104040507 115.762825565174 0.41688789615365 7.59772941642211 0.644243725412971 124.618922150102 
                               0.41775306996005 7.69582623860673 0.41688789615365 7.597729416422   0.807270714152151 90.3552639671392 0.000889665937120258 -169.613357189375 
                               0.643774931691272 -55.3639394446043 0.64424372541297 124.618922150102 0.000889665937121302 -169.61335718931 0.412920145485793 154.999504517504 
9.925                          0.204401112063567 113.167393246042 0.609448875575728 98.5985377197911 0.416056035768092 4.85527254295581 0.643187083400451 -58.0612271069679 
                               0.609448875575732 98.5985377197911 0.204669700524898 113.22934963873  0.415183908912267 4.75733273891586 0.643665052046586 121.921670633851 
                               0.416056035768092 4.85527254295594 0.415183908912266 4.75733273891574 0.80902341426909 87.360411418656  0.000890609202510348 -172.200149617317 
                               0.643187083400453 -58.061227106968 0.643665052046586 121.921670633851 0.000890609202511307 -172.200149617236 0.414734705937758 152.403040182418 
9.95                           0.204573371260629 110.636240007127 0.611173363581761 95.8735884167601 0.414353228439614 2.01816064245679 0.642594943635267 -60.754368785264 
                               0.611173363581765 95.87358841676   0.204821322554368 110.698017775112 0.413474153312893 1.92039210510604 0.64308201196225 119.228545389759 
                               0.414353228439614 2.01816064245695 0.413474153312892 1.92039210510589 0.810771083468588 84.3689050570194 0.000891723822641043 -174.772716247479 
                               0.64259494363527 -60.754368785264 0.643082011962251 119.228545389759 0.000891723822641831 -174.772716247385 0.416553088916843 149.808847093891 
9.975                          0.204741258093242 108.107234094083 0.612897412539193 93.1528226780897 0.412644827287973 -0.81553539253684 0.641998471100046 -63.4434402969525 
                               0.612897412539198 93.1528226780895 0.204968779973555 108.168787664024 0.411758809649859 -0.91311819647077 0.642494556462462 116.539470766348 
                               0.412644827287973 -0.815535392536684 0.411758809649858 -0.913118196470906 0.81251349786615 81.3807652423397 0.000893018480882015 -177.331296300669 
                               0.641998471100049 -63.4434402969525 0.642494556462463 116.539470766348 0.00089301848088255 -177.331296300566 0.418375345418298 147.216879005191 
10                             0.204904562416144 105.580338777117 0.614620956827421 90.436161728136  0.410931023341143 -3.64584235981669 0.641397623373623 -66.1285164263884 
                               0.614620956827426 90.4361617281358 0.20511188293952 105.641621760839 0.410038069781096 -3.74322475067587 0.641902635734166 113.854372168332 
                               0.410931023341143 -3.64584235981653 0.410038069781094 -3.74322475067602 0.814250426604222 78.3960078769499 0.000894501967807579 -179.876156251781 
                               0.641397623373628 -66.1285164263883 0.641902635734168 113.854372168332 0.000894501967807791 -179.876156251672 0.420201528236756 144.627090189093 
10.025                         0.205063074971484 103.055521988408 0.616343927131881 87.7235289578842 0.409212018499494 -6.47278806658592 0.6407923569127  -68.8096709649299 
                               0.616343927131885 87.723528957884  0.205250442648812 103.116487193986 0.408312136279015 -6.56995515665428 0.641306198863216 111.173176016885 
                               0.409212018499494 -6.4727880665858 0.408312136279013 -6.5699551566544 0.815981633063639 75.4146441929008 0.00089618316777758 177.592410070671 
                               0.640792356912706 -68.8096709649298 0.641306198863219 111.173176016885 0.000896183167777406 177.592410070784 0.422031691886733 142.039435434546 
10.05                          0.205216588125301 100.532756227193 0.618066250949401 85.0148498591789 0.407488024687741 -9.29640146607676 0.640182627054314 -71.4869767488423 
                               0.618066250949405 85.0148498591786 0.205384272048619 100.593355670781 0.406581221575877 -9.39333816402453 0.640705193848101 108.495809712089 
                               0.407488024687741 -9.29640146607666 0.406581221575875 -9.39333816402466 0.81770687603519 72.4366805473342 0.000898071045807346 175.074081540644 
                               0.640182627054319 -71.4869767488421 0.640705193848105 108.495809712089 0.000898071045806738 175.074081540761 0.423865892519688 139.45387004421  
10.075                         0.205364896587843 98.0120184638748 0.619787853075588 82.3100519601119 0.405759263002946 -12.1167127895603 0.639568388017574 -74.1605056951035 
                               0.619787853075591 82.3100519601116 0.205513186531214 98.0722033822171 0.404845547105534 -12.2134038044138 0.640099567613084 105.822201597451 
                               0.405759263002946 -12.1167127895603 0.404845547105532 -12.2134038044138 0.81942591084918 69.4621182256483 0.000900174634831163 172.568509949798 
                               0.63956838801758 -74.1605056951033 0.640099567613089 105.822201597451 0.000900174634830086 172.568509949917 0.425704187837655 136.87034983283  
10.1                           0.205507798117011 95.4932900436182 0.621508656073769 79.6090647614872 0.404025962860265 -14.933753673857 0.638949592904824 -76.8303288352452 
                               0.621508656073772 79.6090647614869 0.20563700461103 95.5530109071865 0.403105342443211 -15.030183518445 0.639489266020906 103.152280926353 
                               0.404025962860265 -14.933753673857 0.40310534244321 -15.030183518445 0.821138490461512 66.4909532522793 0.000902503023455753 170.075320383964 
                               0.638949592904831 -76.8303288352449 0.639489266020911 103.152280926353 0.000902503023454188 170.075320384085 0.427546637003485 134.28883112641  
10.125                         0.205645094204345 92.9765565899071 0.623228580725193 76.9118196742597 0.402288361137857 -17.7475572845222 0.638326193702435 -79.4965163473846 
                               0.623228580725194 76.9118196742593 0.205755548583771 93.0357631165798 0.401360844444748 -17.8437102783529 0.638874233885247 100.485977830282 
                               0.402288361137857 -17.7475572845222 0.401360844444746 -17.8437102783529 0.822844366495323 63.5231762088206 0.000905065344292326 167.594111761526 
                               0.638326193702442 -79.4965163473842 0.638874233885253 100.485977830281 0.000905065344290269 167.594111761649 0.429393300547786 131.709270762146 
10.15                          0.205776590743087 90.4618079084694 0.624947546460337 74.2182499578297 0.400546701322153 -20.5581584349444 0.637698141281454 -82.1591375866272 
                               0.624947546460338 74.2182499578292 0.205868645167139 90.5204490776728 0.399612296386466 -20.6540187064641 0.638254414983184 97.8232232886594 
                               0.400546701322153 -20.5581584349444 0.399612296386464 -20.6540187064641 0.824543290237769 60.5587720591113 0.000907870762948028 165.124457532913 
                               0.637698141281462 -82.1591375866268 0.638254414983191 97.8232232886589 0.000907870762945495 165.124457533038 0.431244240272651 129.131626089074 
10.175                         0.205902098677961 87.9490378919659 0.62666547177133 71.5282906590647 0.398801232654469 -23.3655937016473 0.63706538539836 -84.8182611140319 
                               0.626665471771331 71.5282906590642 0.205976126122814 88.0070619591836 0.397859947106622 -23.4611451898345 0.637629752067862 95.1639491000726 
                               0.398801232654469 -23.3655937016474 0.39785994710662 -23.4611451898344 0.826235013592058 57.59771998084   0.00091092846775026 162.665906538974 
                               0.637065385398368 -84.8182611140315 0.637629752067871 95.1639491000721 0.000910928467747278 162.665906539102 0.433099519152321 126.555854969407 
10.2                           0.206021434636469 85.4382444258011 0.628382274605596 68.8418785519059 0.397052209279684 -26.1699015361399 0.636427874696184 -87.4739547243497 
                               0.628382274605596 68.8418785519054 0.206077828859534 85.4955989373533 0.396104050149129 -26.2651279913881 0.637000186881679 92.5080878546991 
                               0.397052209279684 -26.16990153614  0.396104050149126 -26.265127991388 0.827919289985277 54.6399932031227 0.000914247660270523 160.217984024575 
                               0.636427874696192 -87.4739547243491 0.637000186881687 92.5080878546985 0.000914247660267138 160.217984024706 0.434959201230913 123.981915780513 
10.225                         0.206134421541629 82.9294292953818 0.630097872740955 66.1589520774122 0.39529988939752 -28.971122373704 0.635785556706281 -90.1262854727542 
                               0.630097872740954 66.1589520774116 0.206173597017199 82.9860611033695 0.394344862910053 -29.0660073579477 0.636365660170219 89.8555729077054 
                               0.39529988939752 -28.9711223737042 0.394344862910051 -29.0660073579476 0.829595875233008 51.6855588494419 0.00091783754670842 157.780192802325 
                               0.635785556706288 -90.1262854727536 0.636365660170228 89.8555729077048 0.000917837546704691 157.78019280246  0.436823351517378 121.409767417495 
10.25                          0.206240889206219 80.4225980951229 0.631812184142502 63.4794512840879 0.393544534416728 -31.7692987395517 0.635138377851021 -92.7753197007943 
                               0.631812184142501 63.4794512840873 0.206263281032105 80.4784533724241 0.392582645787142 -31.8638256255902 0.635726111697259 87.2063383533866 
                               0.393544534416728 -31.7692987395519 0.39258264578714 -31.86382562559  0.831264528362113 48.7343777852575 0.00092170733019114 155.352014559998 
                               0.635138377851029 -92.7753197007937 0.635726111697268 87.206338353386  0.000921707330187138 155.352014560138 0.43869203587784 118.839369296345 
10.275                         0.206340674908754 77.9177601394662 0.633525127301631 60.8033177683397 0.391786408112285 -34.5644753528191 0.634486283447716 -95.4211230618005 
                               0.63352512730163 60.8033177683391 0.206346738683538 77.972784394668  0.390817661332444 -34.6586273227934 0.635081480261112 84.5603189998152 
                               0.391786408112284 -34.5644753528193 0.390817661332443 -34.6586273227932 0.832925012393382 45.7864044695358 0.000925866204039441 152.932911303846 
                               0.634486283447723 -95.4211230617998 0.635081480261121 84.5603189998145 0.000925866204035246 152.93291130399  0.4405653209255  116.270681357623 
10.3                           0.206433623951575 75.414928376149  0.635236621557679 58.1304946149063 0.390025775785533 -37.3566992288951 0.633829217714034 -98.0637605459833 
                               0.635236621557677 58.1304946149057 0.206423835622161 75.4690664682942 0.389050173407903 -37.4504592718752 0.634431703712611 81.9174503437583 
                               0.390025775785532 -37.3566992288954 0.3890501734079  -37.4504592718749 0.834577095086084 42.8415868093813 0.000930323346047795 150.522326928735 
                               0.633829217714041 -98.0637605459826 0.634431703712619 81.9174503437577 0.000930323346043496 150.522326928883 0.442443273908237 113.703664070642 
10.325                         0.20651959020159 72.9141193019306 0.636946587402644 55.460926337107  0.388262903426992 -40.1460197806115 0.633167123775227 -100.70329650546 
                               0.636946587402642 55.4609263371064 0.206494445880713 72.9673154549556 0.387280446343597 -40.239370689249 0.633776718975022 79.2776685456277 
                               0.388262903426991 -40.1460197806117 0.387280446343595 -40.2393706892488 0.836220549646674 39.8998660169036 0.000935087913824035 148.119688904831 
                               0.633167123775233 -100.70329650546 0.63377671897503 79.277668545627  0.000935087913819726 148.119688904983 0.444325962594082 111.13827843811  
10.35                          0.206598436614368 70.4153528809572 0.638654946769511 52.7945588167607 0.386498056881437 -42.9324889188366 0.632499943673424 -103.339794679445 
                               0.638654946769508 52.7945588167601 0.206558452367785 70.4675506976942 0.385508744098179 -43.0254132850423 0.633116462066175 76.6409104042253 
                               0.386498056881436 -42.9324889188369 0.385508744098177 -43.025413285042 0.837855155404117 36.9611764673974 0.000940169041232565 145.724410069411 
                               0.632499943673429 -103.339794679444 0.633116462066183 76.6409104042246 0.000940169041228339 145.724410069566 0.446213455154678 108.57448600121  
10.375                         0.206670035742453 67.9186524659155 0.640361623304692 50.1313392436317 0.384731501014659 -45.716161153038 0.63182761837928 -105.973318219828 
                               0.640361623304689 50.1313392436312 0.206615747345543 67.9697949415338 0.383735329420858 -45.8086413626393 0.632450868123074 74.007113331054  
                               0.384731501014658 -45.7161611530383 0.383735329420856 -45.808641362639 0.839480698454473 34.0254455578775 0.000945575835984918 143.335890511319 
                               0.631827618379285 -105.973318219828 0.632450868123081 74.0071133310533 0.00094557583598087 143.335890511474 0.448105820046847 106.012248845084 
10.4                           0.206734270228947 65.4240447221047 0.6420665426251  47.4712160542673 0.382963498881225 -48.4970936923841 0.631150087806237 -108.603929717376 
                               0.642066542625097 47.4712160542667 0.206666232892463 65.4740742568643 0.381960463014187 -48.5891119187218 0.631779871429274 71.3762153239696 
                               0.382963498881224 -48.4970936923844 0.381960463014185 -48.5891119187216 0.841096972277447 31.092593564967  0.000951317378422232 140.953519534649 
                               0.631150087806241 -108.603929717376 0.63177987142928 71.3762153239689 0.000951317378418451 140.953519534803 0.45000312589236 103.451529604691 
10.425                         0.206791033287567 62.9315595545269 0.64376963256035 44.8141388701021 0.381194310892403 -51.275346547965 0.630467290827642 -111.231691228754 
                               0.643769632560348 44.8141388701015 0.206709821352325 62.9804179657234 0.38018440269678 -51.3668847443871 0.631103405445261 68.7481549399587 
                               0.381194310892402 -51.2753465479653 0.380184402696778 -51.3668847443868 0.842703778327688 28.1625335011097 0.000957402721535899 138.576677687385 
                               0.630467290827645 -111.231691228753 0.631103405445266 68.7481549399581 0.000957402721532466 138.576677687536 0.451905441355953 100.892291471028 
10.45                          0.20684022917056 60.4412300380807 0.645470823380565 42.1600584347173 0.379424193983341 -54.0509826367132 0.629779165296965 -113.856664304582 
                               0.645470823380562 42.1600584347168 0.206746435770855 60.4888585710604 0.37840740256496 -54.1420225279213 0.630421402842076 66.1228712668411 
                               0.37942419398334 -54.0509826367134 0.378407402564958 -54.1420225279211 0.844300926603653 25.2351709680508 0.00096384089227522 136.204738839966 
                               0.629779165296967 -113.856664304581 0.630421402842081 66.1228712668405 0.000963840892272206 136.204738840111 0.453812835021638 98.334498197675  
10.475                         0.206881773626032 57.9530923509168 0.647170048010181 39.5089265501521 0.377653400778504 -56.8240678876031 0.629085648071334 -116.47891001871 
                               0.647170048010179 39.5089265501517 0.206776010321596 57.9994316890512 0.376629712152307 -56.9145909598099 0.629733795538411 63.5003038937041 
                               0.377653400778503 -56.8240678876034 0.376629712152306 -56.9145909598097 0.84588823619675 22.3104040065075 0.000970640894194344 133.837072298176 
                               0.629085648071335 -116.478910018709 0.629733795538416 63.5003038937036 0.000970640894191807 133.837072298312 0.455725375267266 95.7781141076561 
10.5                           0.206915594346427 55.4671857110058 0.648867242228163 36.8606960121844 0.375882178754278 -59.5946713507   0.628386675038574 -119.098488998884 
                               0.648867242228161 36.860696012184  0.206798490722768 55.5121759845192 0.374851575585949 -59.6846588405517 0.629040514741362 60.8803928798955 
                               0.375882178754277 -59.5946713507002 0.374851575585948 -59.6846588405516 0.847465535823443 19.3881229409408 0.000977811711494818 131.47304493422  
                               0.628386675038574 -119.098488998884 0.629040514741365 60.880392879895  0.000977811711492801 131.473044934345 0.457643130137314 93.2231041006027 
10.525                         0.206941631410046 52.9835523159504 0.650562344854884 34.2153205445091 0.374110769397635 -62.3628653096176 0.627682181147951 -121.715461458967 
                               0.650562344854882 34.2153205445088 0.206813834647029 53.027133109506  0.373073230738431 -62.452298191838 0.628341490991036 58.2630787224167 
                               0.374110769397634 -62.3628653096178 0.373073230738429 -62.4522981918379 0.849032664342842 16.4682102183258 0.000985362314524824 129.112023319529 
                               0.627682181147951 -121.715461458967 0.628341490991039 58.2630787224163 0.000985362314523352 129.112023319639 0.459566167213774 90.6694336602002 
10.55                          0.206959837717689 50.5022372860714 0.652255297925936 31.572754731764  0.372339407359692 -65.1287253979313 0.626972100444768 -124.32988723284 
                               0.652255297925934 31.5727547317638 0.206822012126222 50.544347645032  0.371294908373941 -65.2175843716369 0.627636654209173 55.6483023215766 
                               0.372339407359691 -65.1287253979314 0.37129490837394 -65.2175843716368 0.850589471262135 13.5505402398176 0.000993301666801316 126.753375842577 
                               0.626972100444768 -124.32988723284 0.627636654209175 55.6483023215763 0.000993301666800397 126.753375842669 0.461494553485008 88.1170688619137 
10.575                         0.206970179426659 48.0232886107912 0.65394604685299 28.9329539513663 0.370568319602981 -67.8923307200704 0.626256366108963 -126.941825810118 
                               0.653946046852989 28.9329539513661 0.206823005953386 48.0638670460834 0.369516831287666 -67.9805961937109 0.626925933751908 53.0360049447854 
                               0.370568319602979 -67.8923307200704 0.369516831287665 -67.9805961937109 0.852135817231982 10.6349791842064 0.00100163873362681 124.396474794915 
                               0.626256366108962 -126.941825810118 0.626925933751909 53.0360049447852 0.00100163873362643 124.396474794988 0.463428355212346 85.5659763809857 
10.6                           0.206972636384538 45.5467570983423 0.655634540571771 26.2958743041468 0.368797724541244 -70.6537639771946 0.625534910497822 -129.551336373766 
                               0.655634540571769 26.2958743041467 0.206816812084433 45.5857415898719 0.367739213437028 -70.7414160520636 0.626209258466812 50.4261281883902 
                               0.368797724541243 -70.6537639771946 0.367739213437027 -70.7414160520636 0.853671574533743 7.7213848220652  0.00101038249237823 122.040698408651 
                               0.625534910497821 -129.551336373766 0.626209258466812 50.4261281883901 0.00101038249237837 122.040698408701 0.465367637794188 83.0161235007055 
10.625                         0.206967202565323 43.0726963288422 0.657320731677085 23.6614725437858 0.367027831170585 -73.413111598529 0.624807665192924 -132.158477839699 
                               0.657320731677084 23.6614725437857 0.206803440042103 43.1100243274212 0.365962259063588 -73.5001300507924 0.625486556754292 47.8186139374766 
                               0.367027831170584 -73.4131115985291 0.365962259063588 -73.5001300507924 0.855196627560112 4.80960631950124 0.00101954194455098 119.685432828749 
                               0.624807665192922 -132.158477839699 0.625486556754292 47.8186139374765 0.00101954194455157 119.685432828774 0.467312465627271 80.4674781209505 
10.65                          0.206953886510649 40.601162610787  0.659004576544777 21.0297060050764 0.3652588381908  -76.1704638786076 0.624074561051377 -134.763308898413 
                               0.659004576544776 21.0297060050765 0.206782913324927 40.6367710385568 0.364186161804412 -76.2568281397897 0.624757756633444 45.2134043235819 
                               0.365258838190799 -76.1704638786075 0.364186161804412 -76.2568281397898 0.856710873290363 1.89948403043767 0.00102912612964687 117.330074003829 
                               0.624074561051375 -134.763308898413 0.624757756633443 45.213404323582  0.00102912612964785 117.330074003828 0.469262901964739 77.9200087670068 
10.675                         0.206932711779027 38.1322149410511 0.660686035440317 18.4005325310627 0.363490933115795 -78.9259151208355 0.623335528261439 -137.365888058672 
                               0.660686035440316 18.4005325310628 0.206755269824116 38.166040190403  0.362411103791739 -79.0116042567027 0.624022785812399 42.6104416802936 
                               0.363490933115795 -78.9259151208354 0.362411103791739 -79.0116042567028 0.858214221761072 -1.00915072362653 0.00103914414099993 114.974029479507 
                               0.623335528261436 -137.365888058672 0.624022785812398 42.6104416802937 0.00103914414100122 114.974029479481 0.47121900877056 75.373684598679  
10.7                           0.206903717406145 35.6659149685077 0.662365072613682 15.7739103991194 0.361724291372003 -81.6795637877527 0.62259049640254 -139.966273693269 
                               0.66236507261368 15.7739103991197 0.206720562251441 35.6978928995289 0.360637254739845 -81.7645564755255 0.623281571763212 40.0096684967257 
                               0.361724291372002 -81.6795637877525 0.360637254739846 -81.7645564755256 0.859706596532723 -3.91647588740974 0.00104960514363865 112.616720078825 
                               0.622590496402537 -139.966273693269 0.62328157176321 40.009668496726  0.00104960514364015 112.616720078772 0.473180846569806 72.8284754197015 
10.725                         0.20686695837948 33.2023269614403 0.664041656380016 13.1497982460666 0.359959075383788 -84.431512658334 0.621839394509747 -142.564524086814 
                               0.664041656380014 13.1497982460669 0.206678858581305 33.2323928979331 0.358864771018067 -84.5157871621575 0.6225340418013  37.411027368901  
                               0.359959075383787 -84.4315126583338 0.358864771018069 -84.5157871621577 0.861187935152185 -6.82267892019227 0.00106051839428729 110.257581454904 
                               0.621839394509745 -142.564524086814 0.622534041801299 37.4110273689014 0.00106051839428889 110.257581454826 0.475148474294202 70.2843516874704 
10.75                          0.206822506130586 30.7415177789692 0.66571575918548 10.5281549924288 0.35819543364492 -87.1818689926258 0.621082151142691 -145.160697485525 
                               0.665715759185478 10.5281549924291 0.206630242510368 30.7696065031188 0.357093794709012 -87.2654031372207 0.621780123169448 34.8144609490812 
                               0.358195433644919 -87.1818689926256 0.357093794709013 -87.2654031372209 0.862658189610551 -9.72795705968241 0.00107189326361195 107.896065501656 
                               0.621082151142688 -145.160697485525 0.621780123169446 34.8144609490817 0.00107189326361354 107.896065501553 0.477121949122337 67.7412845231181 
10.775                         0.206770449048614 28.283556846795  0.66738735765756 7.90893976597664 0.356433499775245 -89.9307447039689 0.620318694458937 -147.754852148924 
                               0.667387357657557 7.90893976597708 0.206574813938237 28.3096025925849 0.35532445265109 -90.0135158463793 0.62101974312634 32.2199118931271 
                               0.356433499775245 -89.9307447039687 0.355324452651091 -90.0135158463795 0.864117326795294 -12.6325176023298 0.00108373926081884 105.531641609095 
                               0.620318694458935 -147.754852148925 0.621019743126339 32.2199118931277 0.0010837392608203 105.531641608971 0.479101326313827 65.1992457219553 
10.8                           0.206710893018741 25.828516137647  0.669056432638987 5.29211182470718 0.354673391561814 -92.678256539015 0.619548952291806 -150.347046403355 
                               0.669056432638984 5.29211182470771 0.206512689472825 25.8524525831464 0.353556855464594 -92.7602415383623 0.620252829039626 29.6273228059858 
                               0.354673391561813 -92.6782565390148 0.353556855464596 -92.7602415383625 0.865565328935181 -15.5365782009765 0.00109606606071298 103.163797750664 
                               0.619548952291804 -150.347046403356 0.620252829039625 29.6273228059865 0.00109606606071419 103.163797750522 0.481086659036676 62.6582077643125 
10.825                         0.206643961989352 23.3764701569329 0.670722969204323 2.67763047944175 0.35291520998381 -95.4245262656903 0.618772852232597 -152.937338697179 
                               0.67072296920432 2.67763047944233 0.206444002964175 23.3982304156046 0.351791096560669 -95.5057014508353 0.619479308483437 27.0366361854379 
                               0.352915209983809 -95.42452626569  0.351791096560671 -95.5057014508356 0.867002194035729 -18.4403671806816 0.00110888353332407 100.792041390821 
                               0.618772852232595 -152.937338697179 0.619479308483437 27.0366361854387 0.00110888353332492 100.792041390664 0.483077998187008 60.1181438268135 
10.85                          0.206569798571956 20.9274959342126 0.672386956658134 0.0654550162449758 0.351159038220747 -98.1696808692071 0.617990321717209 -155.525787657493 
                               0.67238695665813 0.0654550162456159 0.206368906070592 20.9470125454118 0.350027251132629 -98.2500220042145 0.618699109340342 24.4477943642612 
                               0.351159038220747 -98.1696808692068 0.350027251132632 -98.2500220042147 0.868427936302452 -21.3441238735058 0.00112220177620384 98.4159002020727 
                               0.617990321717208 -155.525787657494 0.618699109340342 24.447794364262  0.00112220177620422 98.4159002019049 0.485075392200293 57.5790277941209 
10.875                         0.206488564677945 18.4816730212632 0.67404838851356 -2.54445538111436 0.349404940643542 -100.913852756173 0.617201288117096 -158.1124521482  
                               0.674048388513554 -2.54445538111369 0.206287568861099 18.4988779401172 0.348265375129245 -100.993335003461 0.617912159907652 21.8607394509929 
                               0.349404940643542 -100.913852756173 0.348265375129248 -100.993335003462 0.869842586548392 -24.2480989729832 0.0011360311494938 96.0349225815873 
                               0.617201288117095 -158.112452148201 0.617912159907653 21.8607394509938 0.00113603114949364 96.0349225814135 0.487078886853132 55.0408342711948 
10.9                           0.206400442196445 16.0390834976779 0.675707262450009 -5.15214170841339 0.347652961788201 -103.657179966781 0.616405678834526 -160.697391329199 
                               0.675707262450003 -5.15214170841268 0.206200180458273 16.0539080845523 0.346505504209733 -103.735777847835 0.617118389008032 19.2754132695057 
                               0.347652961788201 -103.657179966781 0.346505504209735 -103.735777847835 0.871246192581802 -27.1525549089374 0.0011503823138554 93.648677958495  
                               0.616405678834526 -160.6973913292  0.617118389008033 19.2754132695067 0.00115038231385463 93.6486779583201 0.489088525054593 52.5035385961131 
10.925                         0.206305633717619 13.599811985136  0.677363580248575 -7.75764521767404 0.34590312531201 -106.399806395012 0.6156034214021  -163.280664716478 
                               0.677363580248568 -7.75764521767331 0.206106949725638 13.6121869949009 0.344747652680376 -106.47749374852 0.616317726104334 16.691757297631  
                               0.34590312531201 -106.399806395012 0.344747652680379 -106.47749374852 0.872638819569068 -30.0577662432341 0.00116526627134451 91.2567568839809 
                               0.6156034214021  -163.280664716479 0.616317726104336 16.6917572976319 0.00116526627134309 91.2567568838095 0.491104346626058 49.9671168535023 
10.95                          0.206204363305874 11.1639456717094 0.679017347703687 -10.3610074930235 0.344155432932305 -109.141882016713 0.61479444358648 -165.862332242827 
                               0.679017347703679 -10.3610074930228 0.206008106003802 11.1738012430212 0.342991812412876 -109.218631953981 0.615510101418596 14.1097126050966 
                               0.344155432932304 -109.141882016712 0.342991812412878 -109.218631953981 0.874020550367178 -32.9640200869726 0.00118069440930003 88.8587708972725 
                               0.614794443586481 -165.862332242828 0.615510101418599 14.1097126050975 0.00118069440929795 88.8587708971092 0.493126388068494 47.4315458886345 
10.975                         0.206096877327509 8.73157434783145 0.680668574509432 -12.9622705254139 0.342409863348071 -111.883563125338 0.613978673496293 -168.442454318902 
                               0.680668574509424 -12.9622705254132 0.205903899899596 8.7388399926352  0.341237951744708 -111.959347982832 0.614695446055121 11.5292197910673 
                               0.34240986334807 -111.883563125338 0.34123795174471 -111.959347982832 0.875391485819229 -35.8716165395357 0.00119667854730052 86.4543521616246 
                               0.613978673496295 -168.442454318903 0.614695446055125 11.5292197910683 0.00119667854729781 86.4543521614733 0.495154682315996 44.8968033222486 
11                             0.205983445337395 6.30279045584939 0.682317274118883 -15.5614767858773 0.340666371144818 -114.6250125751  0.613156039694171 -171.021091894309 
                               0.682317274118873 -15.5614767858766 0.20579460413242 6.30739504928515 0.339486014362007 -114.699803863926 0.613873692127598 8.95021892160433 
                               0.340666371144817 -114.6250125751  0.339486014362009 -114.699803863926 0.876751745005558 -38.7808691498155 0.00121323098722424 84.043152865394  
                               0.613156039694173 -171.02109189431 0.613873692127601 8.95021892160524 0.00121323098722095 84.0431528652582 0.497189258474438 42.3628675661584 
11.025                         0.205864361029278 3.8776891554171  0.683963463574705 -18.1586692969764 0.338924885683415 -117.366400031161 0.6123264713129  -173.598306518379 
                               0.683963463574696 -18.1586692969757 0.205680514441982 3.8795609262708  0.337735918165702 -117.440168383314 0.613044772890169 6.37264946738135 
                               0.338924885683414 -117.366400031161 0.337735918165704 -117.440168383314 0.878101465442156 -41.6921053998181 0.00123036456642564 81.6248443842723 
                               0.612326471312902 -173.598306518379 0.613044772890173 6.37264946738217 0.00123036456642186 81.6248443841545 0.499230141544026 39.8297178397121 
11.05                          0.205739943254267 1.45636840736469 0.685607163309263 -20.7538917020946 0.3371853099738  -120.107902226459 0.61148989817566 -176.174160400263 
                               0.685607163309253 -20.753891702094 0.205561950561469 1.45543492914407 0.335987554121908 -120.180617337637 0.61220862287244 3.7964502420224  
                               0.337185309973799 -120.107902226459 0.335987554121909 -120.180617337637 0.879440803217017 -44.6056672107319 0.00124809271401517 79.1991162016912 
                               0.611489898175662 -176.174160400264 0.612208622872444 3.79645024202316 0.00124809271401104 79.1991162015928 0.501277352124506 37.297334187174  
11.075                         0.205610537111966 -0.961070920890172 0.68724839691236 -23.3471883321926 0.335447519534754 -122.849703224664 0.610646250920359 -178.74871646798 
                               0.68724839691235 -23.3471883321921 0.205439257260033 -0.964882738265089 0.334240785097844 -122.921333793426 0.611365178018342 1.22155934144608 
                               0.335447519534751 -122.849703224664 0.334240785097845 -122.921333793426 0.880769933053987 -47.5219114713981 0.00126642951019897 76.7656745853397 
                               0.610646250920361 -178.748716467981 0.611365178018346 1.22155934144678 0.00126642951019464 76.7656745852609 0.503330906101804 34.7656974960999 
11.1                           0.205476515118533 -3.37452492484528 0.688887190864756 -25.9386042696451 0.333711361241227 -125.591994688668 0.609795461128057 178.677961574011 
                               0.688887190864747 -25.9386042696447 0.205312805458183 -3.38128884286994 0.332495444684879 -125.662508351714 0.610514375828865 -1.35208591537687 
                               0.333711361241225 -125.591994688668 0.332495444684879 -125.662508351714 0.882089048292555 -50.441210588971 0.00128538974859992 74.3242410186083 
                               0.609795461128058 178.67796157401  0.610514375828868 -1.35208591537632 0.00128538974859559 74.324241018548  0.50539081431481 32.2347895167813 
11.125                         0.205338278455641 -5.78388650324691 0.690523574235512 -28.5281854087582 0.331976652161049 -128.334976153951 0.608937461455521 176.105809189125 
                               0.690523574235503 -28.5281854087579 0.205182993419272 -5.7936769624755 0.33075133601064 -128.404339417275 0.609656155508616 -3.92454904382384 
                               0.331976652161046 -128.334976153951 0.330751336010639 -128.404339417275 0.883398360770747 -53.3639530613749 0.00130498900144153 71.8745503866156 
                               0.608937461455522 176.105809189124 0.609656155508619 -3.92454904382335 0.00130498900143742 71.8745503865712 0.507457082201075 29.704592882838  
11.15                          0.205196258303919 -8.18904516456885 0.692157578341251 -31.1159785125546 0.330243178383184 -131.07885530605 0.608072185771947 173.534760955302 
                               0.692157578341243 -31.1159785125543 0.205050248019782 -8.20193729258513 0.329008230542522 -131.147033471699 0.608790458116229 -6.49589444873067 
                               0.330243178383181 -131.07885530605 0.329008230542519 -131.147033471699 0.88469810059701 -56.2905440709702 0.00132524368742981 69.4163489172536 
                               0.608072185771946 173.534760955301 0.608790458116231 -6.49589444873034 0.00132524368742614 69.4163489172212 0.509529709420138 27.1750911330385 
11.175                         0.205050917263864 -10.5898867942834 0.693789236365377 -33.702031265404 0.328510693840167 -133.823848261272 0.607199569299913 170.964750514463 
                               0.69378923636537 -33.7020312654039 0.204915026100345 -10.6059564147869 0.327265866885345 -133.890805349431 0.607917226718635 -9.06618747674692 
                               0.328510693840163 -133.823848261271 0.327265866885341 -133.890805349431 0.885988515795468 -59.2214060986129 0.00134617114211563 66.9493918784159 
                               0.607199569299911 170.964750514462 0.607917226718636 -9.06618747674669 0.00134617114211265 66.9493918783905 0.511608689453274 24.6462687344336 
11.2                           0.204902750866384 -12.9862933768307 0.695418582935321 -36.2863923210676 0.326778919127741 -136.570179849684 0.606319548760661 168.395710525246 
                               0.695418582935316 -36.2863923210676 0.20477781589858 -13.0056170209762 0.325523949576417 -136.635878515797 0.60703640654924 -11.6354944654529 
                               0.326778919127736 -136.570179849684 0.325523949576412 -136.635878515797 0.887269871807468 -62.1569795570432 0.00136778969045962 64.4734410332319 
                               0.606319548760658 168.395710525246 0.607036406549238 -11.6354944654528 0.00136778969045757 64.4734410332073 0.513694009178441 22.1181111068858 
11.225                         0.204752289174134 -15.3781426653707 0.697045653655896 -38.8691113457143 0.325047540325301 -139.31808389933 0.605432062523799 165.827572619524 
                               0.697045653655892 -38.8691113457144 0.20463913856361 -15.4007975869395 0.32378214788177 -139.382485345929 0.606147945170068 -14.2038827887401 
                               0.325047540325295 -139.31808389933 0.323782147881765 -139.382485345929 0.888542450830568 -65.0977234422491 0.00139011872125163 61.9882618557227 
                               0.605432062523795 165.827572619524 0.606147945170065 -14.2038827887401 0.00139011872125073 61.9882618556921 0.515785648419269 19.5906046490843 
11.25                          0.204600098473366 -17.7653077915059 0.698670484596879 -41.4502390554622 0.323316207821267 -142.067803520467 0.604537050761578 163.260267363209 
                               0.698670484596878 -41.4502390554624 0.204499549750644 -17.791371988031 0.322040094597959 -142.130867403391 0.605251792637964 -16.7714208979415 
                               0.323316207821261 -142.067803520467 0.322040094597953 -142.130867403391 0.889806550974394 -68.0441160011287 0.00141317876295653 59.4936205098186 
                               0.604537050761572 163.26026736321  0.605251792637959 -16.7714208979417 0.00141317876295697 59.4936205097749 0.517883579466968 17.0637367661325 
11.275                         0.204446783054295 -20.1476568061769 0.700293111732993 -44.0298272479939 0.321584535148179 -144.819591388563 0.603634455607871 160.69372422188  
                               0.700293111732994 -44.0298272479943 0.204359641292132 -20.1772090488222 0.320297384864459 -144.881275717202 0.604347901674941 -19.3381783581885 
                               0.321584535148172 -144.819591388562 0.320297384864451 -144.881275717202 0.891062485210788 -70.9966554134096 0.00143699156046463 56.9892805951192 
                               0.603634455607864 160.69372422188  0.604347901674933 -19.3381783581888 0.00143699156046653 56.9892805950556 0.519987766574104 14.5374958987973 
11.3                           0.204292987075676 -22.5250521418657 0.701913570334511 -46.6079288277863 0.319852097833013 -147.573710024604 0.602724221322071 158.127871531744 
                               0.701913570334515 -46.6079288277868 0.204220042939627 -22.5581720176818 0.31855357499247 -147.633971055822 0.603436227842814 -21.9042258794541 
                               0.319852097833006 -147.573710024604 0.318553574992461 -147.633971055822 0.89231058009358 -73.9558604853661 0.0014615801521159 54.474999663166  
                               0.602724221322062 158.127871531744 0.603436227842805 -21.9042258794545 0.00146158015211933 54.474999663077  0.522098165419279 12.0118715545127 
11.325                         0.204139396506464 -24.8973499850902 0.703531894306824 -49.1845978244989 0.318118432269012 -150.3304320712  0.601806294458074 155.562636476507 
                               0.70353189430683 -49.1845978244994 0.204081424167621 -24.9341179562769 0.316808181316748 -150.389224196541 0.602516729722266 -24.4696353417404 
                               0.318118432269004 -150.330432071199 0.316808181316739 -150.389224196541 0.89355117422106 -76.9222713524094 0.00148696894623983 51.9505255083092 
                               0.601806294458065 155.562636476507 0.602516729722255 -24.4696353417409 0.00148696894624474 51.9505255081912 0.524214722541817 9.4868543402241  
11.35                          0.203986741133832 -27.2643995469469 0.705148115477355 -51.7598894040576 0.316383034616219 -153.090040562779 0.60088062403861 152.997945070678 
                               0.705148115477363 -51.7598894040583 0.203944496026992 -27.3048970329648 0.315060679078021 -153.147316188587 0.601589369096498 -27.0344798138522 
                               0.316383034616212 -153.090040562778 0.315060679078011 -153.147316188587 0.89478461641175 -79.8964501870922 0.00151318379630213 49.4155922375265 
                               0.600880624038599 152.997945070678 0.601589369096485 -27.0344798138528 0.00151318379630834 49.4155922373791 0.526337374745679 6.9624359971685  
11.375                         0.203835796622394 -29.6260422181598 0.706762262828395 -54.3338598719786 0.314645359738886 -155.852829188094 0.599947161735139 150.433722149882 
                               0.706762262828405 -54.3338598719793 0.203810013031354 -29.6703517079977 0.313310501344548 -155.908538608124 0.600654111139669 -29.5988335651992 
                               0.314645359738879 -155.852829188093 0.313310501344538 -155.908538608124 0.89601126356151 -82.8789819084725 0.00154025207357229 46.8699161237945 
                               0.599947161735127 150.433722149883 0.600654111139655 -29.5988335651999 0.00154025207357949 46.8699161236217 0.528466048471958 4.43860943767458 
11.4                           0.203687386603966 -31.982110593749 0.708374361674495 -56.9065666684695 0.312904820189003 -158.619102543045 0.599005862053607 147.869891368737 
                               0.708374361674506 -56.9065666684702 0.203678775054246 -32.0303157973941 0.311557037982567 -158.673193803187 0.599710924610317 -32.1627720700594 
                               0.312904820188997 -158.619102543045 0.311557037982557 -158.673193803187 0.89723147814717 -85.8704748881002 0.00156820273601533 44.3131912478674 
                               0.599005862053595 147.869891368738 0.599710924610304 -32.1627720700601 0.00156820273602301 44.3131912476793 0.530600659139413 1.91536878407587 
11.425                         0.203542384770478 -34.3324273510612 0.709984432783265 -59.4780683548602 0.311160785246452 -161.389176371742 0.598056682526343 145.306375206862 
                               0.709984432783275 -59.4780683548608 0.203551629208651 -34.3846134012947 0.309799634686554 -161.44159512643 0.598759782049988 -34.7263720037376 
                               0.311160785246446 -161.389176371742 0.309799634686545 -161.44159512643 0.898445625338972 -88.8715616471333 0.00159706639186078 41.7450849336123 
                               0.598056682526333 145.306375206862 0.598759782049976 -34.7263720037382 0.00159706639186822 41.7450849334265 0.532741110452673 -0.607290590180182 
11.45                          0.203401716934391 -36.6768039635457 0.711592491438576 -62.0484245909115 0.30941258002754 -164.163377793522 0.597099583910397 142.743094983582 
                               0.711592491438584 -62.048424590912 0.20342947167257 -36.7330576816247 0.308037592081676 -164.214067153444 0.597800659987291 -37.2897112300502 
                               0.309412580027536 -164.163377793521 0.308037592081669 -164.214067153445 0.899654069680917 -91.8828995382247 0.00162687535600396 39.1652329824505 
                               0.597099583910389 142.743094983582 0.597800659987281 -37.2897112300507 0.00162687535601023 39.1652329822941 0.534887293677908 -3.12937201714139 
11.475                         0.203266363010994 -39.0150392313624 0.713198546445371 -64.6176961025613 0.307659484675219 -166.942045513517 0.596134530392634 140.179970881897 
                               0.713198546445375 -64.6176961025616 0.203313249415067 -39.0754494730129 0.306270164912259 -166.990945884237 0.596833539147637 -39.8528687795682 
                               0.307659484675217 -166.942045513517 0.306270164912256 -166.990945884238 0.900857171294912 -94.9051714048606 0.00165766369703942 36.5732347130355 
                               0.596134530392629 140.179970881897 0.596833539147632 -39.8528687795684 0.00165766369704328 36.5732347129473 0.537039086885922 -5.65087748859742 
11.5                           0.203137358864895 -41.3469176087521 0.714802599075507 -67.1859446396778 0.305900733645807 -169.7255300142  0.595161489801931 137.61692198227  
                               0.714802599075505 -67.1859446396779 0.203203961766161 -41.4115757102187 0.304496561331783 -169.772578925309 0.595858404668891 -42.4159248180556 
                               0.305900733645807 -169.7255300142  0.304496561331784 -169.77257892531 0.902055281561176 -97.9390862097444 0.00168946727230259 33.9686478131407 
                               0.595161489801932 137.61692198227  0.595858404668894 -42.4159248180556 0.00168946727230252 33.9686478131736 0.539196354162863 -8.17180760788724 
