! Generated from PyAEDT SolutionData; AEDT ExportNetworkData workaround
# GHz S MA R 50
9 0.294390363768 133.044870517 0.567879204519 -170.039914749 0.451804820092 -78.3436712838 0.621868094805 37.2252345805 0.567879204519 -170.039914749 0.294805951083 132.947404173 0.451872921441 -78.2988170451 0.621621688127 -142.803396553 0.451804820092 -78.3436712838 0.451872921441 -78.2988170451 0.76920939426 -147.874931111 0.000418559363388 -100.352742171 0.621868094805 37.2252345805 0.621621688127 -142.803396553 0.00041855936337 -100.352742169 0.476304917382 -146.770713376
9.025 0.292447749256 130.128126159 0.569145593333 -172.874474127 0.45229281657 -82.6184242842 0.621271834294 34.308684392 0.569145593333 -172.874474127 0.292877128815 130.032969047 0.452364353784 -82.572647563 0.621017492073 -145.719836858 0.45229281657 -82.6184242842 0.452364353784 -82.572647563 0.768629680538 -153.680674975 0.000419970211822 -105.077257525 0.621271834293 34.308684392 0.621017492073 -145.719836858 0.000419970211747 -105.077257535 0.477868572969 -149.460434185
9.05 0.290526215434 127.21995235 0.570426148029 -175.70198607 0.452746320829 -86.8868548424 0.62066834069 31.3997339828 0.570426148029 -175.70198607 0.290969301332 127.127239618 0.452821434743 -86.8401552071 0.620406021132 -148.628659048 0.452746320829 -86.8868548424 0.452821434743 -86.8401552072 0.768091000276 -159.482701985 0.000421269210343 -109.787634095 0.62066834069 31.3997339827 0.620406021131 -148.628659048 0.000421269210234 -109.787634113 0.479444419866 -152.145305727
9.075 0.288625693953 124.320112345 0.571720967871 -178.522683154 0.453165383554 -91.1488753512 0.620057618373 28.4982425316 0.571720967872 -178.522683154 0.289082396081 124.229978033 0.453244212246 -91.1012529564 0.61978729145 -151.530004147 0.453165383553 -91.1488753512 0.453244212246 -91.1012529565 0.767593170672 -165.280176621 0.000422457272224 -114.483081293 0.620057618372 28.4982425315 0.619787291449 -151.530004147 0.000422457272098 -114.483081315 0.481032251998 -154.825414605
9.1 0.286746178006 121.428371278 0.573030051124 178.663207866 0.453550160845 -95.4044029988 0.619439670893 25.6040723717 0.573030051124 178.663207866 0.287216400178 121.340948112 0.453632839499 -95.3558585556 0.619161316724 -154.424010014 0.453550160845 -95.4044029988 0.453632839499 -95.3558585556 0.767135910479 -171.072342789 0.000423535614914 -119.162865859 0.619439670893 25.6040723716 0.619161316723 -154.424010014 0.000423535614786 -119.162865882 0.482631869856 -157.50084539
9.125 0.284887701354 118.54449331 0.574353301291 175.855466565 0.453900914226 -99.6533598512 0.618814500834 22.7170889227 0.574353301291 175.855466565 0.285371340026 118.459912533 0.453987574991 -99.603894599 0.618528108313 -157.310811411 0.453900914226 -99.6533598513 0.453987574991 -99.603894599 0.766718838371 -176.858517399 0.000424505741343 -123.826306103 0.618814500834 22.7170889226 0.618528108313 -157.310811411 0.000424505741223 -123.826306126 0.484243080264 -160.17168067
9.15 0.283050319645 115.668239593 0.575690533291 173.053879305 0.4542180101 -103.895673012 0.618182109691 19.8371606209 0.575690533291 173.053879305 0.283547263114 115.586630808 0.454308781957 -103.845288691 0.617887675345 -160.190540077 0.4542180101 -103.895673012 0.454308781956 -103.845288691 0.766341471435 177.361915778 0.000425369423916 -128.472766324 0.618182109691 19.8371606209 0.617887675345 -160.190540077 0.000425369423812 -128.472766346 0.485865696145 -162.83800112
9.175 0.281234094093 112.799366913 0.577041479556 170.258239616 0.454501918657 -108.131274851 0.617542497775 16.9641588477 0.577041479556 170.258239616 0.281744222055 112.720857947 0.454596927289 -108.079973671 0.617240024815 -163.0633248 0.454501918657 -108.131274851 0.454596927288 -108.079973671 0.766003223917 171.589511889 0.000426128691206 -133.101651501 0.617542497775 16.9641588477 0.617240024815 -163.0633248 0.000426128691122 -133.10165152 0.487499536299 -165.499885553
9.2 0.279439077439 109.937626893 0.578405796025 167.468348526 0.454753212257 -112.360103284 0.616895664137 14.0979578571 0.578405796025 167.468348526 0.279962260831 109.862343651 0.454852579924 -112.307887905 0.616585161681 -165.92929149 0.454753212257 -112.360103284 0.454852579924 -112.307887905 0.76570340632 165.824770338 0.000426785817258 -137.712402342 0.616895664137 14.0979578571 0.616585161681 -165.92929149 0.000426785817196 -137.712402359 0.489144425176 -168.157410981
9.225 0.277665302094 107.082765634 0.579783068033 164.684014838 0.454972563283 -116.582102116 0.616241606516 11.2384347026 0.579783068033 164.684014838 0.278201403133 107.010831958 0.455076408706 -116.528975614 0.615923088953 -168.788563256 0.454972563283 -116.582102116 0.455076408706 -116.528975614 0.765441224944 160.068139627 0.000427343313313 -142.304490759 0.616241606516 11.2384347025 0.615923088953 -168.788563256 0.000427343313275 -142.304490773 0.490800192661 -170.810652678
9.25 0.275912770323 104.234523716 0.581172816082 161.905055348 0.455160741504 -120.797221408 0.615580321299 8.38546916391 0.581172816082 161.905055348 0.276461642695 104.166061239 0.455269179755 -120.743187252 0.615253807777 -171.641260479 0.455160741504 -120.797221408 0.455269179755 -120.743187252 0.765215781968 154.320021669 0.000427803921694 -146.877415805 0.615580321299 8.38546916389 0.615253807776 -171.641260479 0.000427803921677 -146.877415817 0.492466673855 -173.459684228
9.275 0.2741814463 101.392636475 0.582574501468 159.131295023 0.455318610961 -125.005417888 0.614911803494 5.53894367423 0.582574501468 159.131295023 0.274742935441 101.327764472 0.455431753362 -124.950479911 0.614577317512 -174.487500887 0.455318610961 -125.005417888 0.455431753362 -124.950479911 0.765026076135 148.580775553 0.00042817061153 -151.430700136 0.614911803494 5.53894367422 0.614577317512 -174.487500887 0.000428170611532 -151.430700145 0.494143708867 -176.104577592
9.3 0.272471249856 98.5568344901 0.583987531785 156.362567125 0.455447126407 -129.206655376 0.614236046723 2.6987432474 0.583987531785 156.362567125 0.273045193296 98.4956697223 0.455565080444 -129.150817751 0.613893615811 -177.327399629 0.455447126407 -129.206655376 0.455565080444 -129.150817751 0.764871004105 142.850720758 0.000428446575984 -155.963886992 0.614236046723 2.69874324739 0.613893615811 -177.327399629 0.000428446576002 -155.963886999 0.495831142608 -178.745403153
9.325 0.270782051742 95.7268442284 0.585411266269 153.598713304 0.455547329346 -133.400905232 0.613553043221 -0.135244593727 0.585411266269 153.598713304 0.271368279484 95.6695007879 0.455670198591 -133.344172442 0.613202698682 179.838930652 0.455547329346 -133.400905232 0.455670198591 -133.344172442 0.764749362525 137.130139823 0.000428635230604 -160.476537731 0.613553043221 -0.135244593727 0.613202698682 179.838930652 0.000428635230635 -160.476537737 0.497528824589 178.617770223
9.35 0.269113670229 92.9023888 0.586845020996 150.839583642 0.455620343685 -137.588146806 0.612862783842 -2.96312988806 0.586845020996 150.839583642 0.26971200514 92.8489779551 0.455748227732 -137.53052362 0.612504560563 177.011379748 0.455620343685 -137.588146806 0.455748227732 -137.53052362 0.76465985082 131.419280508 0.000428740212437 -164.968229901 0.612862783842 -2.96312988805 0.612504560563 177.011379748 0.000428740212477 -164.968229905 0.499236608725 175.984875138
9.375 0.267465868879 90.0831887888 0.588288073924 148.08503667 0.455667371062 -141.768367892 0.612165258085 -5.78502030587 0.588288073924 148.08503667 0.268076127074 90.0338188305 0.455800365475 -141.709859335 0.611799194378 174.189839811 0.455667371062 -141.768367892 0.455800365475 -141.709859335 0.76460107473 125.718357462 0.000428765379551 -169.438555838 0.612165258085 -5.78502030586 0.611799194378 174.189839811 0.000428765379596 -169.438555841 0.500954353136 173.355845606
9.4 0.265838355312 87.2689631266 0.58973966977 145.334939344 0.455689685873 -145.941565175 0.611460454112 -8.60102121707 0.58973966977 145.334939344 0.266460346539 87.2237392191 0.455827882152 -145.882176503 0.611086591599 171.37420529 0.455689685873 -145.941565175 0.455827882152 -145.882176503 0.764571550566 120.027553453 0.000428714810633 -173.88712178 0.611460454112 -8.60102121706 0.611086591599 171.37420529 0.000428714810681 -173.887121782 0.502681919968 170.730617009
9.425 0.264230780844 84.459429986 0.591199024719 142.589166995 0.455688630047 -150.107744672 0.610748358787 -11.411235758 0.591199024719 142.589166995 0.264864308841 84.4184540235 0.455832115608 -150.047481342 0.6103667423 168.564372857 0.455688630047 -150.107744672 0.455832115608 -150.047481342 0.764569710159 114.347020197 0.000428592804377 -178.313547457 0.610748358787 -11.411235758 0.6103667423 168.564372857 0.000428592804424 -178.313547459 0.504419175201 168.109126043
9.45 0.262642740833 81.6543076744 0.592665330975 139.847603253 0.455665607613 -154.266922151 0.610028957705 -14.2157648966 0.592665330975 139.847603253 0.263287603676 81.617678145 0.455814465781 -154.205789796 0.609639635211 165.760241346 0.455665607613 -154.266922151 0.455814465781 -154.205789796 0.76459390645 108.676878831 0.000428403878396 177.28253387 0.610028957705 -14.2157648966 0.609639635211 165.760241346 0.00042840387844 177.282533869 0.506165988471 165.491310673
9.475 0.261073775639 78.8533155109 0.594137761127 137.11013994 0.455622079101 -158.419123539 0.609302235241 -17.0147074962 0.594137761127 137.11013994 0.261729766056 78.8211273706 0.455776389121 -158.357127935 0.608905257768 162.961711684 0.455622079101 -158.419123539 0.455776389122 -158.357127935 0.764642419669 103.017220092 0.000428152767473 172.90147496 0.609302235242 -17.0147074962 0.608905257768 162.961711684 0.000428152767512 172.90147496 0.507922232897 162.877110085
9.5 0.259523372055 76.0561746772 0.595615472348 134.376676946 0.455559555811 -162.564385298 0.608568174591 -19.8081603772 0.595615472348 134.376676946 0.260190277736 76.0285192349 0.455719392876 -162.50153234 0.608163596157 160.168686832 0.455559555811 -162.564385298 0.455719392876 -162.50153234 0.764713464019 97.3681042486 0.000427844420971 168.543613775 0.608568174591 -19.8081603772 0.608163596157 160.168686832 0.000427844421004 168.543613775 0.509687784905 160.266464645
9.525 0.257990965137 73.2626090326 0.597097610423 131.647122083 0.455479594001 -166.702754787 0.607826757816 -22.5962183774 0.597097610423 131.647122083 0.258668569017 73.2395738464 0.455645029296 -166.639050456 0.607414635363 157.381071721 0.455479594001 -166.702754787 0.455645029296 -166.639050456 0.764805194786 91.7295608313 0.000427483999317 164.209272331 0.607826757816 -22.5962183774 0.607414635363 157.381071721 0.000427483999343 164.20927233 0.511462524065 157.659315851
9.55 0.256475940338 70.4723458854 0.598583313588 128.921390921 0.455383789032 -170.834290585 0.607077965899 -25.3789744104 0.598583313588 128.921390921 0.257164020866 70.4540146736 0.45555488979 -170.769740923 0.606658359213 154.598773196 0.455383789032 -170.834290585 0.45555488979 -170.769740923 0.764915715788 86.1015882128 0.000427076869484 159.898755268 0.607077965899 -25.3789744104 0.606658359213 154.598773196 0.000427076869503 159.898755268 0.513246332925 155.055606297
9.575 0.25497763586 67.6851167193 0.600071716201 126.199406607 0.455273769493 -174.959062793 0.606321778788 -28.1565195224 0.600071716201 126.199406607 0.255675967257 67.6715692847 0.455450599075 -174.893673871 0.605894750416 151.821699958 0.455273769493 -174.959062793 0.455450599075 -174.893673871 0.765043087069 80.4841530861 0.000426628599461 155.61234818 0.606321778788 -28.1565195224 0.605894750416 151.821699958 0.000426628599473 155.612348179 0.51503909685 152.455279625
9.6 0.25349534518 64.90065787 0.601561952236 123.481099675 0.455151191361 -179.077153304 0.605558175453 -30.928942947 0.601561952236 123.481099675 0.254203697686 64.8919700394 0.455333809348 -179.010931194 0.605123790603 149.049762506 0.455151191361 -179.077153304 0.455333809348 -179.010931194 0.76518533274 74.877189878 0.000426144951727 151.35031573 0.605558175453 -30.928942947 0.605123790603 149.049762506 0.000426144951733 151.350315729 0.516840703872 149.858280496
9.625 0.252028319664 62.1187111514 0.603053158588 120.766407841 0.455017732211 176.811343955 0.604787133939 -33.6963321587 0.603053158588 120.766407841 0.252746459785 62.114954731 0.455206194508 176.87839321 0.604345460366 146.282873088 0.455017732211 176.811343955 0.455206194508 176.87839321 0.76534044888 69.2806001351 0.000425631875795 147.112899611 0.604787133939 -33.6963321587 0.604345460366 146.282873088 0.000425631875795 147.112899611 0.518651044533 147.264554544
9.65 0.250575771253 59.3390244316 0.604544478219 118.055275789 0.454875085505 172.706322815 0.604008631415 -36.4587729242 0.604544478219 118.055275789 0.251303461996 59.3402671786 0.455069444467 172.77419323 0.603559739297 143.520945647 0.454875085505 172.706322815 0.455069444467 172.77419323 0.765506411409 63.6942519151 0.000425095499884 142.900316371 0.604008631415 -36.4587729242 0.603559739297 143.520945647 0.00042509549988 142.90031637 0.520470011737 144.674048345
9.675 0.249136875154 56.5613521596 0.606035063113 115.347654955 0.454724954994 168.607664682 0.603222644231 -39.2163493528 0.606035063113 115.347654955 0.24987387627 56.5676577704 0.45492525956 168.676350359 0.602766606026 140.76389577 0.454724954994 168.607664682 0.45492525956 168.676350359 0.765681183838 58.1179792091 0.000424542121842 138.712755132 0.603222644231 -39.2163493528 0.602766606026 140.76389577 0.000424542121834 138.712755132 0.52229750061 142.08670938
9.7 0.247710772516 53.7854558444 0.607524077074 112.643503301 0.45456904924 164.515238385 0.602429147969 -41.9691439443 0.607524077074 112.643503301 0.248456840739 53.7968839589 0.454775345089 164.584733542 0.601966038252 138.011640643 0.45456904924 164.515238385 0.454775345089 164.584733542 0.765862724846 52.5515814167 0.000423978199405 134.550375254 0.602429147969 -41.9691439443 0.601966038252 138.011640643 0.000423978199395 134.550375254 0.524133408353 139.502486002
9.725 0.246296573054 51.0111044876 0.609010698344 109.942785087 0.454409076288 160.428900045 0.601628117499 -44.7172376362 0.609010698344 109.942785087 0.247051462347 51.0277107117 0.454621406 160.499199046 0.601158012784 135.264099003 0.454409076288 160.428900045 0.454621406 160.499199046 0.766048995593 46.9948228897 0.00042341033992 130.413303936 0.601628117499 -44.7172376362 0.601158012784 135.264099003 0.000423410339909 130.413303936 0.525977634109 136.921327406
9.75 0.244893357603 48.2380749744 0.610494122071 107.245470645 0.454246738486 156.348492975 0.600819527025 -47.460709849 0.610494122071 107.245470645 0.245656819413 48.2599109186 0.454465141724 156.419590357 0.600342505575 132.521191091 0.454246738486 156.348492975 0.454465141724 156.419590357 0.766237966736 41.4474325563 0.000422845289641 126.301633808 0.600819527025 -47.460709849 0.600342505575 132.521191091 0.000422845289629 126.301633808 0.527830078827 134.343183597
9.775 0.243500180578 45.4661524239 0.611973562606 104.551536149 0.454083727478 152.2738476 0.600003350143 -50.1996385299 0.611973562606 104.551536149 0.244271964095 45.4932657595 0.454308241174 152.345738102 0.599519491755 129.782838613 0.454083727478 152.2738476 0.454308241174 152.345738102 0.766427625094 35.9091036318 0.000422289922691 122.215420513 0.600003350143 -50.1996385299 0.599519491755 129.782838613 0.00042228992268 122.215420514 0.529690645129 131.768005359
9.8 0.242116072333 42.6951305041 0.613448255664 101.860963392 0.453921719354 148.2047814 0.599179559889 -52.934100196 0.613448255664 101.860963392 0.242895924758 42.7275650364 0.454152377914 148.277459989 0.598688945672 127.048964695 0.453921719354 148.2047814 0.454152377914 148.277459989 0.766615979936 30.379493419 0.000421751229791 118.154680309 0.599179559889 -52.934100196 0.598688945672 127.048964695 0.00042175122978 118.154680309 0.531559237184 129.195744232
9.825 0.240740041391 39.9248117138 0.614917460333 99.1737395596 0.453762369988 144.141098864 0.598348128791 -55.664169975 0.614917460333 99.1737395596 0.241527708216 39.9626074722 0.4539992055 144.214560763 0.597850840919 124.319493845 0.453762369988 144.141098864 0.4539992055 144.214560763 0.766801068876 24.858223196 0.000421236306822 114.119387698 0.598348128791 -55.664169975 0.597850840919 124.319493845 0.000421236306813 114.119387699 0.533435760583 126.626352479
9.85 0.239371076551 37.1550076366 0.616380460957 96.4898570214 0.453607310525 140.082591469 0.597509028914 -58.3899216459 0.616380460957 96.4898570214 0.240166301846 37.1982009818 0.453850352985 140.156832184 0.597005150378 121.594351911 0.453607310525 140.082591469 0.453850352985 140.156832184 0.766980963357 19.3448781882 0.000420752343284 110.109473113 0.597509028914 -58.3899216459 0.597005150378 121.594351911 0.000420752343277 110.109473113 0.535320122213 124.059783064
9.875 0.238008148859 34.3855391709 0.617836568891 93.8093131146 0.453458143043 136.029037667 0.596662231917 -61.1114276774 0.617836568891 93.8093131146 0.238810675569 34.4341629187 0.453707420585 136.104053012 0.59615184625 118.873466047 0.453458143043 136.029037667 0.453707420585 136.104053012 0.767153773749 13.8390076152 0.000420306610675 106.12482066 0.596662231917 -61.1114276774 0.59615184625 118.873466047 0.000420306610669 106.124820661 0.537212230143 121.495989627
9.9 0.236650213434 31.6162367401 0.619285124157 91.1321099454 0.453316436364 131.980202887 0.595807709094 -63.8287592662 0.619285124157 91.1321099454 0.237459783691 31.6703203016 0.453571975498 132.055989007 0.595290900096 116.156764672 0.453316436364 131.980202887 0.453571975498 132.055989007 0.767317654056 8.34012480447 0.000419906450811 102.165265952 0.595807709094 -63.8287592662 0.595290900096 116.156764672 0.000419906450808 102.165265952 0.539111993501 118.934926459
9.925 0.235296211157 28.8469404881 0.620725496987 88.4582541955 0.453183722004 127.935839538 0.594945431423 -66.5419863738 0.620725496987 88.4582541955 0.236112566591 28.9065100262 0.453445547865 128.012392934 0.594422282869 113.444177439 0.453183722004 127.935839538 0.453445547865 128.012392934 0.76747080627 2.84770736069 0.000419559264092 98.2305940317 0.594945431423 -66.5419863738 0.594422282869 113.444177439 0.000419559264091 98.2305940319 0.541019322364 116.376548483
9.95 0.233945070209 26.0775004651 0.622157089304 85.7877569389 0.453061490253 123.895687027 0.594075369615 -69.2511777622 0.622157089303 85.7877569389 0.234767952274 26.1425790672 0.453329626853 123.97300458 0.593545964957 110.735635199 0.453061490253 123.895687027 0.453329626853 123.97300458 0.767611484396 -2.63880262342 0.000419272497677 94.3205374279 0.594075369615 -69.2511777622 0.593545964957 110.735635199 0.000419272497677 94.3205374281 0.542934127645 113.820811229
9.975 0.232595707469 23.3077768081 0.623579336117 83.1206334702 0.452951186356 119.859471776 0.593197494158 -71.9564010292 0.623579336117 83.1206334702 0.233424857773 23.3783846743 0.453225656843 119.937550767 0.592661916218 108.031069967 0.452951186356 119.859471776 0.453225656843 119.937550767 0.7677379982 -8.119998326 0.000419053633545 90.434774343 0.593197494158 -71.9564010292 0.592661916218 108.031069967 0.000419053633546 90.4347743431 0.544856320982 111.267670816
10 0.231247029764 20.537639923 0.624991706884 80.4569031437 0.452854206783 115.826907241 0.592311775363 -74.6577226421 0.624991706884 80.4569031437 0.232082190406 20.61379457 0.453135033711 115.90574537 0.591770106021 105.330414891 0.452854206783 115.826907241 0.453135033711 115.90574537 0.767848716717 -13.5965079391 0.000418910176395 86.5729270141 0.592311775363 -74.6577226421 0.591770106021 105.330414891 0.000418910176398 86.5729270141 0.546785814632 108.717083932
10.025 0.229897934987 17.7669706719 0.626393706836 77.7965892246 0.452771895569 111.79769393 0.591418183408 -77.3552079717 0.626393706836 77.7965892246 0.230738848896 17.8486871516 0.453059101161 111.877289339 0.590870503287 102.63360422 0.452771895569 111.79769393 0.453059101161 111.877289339 0.767942071583 -19.0689944087 0.000418849641344 82.7345602672 0.591418183408 -77.3552079717 0.590870503287 102.63360422 0.000418849641347 82.7345602672 0.548722521366 106.169007815
10.05 0.228547313075 14.9956605741 0.627784878288 75.1397187525 0.452705540679 107.771519422 0.590516688383 -80.0489213243 0.627784878288 75.1397187525 0.229393724349 15.0829517071 0.452999147107 107.85187071 0.589963076528 99.9405732734 0.452705540679 107.771519422 0.452999147107 107.85187071 0.768016560227 -24.5381551833 0.000418879541352 78.9191802965 0.590516688383 -80.0489213243 0.589963076528 99.9405732734 0.000418879541355 78.9191802965 0.550666354367 103.623400237
10.075 0.227194046858 12.2236120239 0.629164801968 72.4863224172 0.4526563704 103.748058382 0.589607260333 -82.7389259742 0.629164801968 72.4863224172 0.228045701102 12.3164886475 0.452956400057 103.829164621 0.589047793889 97.2512584118 0.4526563704 103.748058382 0.452956400057 103.829164621 0.768070749017 -30.0047219847 0.000419007374354 75.1262337003 0.589607260333 -82.7389259742 0.589047793889 97.2512584118 0.000419007374357 75.1262337002 0.552617227125 101.080219487
10.1 0.225837012784 9.45073853524 0.630533098372 69.8364344474 0.452625549698 99.7269725642 0.5886898693 -85.4252841947 0.630533098372 69.8364344474 0.226693657452 9.54920976557 0.452932025481 99.8088333166 0.588124623197 94.5655970072 0.452625549698 99.7269725642 0.452932025481 99.8088333166 0.768103276392 -35.4694606082 0.000419240610041 71.3551068066 0.5886898693 -85.4252841947 0.588124623197 94.5655970072 0.000419240610044 71.3551068065 0.554575053343 98.5394243549
10.125 0.224475081533 6.67696501775 0.631889429177 67.1900925107 0.452614176541 95.7079108181 0.587764485371 -88.1080572888 0.631889429177 67.1900925107 0.225336466254 6.781038525 0.45292712213 95.790526148 0.587193531998 91.8835274155 0.452614176541 95.7079108181 0.45292712213 95.790526148 0.768112856057 -40.9331707635 0.000419586676281 67.6051253235 0.587764485371 -88.1080572888 0.587193531998 91.8835274155 0.000419586676283 67.6051253234 0.55653974684 96.0009741164
10.15 0.223107118524 3.90222809234 0.633233498732 64.5473376263 0.45262327813 91.6905090821 0.586831078711 -90.7873056196 0.633233498732 64.5473376263 0.223972995429 4.01191038986 0.45294271827 91.7738795681 0.586254487609 89.2049889479 0.45262327813 91.6905090821 0.45294271827 91.7738795681 0.768098280313 -46.3966859618 0.000420052945154 63.8755543469 0.586831078711 -90.7873056196 0.586254487609 89.2049889479 0.000420052945155 63.8755543468 0.558511221451 93.4648285197
10.175 0.221731984329 1.12647645469 0.634565055654 61.9082140879 0.452653807014 87.6743903709 0.585889619614 -93.4630886398 0.634565055654 61.9082140879 0.222602108362 1.24177320063 0.452979767802 87.7585171159 0.585307457162 86.5299218445 0.452653807014 87.6743903709 0.452979767802 87.7585171159 0.768058423575 -51.8608734542 0.000420646718625 60.1655987586 0.585889619614 -93.4630886398 0.585307457162 86.5299218445 0.000420646718626 60.1655987586 0.560489390938 90.9309477715
10.2 0.220348535004 -1.65032870541 0.635883894553 59.2727693976 0.452706637059 83.6591647552 0.58494007854 -96.1354649211 0.635883894553 59.2727693976 0.221222664222 -1.52941239389 0.45303914622 83.7440493946 0.584352407654 83.8582672472 0.452706637059 83.6591647552 0.45303914622 83.7440493946 0.767992246161 -57.3266342254 0.000421375213888 56.4744040436 0.58494007854 -96.1354649211 0.584352407654 83.8582672472 0.000421375213888 56.4744040436 0.562474168897 88.3992925249
10.225 0.218955622359 -4.42821321975 0.637189857915 56.6410542081 0.452782559218 79.6444293327 0.583982426155 -98.8044921827 0.637189857915 56.6410542081 0.219833518214 -4.30167244023 0.453121646394 79.7300740411 0.583389305997 81.1899671735 0.452782559218 79.6444293327 0.453121646394 79.7300740411 0.767898798398 -62.7949030426 0.000422245548414 52.801057551 0.583982426155 -98.8044921827 0.583389305997 81.1899671735 0.000422245548414 52.801057551 0.564465468668 85.8698238673
10.25 0.217552094167 -7.20718938271 0.638482838168 54.013122273 0.452882277081 75.6297681926 0.583016633377 -101.47022732 0.638482838168 54.013122273 0.218433521775 -7.07501910953 0.453227974103 75.7161756885 0.58241811907 78.5249644911 0.452882277081 75.6297681926 0.453227974103 75.7161756885 0.76777722514 -68.266648558 0.000423264724803 49.1445902189 0.583016633377 -101.47022732 0.58241811907 78.5249644911 0.000423264724803 49.144590219 0.566463203246 83.3425033091
10.275 0.216136794356 -9.98725530729 0.639762779955 51.3890304032 0.453006402147 71.6147523728 0.582042671412 -104.132726432 0.639762779955 51.3890304032 0.217021522739 -9.84945004235 0.453358743318 71.7019259213 0.581438813769 75.8632028924 0.453006402147 71.6147523728 0.453358743318 71.7019259212 0.767626770731 -73.7428734635 0.000424439615516 45.5039787751 0.582042671412 -104.132726432 0.581438813769 75.8632028924 0.000424439615516 45.5039787752 0.568467285195 80.8172927731
10.3 0.214708563177 -12.7683941852 0.641029682656 48.7688384266 0.453155448794 67.5989398119 0.581060511795 -106.79204485 0.641029682656 48.7688384266 0.215596365483 -12.6249475977 0.453514471159 67.6868832252 0.580451357067 73.2046268694 0.453155448794 67.5989398119 0.453514471159 67.6868832252 0.76744678452 -79.2246146888 0.000425776947595 41.8781484159 0.581060511795 -106.79204485 0.580451357067 73.2046268694 0.000425776947595 41.878148416 0.570477626561 78.2941545847
10.325 0.213266237395 -15.5505734386 0.642283603164 46.1526091506 0.453329828893 63.5818752965 0.580070126434 -109.448237164 0.642283603164 46.1526091506 0.214156891095 -15.4014779946 0.453695572508 63.6705929332 0.579455716067 70.5491816892 0.453329828893 63.5818752965 0.453695572508 63.6705929332 0.767236726951 -84.7129436374 0.000427283287503 38.2659759613 0.580070126434 -109.448237164 0.579455716067 70.5491816892 0.000427283287503 38.2659759614 0.572494138787 75.7730514626
10.35 0.211808650512 -18.3337437518 0.643524658962 43.5404083223 0.453529846024 59.5630904075 0.579071487647 -112.10135725 0.643524658962 43.5404083223 0.212701937567 -18.1789903328 0.453902354222 59.6525871685 0.578451858059 67.8968133695 0.453529846024 59.5630904075 0.453902354222 59.6525871685 0.766996176343 -90.2089664489 0.000428965026205 34.6662934673 0.579071487647 -112.10135725 0.578451858059 67.8968133695 0.000428965026205 34.6662934674 0.574516732633 73.2539465095
10.375 0.210334633066 -21.1178379673 0.644753031528 40.9323045866 0.453755689255 55.5421034658 0.578064568203 -114.751458296 0.644753031528 40.9323045866 0.211230340064 -20.9574154802 0.4541350089 55.6323847891 0.577439750586 65.2474686544 0.453755689255 55.5421034658 0.4541350089 55.6323847891 0.766724836387 -95.7138242762 0.000430828364617 31.0778922734 0.578064568203 -114.751458296 0.577439750586 65.2474686544 0.000430828364618 31.0778922734 0.576545318088 70.7368032044
10.4 0.208843013024 -23.902769833 0.645968970075 38.3283694357 0.454007426433 51.5184194818 0.57704934136 -117.398592832 0.645968970075 38.3283694357 0.209740931289 -23.7366648094 0.45439360817 51.6094913345 0.576419361498 62.6010949903 0.454007426433 51.5184194818 0.45439360817 51.6094913345 0.766422544455 -101.228693561 0.00043287929955 27.4995274477 0.57704934136 -117.398592832 0.576419361498 62.6010949903 0.000432879299551 27.4995274477 0.578579804296 68.2215853944
10.425 0.207332616326 -26.6884325838 0.647172795681 35.7286771482 0.454284996947 47.4915301114 0.576025780911 -120.042812752 0.647172795681 35.7286771482 0.208232541989 -26.516628771 0.454678095441 47.5833989798 0.575390659022 59.9576405026 0.454284996947 47.4915301114 0.454678095441 47.5833989798 0.766089280784 -106.754786294 0.000435123610258 23.9299225865 0.576025780911 -120.042812752 0.575390659022 59.9576405026 0.000435123610259 23.9299225864 0.580620099469 65.7082572877
10.45 0.205802267598 -29.4746973402 0.648364905809 33.1333047137 0.454588203909 43.4609136231 0.574993861218 -122.684169341 0.648364905809 33.1333047137 0.206704001643 -29.2971752826 0.454988278074 43.5535865003 0.574353611826 57.3170539711 0.454588203909 43.4609136231 0.454988278074 43.5535865003 0.765725178603 -112.293350237 0.000437566845675 20.3677749127 0.574993861218 -122.684169341 0.574353611826 57.3170539711 0.000437566845677 20.3677749126 0.582666110812 63.1967834464
10.475 0.2042507911 -32.2614113048 0.64954577926 30.5423317365 0.454916705717 39.42603488 0.573953557254 -125.322713305 0.64954577926 30.5423317365 0.20515413937 -32.0781479175 0.455323818933 39.519519251 0.573308189088 54.6792848071 0.454916705717 39.42603488 0.455323818933 39.519519251 0.765330535276 -117.845669085 0.000440214312426 16.811760614 0.573953557254 -125.322713305 0.573308189088 54.6792848071 0.000440214312428 16.8117606138 0.584717744441 60.6871287804
10.5 0.202677011951 -35.0483957386 0.650715981561 27.9558403158 0.45527000695 35.3863453428 0.572904844647 -127.958494791 0.650715981561 27.9558403158 0.203581785128 -34.859363872 0.455684227264 35.4806491674 0.572254360563 52.0442830293 0.45527000695 35.3863453428 0.455684227264 35.4806491674 0.764905824532 -123.413062556 0.000443071063619 13.2605403536 0.572904844647 -127.958494791 0.572254360563 52.0442830293 0.00044307106362 13.2605403534 0.586774905306 58.1792585411
10.525 0.201079757694 -37.8354436922 0.651876170828 25.3739148944 0.455647448547 31.3412830995 0.571847699718 -130.591563418 0.651876170828 25.3739148944 0.201985771244 -37.6406116892 0.456068848861 31.4364147928 0.571192096662 49.4119992401 0.455647448547 31.3412830995 0.456068848861 31.4364147928 0.764451709853 -128.996886361 0.000446141888444 9.71276488352 0.571847699718 -130.591563418 0.571192096662 49.4119992401 0.000446141888445 9.71276488331 0.588837497111 55.6731383159
10.55 0.199457860252 -40.6223174722 0.6530271041 22.796642071 0.456048197236 27.2902729283 0.570782099523 -133.2219683 0.6530271041 22.796642071 0.200364934346 -40.4216487171 0.456476855476 27.386241338 0.570121368523 46.7823846023 0.456048197236 27.2902729283 0.456476855476 27.386241338 0.763969059082 -134.598532045 0.000449431302526 6.16708068898 0.570782099523 -133.2219683 0.570121368523 46.7823846023 0.000449431302527 6.16708068878 0.590905422239 53.1687340229
10.575 0.197810158373 -43.4087458156 0.654169644167 20.2241103692 0.45647123417 23.2327264012 0.569708021896 -135.849758072 0.654169644167 20.2241103692 0.198718117774 -43.2021982757 0.456907233432 23.3295407836 0.569042148093 44.1553908146 0.45647123417 23.2327264012 0.456907233432 23.3295407836 0.763458960321 -140.219426667 0.000452943538957 2.62213559369 0.569708021896 -135.849758072 0.569042148093 44.1553908146 0.000452943538958 2.62213559352 0.592978581671 50.6660119057
10.6 0.196135500604 -46.1944207462 0.655304766892 17.6564099549 0.456915342736 19.1680420383 0.568625445493 -138.474980917 0.655304766892 17.6564099549 0.197044174547 -45.9819465061 0.457358771412 19.2657120301 0.567954408203 41.5309700879 0.456915342736 19.1680420383 0.457358771412 19.2657120301 0.762922739176 -145.861032264 0.000456682539893 -0.923415741881 0.568625445493 -138.474980917 0.567954408203 41.5309700879 0.000456682539894 -0.923415742004 0.595056874906 48.1649385288
10.625 0.194432748928 -48.9789940854 0.656433569029 15.0936322947 0.4573790955 15.0956055193 0.567534349833 -141.097684589 0.656433569029 15.0936322947 0.195341970968 -48.7605388748 0.457830047377 15.1941411083 0.56685812266 38.909075121 0.4573790955 15.0956055193 0.457830047377 15.1941411083 0.762361977389 -151.524845096 0.000460651948547 -4.47090649115 0.567534349833 -141.097684589 0.56685812266 38.909075121 0.000460651948547 -4.47090649123 0.597140199886 45.6654807731
10.65 0.192700783114 -51.7620735877 0.657557276526 12.5358697462 0.457860840277 11.0147899663 0.566434715351 -143.717916443 0.657557276526 12.5358697462 0.193610390978 -51.5375763018 0.458319414608 11.1142014577 0.565753266328 36.2896590759 0.457860840277 11.0147899663 0.458319414608 11.1142014577 0.761778532908 -157.2123946 0.000464855101403 -8.02165255627 0.566434715351 -143.717916443 0.565753266328 36.2896590759 0.000464855101403 -8.02165255632 0.599228452912 43.1676058317
10.675 0.190938505924 -54.5432186684 0.658677253294 9.98321507068 0.458358685302 6.9249563056 0.565326523437 -146.335723459 0.658677253294 9.98321507068 0.191848341356 -54.3126108827 0.458824986845 7.02525428716 0.564639815221 33.6726755525 0.458358685302 6.9249563056 0.458824986845 7.02525428716 0.761174561405 -162.925242035 0.000469295020412 -11.5769477335 0.565326523437 -146.335723459 0.564639815221 33.6726755525 0.000469295020413 -11.5769477335 0.601321528564 40.6712812056
10.7 0.189144849273 -57.3219356931 0.659795010418 7.43576085705 0.458870483498 2.82545372533 0.564209756491 -148.951152266 0.659795010418 7.43576085705 0.190054757893 -57.0851411724 0.45934462252 2.92664902849 0.5635177466 31.0580785639 0.458870483498 2.82545372533 0.45934462252 2.92664902849 0.760552539241 -168.664978754 0.000473974404937 -15.1380591852 0.564209756491 -148.951152266 0.5635177466 31.0580785639 0.000473974404939 -15.1380591853 0.603419319618 38.1764747003
10.725 0.187318781484 -60.0976727942 0.660912215752 4.89359884759 0.45939381586 -1.28437976093 0.563084397974 -151.564249174 0.660912215752 4.89359884759 0.188228612662 -59.8546069963 0.4598759081 -1.18227610239 0.562387039064 28.4458225097 0.45939381586 -1.28437976093 0.4598759081 -1.18227610239 0.759915287861 -174.433224065 0.000478895623171 -18.7062232451 0.563084397974 -151.564249174 0.562387039064 28.4458225097 0.000478895623173 -18.7062232454 0.605521716962 35.6831544217
10.75 0.185459315767 -62.8698141822 0.662030703849 2.35681915226 0.459925973966 -5.4052166266 0.56195043246 -154.175060193 0.662030703849 2.35681915226 0.186368922537 -62.620383758 0.46041614056 -5.30219342094 0.56124767266 25.83586215 0.459925973966 -5.4052166266 0.46041614056 -5.30219342094 0.75926599954 179.768377384 0.000484060702769 -22.2826415704 0.56195043246 -154.175060193 0.56124767266 25.83586215 0.000484060702772 -22.2826415709 0.607628609507 33.1912887723
10.775 0.183565520087 -65.6376739182 0.663152486147 -0.174490659887 0.460463941676 -9.53773900531 0.560807845697 -156.783631069 0.663152486147 -0.174490659888 0.184474759115 -65.3817762083 0.460962309027 -9.43378495032 0.560099628983 23.2281525778 0.460463941676 -9.53773900531 0.460962309027 -9.43378495032 0.758608264388 173.938158748 0.000489471320414 -25.8684776447 0.560807845697 -156.783631069 0.560099628983 23.2281525778 0.000489471320419 -25.8684776455 0.609739884098 30.7008464482
10.8 0.181636528588 -68.4004891176 0.664279761291 -2.70024660515 0.461004376073 -13.6826377067 0.559656624666 -159.390007305 0.664279761291 -2.70024660515 0.182545260206 -68.1380116476 0.461511075681 -13.5777414403 0.558942891292 20.6226491916 0.461004376073 -13.6826377067 0.461511075681 -13.5777414403 0.757946098441 168.074434717 0.000495128790067 -29.464853626 0.559656624666 -159.390007305 0.558942891292 20.6226491916 0.000495128790073 -29.4648536273 0.611855425425 28.2117964352
10.825 0.179671554748 -71.1574125563 0.665414925479 -5.22036947854 0.461543587765 -17.8406110554 0.558496757648 -161.994234191 0.665414925479 -5.22036947854 0.180579643083 -70.8882325325 0.462058755987 -17.7347612095 0.557777444622 18.0193076657 0.461543587765 -17.8406110554 0.462058755987 -17.7347612095 0.757283972635 162.175505924 0.00050103404965 -33.0728475219 0.558496757648 -161.994234191 0.557777444622 18.0193076657 0.000501034049659 -33.0728475238 0.613975115919 25.7241080056
10.85 0.177669906468 -73.9075046579 0.666560582648 -7.73478620908 0.462077520646 -22.012363533 0.557328234292 -164.596356834 0.666560582648 -7.73478620908 0.178577219683 -73.6314884663 0.46260129841 -21.9055487907 0.556603275904 15.4180839213 0.462077520646 -22.012363533 0.46260129841 -21.9055487907 0.756626842337 156.239664072 0.000507187645973 -36.6934906686 0.557328234292 -164.596356834 0.556603275904 15.4180839213 0.000507187645983 -36.6934906712 0.616098835658 23.2377507144
10.875 0.175631003288 -76.6497248469 0.667719554327 -10.2434313898 0.462601731325 -26.198604201 0.556151045696 -167.196420183 0.667719554327 -10.2434313898 0.176537413978 -76.3667275587 0.463134263764 -26.0908133576 0.555420374098 12.818934095 0.462601731325 -26.198604201 0.463134263764 -26.0908133576 0.755980177074 150.265197886 0.000513589717711 -40.3277654816 0.556151045696 -167.196420183 0.555420374098 12.818934095 0.000513589717723 -40.3277654851 0.618226462257 20.7526943961
10.9 0.173554395973 -79.3829222661 0.668894888889 -12.7462489944 0.463111368393 -30.4000448821 0.554965184482 -169.794469067 0.668894888889 -12.7462489944 0.174459781727 -79.0927871537 0.46365280442 -30.2912669089 0.554228730315 10.2218145069 0.463111368393 -30.4000448821 0.46365280442 -30.2912669089 0.755349989936 144.250399961 0.00052023997635 -43.9766034414 0.554965184482 -169.794469067 0.554228730315 10.2218145069 0.000520239976362 -43.9766034459 0.620357870759 18.2689091612
10.925 0.17143978867 -82.1058258705 0.670089869931 -15.2431942913 0.463601151831 -34.6173980761 0.553770644892 -172.390548215 0.670089869931 -15.2431942913 0.172344032847 -81.808383941 0.464151643633 -34.5076221889 0.553028337966 7.62668162747 0.463601151831 -34.6173980761 0.464151643633 -34.5076221889 0.754742866058 138.193574591 0.000527137685004 -47.6408832739 0.553770644892 -172.390548215 0.553028337966 7.62668162746 0.000527137685018 -47.6408832794 0.622492933517 15.7863653922
10.95 0.169287063884 -84.8170339338 0.671308023448 -17.7342359632 0.464065352849 -38.8513745859 0.552567422879 -174.984702298 0.671308023448 -17.7342359632 0.170190056636 -84.5121034864 0.464625055296 -38.740590317 0.5518191929 5.03349204231 0.464065352849 -38.8513745859 0.464625055296 -38.740590317 0.754165989414 132.09304667 0.000534281635152 -51.3214292833 0.552567422879 -174.984702298 0.5518191929 5.03349204229 0.000534281635165 -51.3214292898 0.624631520072 13.3050337402
10.975 0.1670963105 -87.515003032 0.672553123393 -20.2193584387 0.464497774552 -43.10268083 0.551355516215 -177.576975953 0.672553123393 -20.2193584387 0.167997950091 -87.2023892492 0.465066844528 -42.9908781043 0.550601293556 2.44220241619 0.464497774552 -43.10268083 0.465066844528 -42.9908781043 0.753627167019 125.947171754 0.000541670121338 -55.0190097953 0.551355516215 -177.576975953 0.550601293556 2.44220241618 0.000541670121351 -55.0190098028 0.626773497017 10.8248851212
11 0.164867855083 -90.1980366086 0.673829195177 -22.6985644365 0.464891733888 -47.3720158161 0.550134924606 179.832586177 0.673829195177 -22.6985644365 0.165768049536 -89.8775311935 0.465470329527 -47.2591850321 0.549374641128 -0.147230545203 0.464891733888 -47.3720158161 0.465470329527 -47.2591850321 0.753134849444 119.754347388 0.000549300914042 -58.7343356716 0.550134924606 179.832586177 0.549374641128 -0.147230545217 0.000549300914053 -58.7343356798 0.628918727863 8.34589071145
11.025 0.162602296652 -92.8642732735 0.675140516603 -25.1718777189 0.465240045396 -51.6600677537 0.548905649816 177.243939411 0.675140516603 -25.1718777189 0.163500965789 -92.5356541485 0.465828325222 -51.5461998687 0.548139239729 -2.73485013514 0.465240045396 -51.6600677537 0.465828325222 -51.5461998687 0.752698146385 113.513025756 0.000557171230933 -62.4680588559 0.548905649816 177.243939411 0.548139239729 -2.73485013516 0.000557171230941 -62.4680588647 0.631067072883 5.86802194394
11.05 0.160300545124 -95.511675056 0.676491615635 -27.6393460444 0.465535007374 -55.9675102835 0.547667695807 174.657038996 0.676491615635 -27.6393460444 0.161197623038 -95.174706143 0.466133129344 -55.852596904 0.546895096566 -5.32069968777 0.465535007374 -55.9675102835 0.466133129344 -55.852596904 0.752326835805 107.22172776 0.000565277706867 -66.2207709221 0.547667695807 174.657038996 0.546895096566 -5.32069968778 0.000565277706872 -66.2207709311 0.633218388957 3.39125050365
11.075 0.157963863549 -98.1380159132 0.677887264389 -30.1010443004 0.465768391156 -60.2949983041 0.546421068884 172.071840064 0.677887264389 -30.1010443004 0.158859301564 -97.7924470184 0.466376511596 -60.1790317818 0.54564222213 -7.90482262212 0.465768391156 -60.2949983041 0.466376511596 -60.1790317818 0.752031364963 100.879058589 0.000573616363059 -69.9930015959 0.546421068884 172.071840064 0.54564222213 -7.90482262213 0.000573616363061 -69.9930016047 0.635372529401 0.915548323147
11.1 0.155593914199 -100.740870898 0.679332468634 -32.5570777869 0.465931434269 -64.643163382 0.545165777865 169.488297599 0.679332468634 -32.557077787 0.156487684382 -100.386437733 0.466549706708 -64.5261369157 0.544380630386 -10.4872624885 0.465931434269 -64.643163382 0.466549706708 -64.5261369157 0.751822841452 94.4837248191 0.000582182575945 -73.7852172323 0.545165777865 169.488297599 0.544380630386 -10.4872624885 0.000582182575944 -73.7852172402 0.63752934378 -1.5591124223
11.125 0.153192808486 -103.317606518 0.680832452078 -35.0075856105 0.466014838357 -69.0126087333 0.543901834257 166.906366393 0.680832452078 -35.0075856105 0.154084907752 -102.954030894 0.466643412254 -68.894516477 0.543110338985 -13.0680630174 0.466014838357 -69.0126087333 0.466643412254 -68.894516477 0.751713012134 88.0345530883 0.000590971046347 -77.5978192351 0.543901834257 166.906366393 0.543110338985 -13.0680630174 0.000590971046344 -77.5978192416 0.639688677716 -4.03275931968
11.15 0.150763160543 -105.865372985 0.682392634674 -37.4527441332 0.466008772795 -73.4039037739 0.542629252452 164.326001004 0.682392634674 -37.4527441332 0.151653615407 -105.492363224 0.466647792152 -73.2847409513 0.541831369475 -15.6472681707 0.466008772795 -73.4039037739 0.466647792152 -73.2847409513 0.751714227712 81.5305103355 0.000599975769648 -81.4311424181 0.542629252452 164.326001004 0.541831369475 -15.6472681707 0.000599975769644 -81.4311424225 0.641850372676 -6.50541972348
11.175 0.148308144115 -108.381099216 0.684018604191 -39.8927704065 0.465902885029 -77.8175782411 0.541348049944 161.747155714 0.684018604191 -39.8927704065 0.149197016139 -107.998350843 0.4665524869 -77.6973412687 0.540543747532 -18.2249221966 0.465902885029 -77.8175782411 0.4665524869 -77.6973412687 0.751839390499 74.9707255669 0.000609190007736 -85.285453311 0.541348049944 161.747155714 0.540543747532 -18.2249221966 0.000609190007735 -85.2854533124 0.644014265742 -8.97712076121
11.2 0.145831552211 -110.861491722 0.685716080298 -42.3279255025 0.46568631871 -82.2541159024 0.54005824756 159.169784482 0.685716080298 -42.3279255025 0.146718944169 -110.468688488 0.466346631605 -82.1328025198 0.539247503205 -20.8010696862 0.46568631871 -82.2541159024 0.466346631605 -82.1328025198 0.752101882887 68.3545130614 0.000618606263574 -89.1609484256 0.54005824756 159.169784482 0.539247503205 -20.8010696861 0.000618606263578 -89.1609484233 0.646180189375 -11.4478893391
11.225 0.143337858632 -113.303038717 0.68749087053 -44.7585176359 0.465347740745 -86.7139478748 0.538759869718 156.593840897 0.68749087053 -44.7585176359 0.144223921423 -112.899854047 0.46601888293 -86.5915572842 0.537942671167 -23.3757556345 0.465347740745 -86.7139478748 0.46601888293 -86.5915572842 0.75251547397 61.6813968714 0.000628216259263 -93.0577525063 0.538759869718 156.593840897 0.537942671167 -23.3757556345 0.000628216259277 -93.0577524997 0.648347971145 -13.917752148
11.25 0.140832280163 -115.702021131 0.689348817566 -47.1849049534 0.464875378394 -91.1974455952 0.537452944702 154.019278128 0.689348817567 -47.1849049534 0.141717220453 -115.288120081 0.465557456092 -91.0739786106 0.536629290984 -25.9490255044 0.464875378393 -91.1974455952 0.465557456092 -91.0739786106 0.753094201887 54.9511364087 0.000638010918549 -96.9759167954 0.537452944702 154.019278128 0.536629290984 -25.9490255043 0.000638010918578 -96.9759167839 0.650517433458 -16.3867356696
11.275 0.138320837731 -118.054532491 0.691295737514 -49.6074978493 0.464257067498 -95.7049134969 0.53613750497 151.446048869 0.691295737514 -49.6074978493 0.139204926294 -117.629574312 0.464950173009 -95.5803727039 0.535307407406 -28.5209252937 0.464257067498 -95.7049134969 0.464950173009 -95.5803727039 0.753852229685 48.1637528329 0.000647980354685 -100.915417354 0.53613750497 151.446048869 0.535307407406 -28.5209252937 0.000647980354734 -100.915417337 0.652688393249 -18.8548661829
11.3 0.135810414303 -120.356509965 0.693337349064 -52.0267606496 0.463480312908 -100.236581464 0.53481358748 148.874105291 0.693337349064 -52.0267606496 0.136693994983 -119.920151393 0.464184522643 -100.11097139 0.533977070664 -31.0915016071 0.463480312908 -100.236581464 0.464184522643 -100.11097139 0.754803672838 41.3195558753 0.000658113864577 -104.876153483 0.53481358748 148.874105291 0.533977070664 -31.0915016071 0.000658113864651 -104.876153461 0.654860661662 -21.3221697705
11.325 0.133308806646 -122.603779166 0.695479193797 -54.4432124974 0.462532361985 -104.792597153 0.533481234048 146.303398981 0.695479193797 -54.4432124974 0.134192305802 -122.15567855 0.463247734441 -104.665924451 0.53263833679 -33.6608017307 0.462532361985 -104.792597153 0.46324773444 -104.665924451 0.755962397217 34.4191706517 0.00066839993009 -108.857946303 0.533481234048 146.303398981 0.53263833679 -33.6608017307 0.000668399930194 -108.857946275 0.657034043698 -23.7886723257
11.35 0.130824767319 -124.792115532 0.697726548271 -56.8574272666 0.461400291935 -109.373018301 0.532140491738 143.733880883 0.697726548271 -56.8574272665 0.131708703581 -124.331937919 0.46212686562 -109.245291944 0.531291267959 -36.2288737121 0.461400291935 -109.373018301 0.46212686562 -109.245291944 0.757341787024 27.463563926 0.000678826227301 -112.860537535 0.532140491738 143.733880883 0.531291267959 -36.228873712 0.000678826227437 -112.860537504 0.659208337849 -26.2543995591
11.375 0.128368032494 -126.917325183 0.700084329051 -59.270032332 0.460071111451 -113.977805142 0.53079141328 141.165501239 0.700084329052 -59.2700323319 0.129253026537 -126.444748457 0.46080890278 -113.849036635 0.529935932843 -38.7957664435 0.460071111451 -113.977805142 0.46080890278 -113.849036635 0.758954483321 20.4540692081 0.00068937964439 -116.883588568 0.53079141328 141.165501239 0.529935932843 -38.7957664434 0.000689379644556 -116.883588534 0.661383335694 -28.7193770054
11.4 0.125949330288 -128.975348011 0.70255699237 -61.6817060402 0.458531876808 -118.606813097 0.529434057529 138.598209524 0.702556992371 -61.6817060402 0.126836114293 -128.490070162 0.459280877992 -118.477016697 0.528572406997 -41.3615297508 0.458531876808 -118.606813097 0.459280877992 -118.477016697 0.760812095006 13.3924099964 0.000700046308707 -120.926679841 0.529434057529 138.598209523 0.528572406997 -41.3615297507 0.000700046308896 -120.926679805 0.663558821475 -31.1836300308
11.425 0.123580363547 -130.962385257 0.705148430718 -64.0931737466 0.456769822197 -123.259785903 0.528068489953 136.031954378 0.705148430718 -64.0931737465 0.124469789889 -130.464132794 0.457529999147 -123.12897886 0.527200773256 -43.9262144865 0.456769822197 -123.259785903 0.457529999146 -123.12897886 0.76292488567 6.28072041514 0.000710811623365 -124.989310627 0.528068489953 136.031954378 0.527200773256 -43.9262144864 0.000710811623562 -124.989310594 0.665734571638 -33.6471838397
11.45 0.121273760278 -132.875052835 0.707861869277 -66.5052023259 0.454772503563 -127.93634938 0.526694783165 133.466683541 0.707861869277 -66.5052023258 0.122166808905 -132.363590288 0.455543793844 -127.804552192 0.525821122169 -46.4898726275 0.454772503563 -127.93634938 0.455543793844 -127.804552192 0.765301441477 -0.878437535309 0.000721660313509 -129.070899265 0.526694783165 133.466683541 0.525821122169 -46.4898726275 0.000721660313688 -129.070899237 0.667910354351 -36.1100634816
11.475 0.119042984559 -134.710560059 0.710699765696 -68.9185931157 0.452527954725 -132.636006041 0.525313017496 130.902343776 0.710699765697 -68.9185931156 0.119940768438 -134.185700372 0.45331026559 -132.503242721 0.524433552451 -49.0525573791 0.452527954725 -132.636006041 0.45331026559 -132.503242721 0.767948327125 -8.08206090917 0.000732576482157 -133.170783885 0.525313017496 130.902343776 0.52443355245 -49.0525573791 0.000732576482277 -133.170783868 0.670085928975 -38.5722938582
11.5 0.116902200844 -136.466911016 0.713663717216 -71.3341733185 0.450024853934 -137.358130767 0.523923281606 128.338880799 0.713663717216 -71.3341733185 0.117805968776 -135.92852652 0.450818060464 -137.224429128 0.523038171465 -51.6143232831 0.450024853934 -137.358130767 0.450818060464 -137.224429128 0.770869738895 -15.3266976936 0.00074354367524 -137.288223684 0.523923281606 128.338880799 0.523038171465 -51.6143232831 0.000743543675241 -137.288223683 0.672261045521 -41.0338997294
