! Generated from PyAEDT SolutionData; AEDT ExportNetworkData workaround
# GHz S MA R 50
9 0.42863668859 46.4721495427 0.218459180725 -137.887404695 0.691250184149 -70.4809106258 0.539183974599 37.0083741376 0.218459180725 -137.887404695 0.42948446962 46.5331940816 0.690847336005 -70.4085708613 0.53902563487 -142.895186983 0.691250184149 -70.4809106258 0.690847336005 -70.4085708613 0.211902914419 -11.9182493656 0.000544158682065 -34.2714190188 0.539183974599 37.0083741376 0.53902563487 -142.895186983 0.000544158682065 -34.2714190188 0.64709482333 -150.908639394
9.025 0.432637764748 43.6793211744 0.215133731549 -141.806345143 0.689997564353 -75.4393200053 0.53893218484 34.2263788923 0.215133731549 -141.806345143 0.433473305955 43.7418607693 0.68959971954 -75.3665179702 0.538770059311 -145.67770412 0.689997564353 -75.4393200053 0.68959971954 -75.3665179703 0.219821463531 -19.9077196352 0.000539844275982 -39.1037457464 0.538932184839 34.2263788923 0.538770059311 -145.67770412 0.000539844275441 -39.1037457842 0.647517262386 -153.332823149
9.05 0.436634097335 40.8734817193 0.211857458505 -145.703527507 0.688693044654 -80.3773519573 0.538676259354 31.4517888815 0.211857458505 -145.703527507 0.437457496816 40.9375566895 0.688300346951 -80.3040932403 0.538510217333 -148.452783611 0.688693044655 -80.3773519572 0.68830034695 -80.3040932404 0.227792960886 -27.7205912467 0.000535471549587 -43.8999808707 0.538676259353 31.4517888814 0.538510217334 -148.452783611 0.0005354715487 -43.8999809272 0.647946221282 -155.75199585
9.075 0.440622134715 38.0557753934 0.208629680094 -149.579986265 0.687340067795 -85.2954512703 0.538416366165 28.6844734887 0.208629680094 -149.579986265 0.441433496799 38.121416985 0.686952652699 -85.2217419907 0.538246301084 -151.220557676 0.687340067796 -85.2954512702 0.686952652698 -85.2217419908 0.235784596352 -35.3745173163 0.000531061390488 -48.6605753035 0.538416366164 28.6844734886 0.538246301084 -151.220557675 0.000531061389417 -48.6605753652 0.648381375066 -158.166251772
9.1 0.444598917078 35.227300065 0.205449333739 -153.43673927 0.685941693749 -90.1940753224 0.538152669203 25.9243047835 0.20544933374 -153.43673927 0.445398350957 35.294531051 0.685559688403 -90.1199221156 0.537978495694 -153.981155838 0.68594169375 -90.1940753223 0.685559688403 -90.1199221156 0.243770527802 -42.8853469573 0.000526631786073 -53.3860288551 0.538152669202 25.9243047834 0.537978495695 -153.981155838 0.000526631784946 -53.3860289134 0.648822409786 -160.575683325
9.125 0.44856204827 32.3891004751 0.202315032588 -157.274782204 0.684500617807 -95.0736885166 0.537885328361 23.1711574556 0.202315032588 -157.274782203 0.449349666948 32.4579357701 0.684124140926 -94.9990985185 0.537706979617 -156.734704986 0.684500617808 -95.0736885165 0.684124140925 -94.9990985185 0.251730799653 -50.2671829182 0.000522198176525 -58.0768634499 0.53788532836 23.1711574555 0.537706979617 -156.734704986 0.000522198175438 -58.0768634996 0.649269022044 -162.980381094
9.15 0.452509660728 29.5421628263 0.19922511706 -161.0950839 0.683019190859 -99.9347573698 0.537614499552 20.4249087468 0.19922511706 -161.095083899 0.453285580267 29.6126101028 0.682648352652 -99.8597381991 0.53743192494 -159.481329436 0.683019190859 -99.9347573697 0.682648352651 -99.8597381992 0.259650376301 -57.5324978187 0.000517773806854 -62.7336028557 0.537614499551 20.4249087467 0.53743192494 -159.481329436 0.000517773805874 -62.7336028946 0.649720918556 -165.380433889
9.175 0.45644037491 26.6874107065 0.196177701385 -164.898582436 0.681499441292 -104.77774622 0.537340334781 17.6854383833 0.196177701386 -164.898582435 0.457204713966 26.7594710027 0.681134343386 -104.70230596 0.537153497693 -162.221150991 0.681499441293 -104.77774622 0.681134343386 -104.70230596 0.267518292234 -64.6922776687 0.000513370065737 -67.3567583404 0.537340334781 17.6854383832 0.537153497693 -162.22115099 0.000513370064908 -67.3567583681 0.650177815751 -167.775928789
9.2 0.460353254601 23.8257022862 0.193170715432 -168.686181889 0.679943098023 -109.603113518 0.537062982225 14.9526285066 0.193170715432 -168.686181889 0.461106134211 23.8993705967 0.679583833381 -109.527260692 0.536871858129 -164.954289011 0.679943098024 -109.603113518 0.67958383338 -109.527260692 0.275326913501 -71.7561733668 0.000508996802191 -71.9468195914 0.537062982224 14.9526285066 0.536871858129 -164.954289011 0.000508996801534 -71.9468196087 0.650639439374 -170.166951192
9.225 0.464247759433 20.9578287035 0.190201942137 -172.458749679 0.678351614219 -114.411308652 0.536782586307 12.2263636053 0.190201942137 -172.458749679 0.464989303041 21.0330945455 0.677998267054 -114.335052206 0.536587161 -167.680860476 0.67835161422 -114.411308652 0.677998267054 -114.335052206 0.283071301775 -78.7326489003 0.00050466261386 -76.5042501988 0.536782586306 12.2263636052 0.536587161 -167.680860476 0.000504662613381 -76.5042502073 0.651105524118 -172.553584861
9.25 0.468123695882 18.0845135318 0.1872690509 -176.21711441 0.676726191361 -119.202769286 0.53649928779 9.50653044549 0.1872690509 -176.21711441 0.468854029543 18.1613614839 0.676378837055 -119.126118562 0.536299555812 -170.400980055 0.676726191361 -119.202769286 0.676378837055 -119.126118562 0.290748670869 -85.6291201607 0.000500375103015 -81.0294869912 0.53649928779 9.50653044547 0.536299555812 -170.400980055 0.000500375102706 -81.0294869932 0.651575813271 -174.935911969
9.275 0.471981167843 15.206413217 0.184369627279 -179.962064153 0.675067803334 -123.977919147 0.536213223868 6.7930180033 0.184369627279 -179.962064153 0.472700420599 15.2848234257 0.674726508354 -123.900883858 0.536009187069 -173.114760167 0.675067803334 -123.977919147 0.674726508353 -123.900883858 0.298357925376 -92.4520815359 0.000496141098266 -85.522942527 0.536213223868 6.79301800329 0.536009187069 -173.114760167 0.00049614109811 -85.5229425243 0.652050058375 -177.314013154
9.3 0.475820527819 12.3241183601 0.181501199321 176.305654899 0.673377220303 -128.737166238 0.535924528256 4.08571739659 0.181501199321 176.305654899 0.47652883219 12.4040670136 0.673042042112 -128.659756442 0.535716194502 -175.822311054 0.673377220303 -128.737166238 0.673042042112 -128.659756442 0.305899271556 -99.2072193954 0.000491966841535 -89.9850100666 0.535924528256 4.08571739659 0.535716194502 -175.822311054 0.000491966841509 -89.9850100613 0.652528018907 -179.687967558
9.325 0.479642329541 9.43815572041 0.178661260869 172.585339448 0.671655032147 -133.480901427 0.535633331294 1.38452181809 0.178661260869 172.585339448 0.48033982211 9.51961548891 0.671326019126 -133.403127499 0.535420713289 -178.523740841 0.671655032147 -133.480901427 0.671326019126 -133.403127499 0.313373891315 -105.89951271 0.000487858141062 -94.4160703964 0.535633331294 1.3845218181 0.535420713289 -178.523740841 0.000487858141139 -94.41607039 0.653009461971 177.942147121
9.35 0.483447282735 6.54899081752 0.175847292125 168.876329834 0.669901671293 -138.209497383 0.53533976004 -1.31067353084 0.175847292125 168.876329834 0.484134104789 6.63193126004 0.669578862663 -138.131369984 0.535122874258 178.780844397 0.669901671293 -138.209497383 0.669578862663 -138.131369984 0.320783670959 -112.533321642 0.000483820492139 -98.8164999179 0.53533976004 -1.31067353083 0.535122874258 178.780844397 0.000483820492293 -98.8164999118 0.653494162001 175.576254584
9.375 0.487236210574 3.65703101228 0.173056777773 165.178010544 0.668117434818 -142.923307816 0.535043938375 -3.99997150544 0.173056777773 165.178010544 0.487912508782 3.7414189521 0.667800860567 -142.844837866 0.534822804083 176.091340569 0.668117434818 -142.923307816 0.667800860567 -142.844837866 0.328130977284 -119.112465213 0.000479859168008 -103.186679474 0.535043938375 -3.99997150543 0.534822804083 176.091340569 0.000479859168212 -103.186679469 0.653981900484 173.214279887
9.4 0.491010010238 0.762628956497 0.170287222912 161.489810512 0.666302505693 -147.622666989 0.534745987101 -6.68347308165 0.170287222912 161.489810512 0.491675937333 0.848428826423 0.66599218651 -147.543865634 0.534520625471 173.407645505 0.666302505693 -147.622666989 0.66599218651 -147.543865634 0.335418474375 -125.640289249 0.000475979283817 -107.527003443 0.534745987101 -6.68347308163 0.534520625471 173.407645505 0.000475979284048 -107.527003439 0.65447246569 170.856149391
9.425 0.494769616852 -2.1339136913 0.167536167022 157.811203255 0.6644569731 -152.307889475 0.534446024046 -9.36127741909 0.167536167022 157.811203255 0.495425332302 -2.04673953142 0.664152920319 -152.228768055 0.534216457333 170.729658899 0.6644569731 -152.307889475 0.664152920319 -152.228768055 0.342648975253 -132.119725748 0.000472185836869 -111.83788869 0.534446024046 -9.36127741907 0.534216457333 170.729658899 0.000472185837107 -111.837888688 0.654965652408 168.501790725
9.45 0.498515970983 -5.03234237613 0.164801196195 154.141706864 0.662580851749 -156.979270123 0.534144164162 -12.0334819228 0.164801196195 154.141706864 0.499161641627 -4.94383334733 0.662283067303 -156.89984014 0.533910414949 168.05728224 0.662580851749 -156.979270123 0.662283067303 -156.89984014 0.349825323213 -138.553344778 0.000468483726545 -116.119783041 0.534144164162 -12.0334819228 0.533910414949 168.05728224 0.000468483726772 -116.119783041 0.655461261706 166.151132736
9.475 0.502249989752 -7.93244566466 0.162079953792 150.480883869 0.660674100147 -161.637084209 0.533840519627 -14.7001823038 0.162079953792 150.480883869 0.502885790396 -7.84264269953 0.660382576532 -161.55735729 0.533602610132 165.390418759 0.660674100147 -161.637084209 0.660382576532 -161.55735729 0.356950298342 -144.94339985 0.000464877757315 -120.373172989 0.533840519627 -14.7001823038 0.533602610132 165.390418759 0.000464877757519 -120.37317299 0.655959100689 163.804105451
9.5 0.505972541569 -10.8340512418 0.159370149707 146.828341017 0.658736637785 -166.28158775 0.533535199945 -17.3614726381 0.159370149707 146.828341017 0.506598655523 -10.7429965356 0.658451358042 -166.201575617 0.53329315137 162.728973367 0.658736637785 -166.28158775 0.658451358042 -166.201575617 0.364026545236 -151.291867652 0.00046137262817 -124.598590422 0.533535199945 -17.3614726381 0.53329315137 162.728973367 0.000461372628342 -124.598590424 0.656458982266 161.460640034
9.525 0.509684424387 -13.7370219466 0.156669568376 143.183728966 0.656768361222 -170.913017952 0.533228312044 -20.0174454249 0.156669568376 143.183728966 0.510301043941 -13.6447587259 0.656489298929 -170.832732383 0.532982143974 160.072852599 0.656768361222 -170.913017952 0.656489298929 -170.832732383 0.371056518506 -157.600482872 0.000457972911607 -128.796618218 0.533228312044 -20.0174454249 0.532982143973 160.072852599 0.000457972911743 -128.79661822 0.656960724938 159.120668746
9.55 0.513386347372 -16.6412518973 0.153976075647 139.546741924 0.654769159044 -175.531593778 0.532919960373 -22.6681916429 0.153976075647 139.546741924 0.513993674199 -16.5478242047 0.654496278329 -175.451046574 0.532669690212 157.421964561 0.654769159044 -175.531593778 0.654496278329 -175.451046574 0.378042443061 -163.870768768 0.000454683025092 -132.967894587 0.532919960373 -22.6681916429 0.532669690212 157.421964561 0.000454683025189 -132.96789459 0.657464152576 156.784124905
9.575 0.517078915797 -19.5466627471 0.151287624636 135.917117245 0.652738925695 179.862483386 0.532610246993 -25.3138008058 0.151287624636 135.917117245 0.517677161287 -19.4521152388 0.652472181262 179.94328044 0.532355889443 154.776218871 0.652738925695 179.862483386 0.652472181262 179.94328044 0.384986286599 -170.104064036 0.000451507197578 -137.113116135 0.532610246993 -25.3138008058 0.532355889443 154.776218871 0.000451507197638 -137.113116137 0.65796909422 154.450942848
9.6 0.520762618973 -22.4532001031 0.14860226064 132.294635011 0.650677574184 175.269028983 0.532299271675 -27.9543610162 0.14860226064 132.294635011 0.521352004485 -22.3575778577 0.650416911362 175.350064153 0.532040838239 152.135526611 0.650677574184 175.269028983 0.650416911362 175.350064153 0.391889742099 -176.30154646 0.000448449433381 -141.233039602 0.532299271675 -27.9543610162 0.532040838239 152.135526611 0.000448449433406 -141.233039603 0.658475383881 152.121057895
9.625 0.524437820991 -25.360830133 0.145918125202 128.679117606 0.648585047662 170.687874471 0.531987131988 -30.5899590183 0.145918125202 128.679117606 0.52501857804 -25.2641784704 0.648330402467 170.769136111 0.531724630506 149.499800273 0.648585047662 170.687874471 0.648330402467 170.769136111 0.398754218415 177.535746255 0.0004455134753 -145.328482343 0.531987131988 -30.5899590183 0.531724630506 149.499800273 0.000445513475296 -145.328482344 0.658982860346 149.794406313
9.65 0.52810475407 -28.2695363783 0.143233459389 125.070429312 0.646461329884 166.118866452 0.531673923385 -33.2206802495 0.143233459389 125.070429312 0.528677124427 -28.1719006863 0.646212629112 166.200343042 0.531407357605 146.86895371 0.646461329884 166.118866452 0.646212629112 166.200343042 0.405580837376 171.406898106 0.000442702768602 -149.400321573 0.531673923385 -33.2206802495 0.531407357605 146.86895371 0.000442702768575 -149.400321572 0.659491366992 147.47092528
9.675 0.531763514252 -31.1793167859 0.140546606336 121.468475945 0.644306454572 161.561865762 0.531359739289 -35.846608891 0.140546606336 121.468475945 0.532327749976 -31.0807423533 0.6440636159 161.643545944 0.531089108462 144.242902087 0.644306454572 161.561865762 0.6440636159 161.643545944 0.412370436043 165.311098582 0.00044002042708 -153.449492482 0.531359739289 -35.846608891 0.531089108462 144.242902087 0.000440020427035 -153.44949248 0.660000751607 145.15055285
9.7 0.535414059241 -34.0901809661 0.137856013116 117.873204554 0.642120513687 157.016746523 0.531044671176 -38.4678279164 0.137856013116 117.873204554 0.535970422643 -33.9907128217 0.641883445804 157.09861914 0.530769969676 141.621561835 0.642120513687 157.016746523 0.641883445804 157.09861914 0.419123572998 159.247628343 0.000437469202143 -157.476985315 0.531044671176 -38.4678279164 0.530769969676 141.621561835 0.000437469202087 -157.476985312 0.660510866213 142.833227925
9.725 0.539056208164 -37.002147679 0.135160231965 114.284603216 0.639903664636 152.48339518 0.530728808655 -41.0844191402 0.135160231966 114.284603216 0.539604971693 -36.901830435 0.639672267396 152.565449314 0.530450025631 139.004850601 0.639903664636 152.48339518 0.639672267396 152.565449314 0.425840537735 153.215846583 0.000435051455586 -161.483841526 0.530728808655 -41.0844191402 0.530450025631 139.004850601 0.000435051455524 -161.483841522 0.661021566896 140.518890218
9.75 0.54268964302 -39.9152425513 0.132457920916 110.702700944 0.637656136437 147.961709515 0.530412239544 -43.696463265 0.132457920916 110.702700944 0.543231089091 -39.8141202501 0.637430301027 148.043934523 0.5301293586 136.392687209 0.637656136437 147.961709515 0.637430301027 148.043934523 0.432521362406 147.215179861 0.000432769136448 -165.471149132 0.530412239544 -43.696463265 0.5301293586 136.392687209 0.000432769136386 -165.471149128 0.661532713639 138.207480227
9.775 0.54631391165 -42.8294960176 0.129747843854 107.127567756 0.635378234865 143.451597658 0.530095049941 -46.3040399269 0.129747843854 107.127567756 0.546848332404 -42.7276119825 0.635157844002 143.53398321 0.529808048842 133.784991608 0.635378234865 143.451597658 0.635157844002 143.53398321 0.439165835283 141.245112244 0.000430623762181 -169.44003739 0.530095049941 -46.3040399269 0.529808048842 133.784991608 0.000430623762122 -169.440037385 0.662044170163 135.898939201
9.8 0.549928432008 -45.7449414834 0.127028870052 103.559314942 0.633070346611 138.952977093 0.529777324304 -48.9072277413 0.127028870052 103.559314942 0.550456129016 -45.6423381713 0.632855274754 139.035513207 0.529486174713 131.181684838 0.633070346611 138.952977093 0.632855274754 139.035513207 0.445773515483 135.305176614 0.000428616404156 -173.391670921 0.529777324304 -48.9072277413 0.529486174713 131.181684838 0.000428616404104 -173.391670917 0.662555803767 133.593209117
9.825 0.553532497577 -48.6616137013 0.124299973184 99.9980955662 0.63073294248 134.465773667 0.529459145507 -51.5061043465 0.124299973184 99.9980955662 0.554053781485 -48.558332558 0.630523056067 134.548450748 0.529163812755 128.582688978 0.63073294248 134.465773667 0.630523056067 134.548450748 0.452343748538 129.394946992 0.000426747677436 -177.327243401 0.529459145507 -51.5061043465 0.529163812755 128.582688978 0.000426747677393 -177.327243397 0.663067485172 131.290232648
9.85 0.557125283755 -51.5795473523 0.121560229873 96.444105271 0.628366579672 129.989920605 0.529140594918 -54.1007464476 0.121560229873 96.444105271 0.557640473875 -51.47562867 0.628161737379 130.072729482 0.528841037803 125.987927115 0.628366579672 129.989920605 0.628161737379 130.072729482 0.458875682536 123.514031784 0.000425017734633 178.752029064 0.529140594918 -54.1007464476 0.528841037803 125.987927115 0.0004250177346 178.752029067 0.663579088376 128.989953139
9.875 0.560705855059 -54.4987758239 0.118808817783 92.8975834357 0.625971903178 125.525357544 0.528821752453 -56.6912298586 0.118808817783 92.8975834357 0.561215278919 -54.3942586006 0.625771956192 125.608289504 0.528517923077 123.397323292 0.625971903178 125.525357544 0.625771956192 125.608289504 0.465368284593 117.662067835 0.000423426263601 174.844914772 0.528821752453 -56.6912298586 0.528517923077 123.397323292 0.000423426263579 174.844914775 0.664090490505 126.692314581
9.9 0.564273173014 -57.4193301731 0.116045013295 89.3588147741 0.623549646329 121.072029569 0.52850269664 -59.2776295446 0.116045013295 89.3588147741 0.564777165852 -57.3142519739 0.623354438646 121.155076393 0.528194540283 120.810802479 0.623549646329 121.072029569 0.623354438646 121.155076393 0.471820357486 111.838715204 0.000421972488709 170.950173363 0.52850269664 -59.2776295446 0.528194540283 120.810802479 0.000421972488696 170.950173364 0.664601571667 124.397261585
9.925 0.567826104586 -60.3412382657 0.1132681888 85.8281314551 0.62110063055 116.629886278 0.528183504678 -61.8600196631 0.1132681888 85.8281314551 0.568325008804 -60.2356350861 0.620909999286 116.713040277 0.527870959706 118.228290524 0.62110063055 116.629886278 0.620909999286 116.713040277 0.478230556325 106.043652579 0.000420655175371 167.066562768 0.528183504678 -61.8600196631 0.527870959706 118.228290524 0.000420655175367 167.066562769 0.665112214813 122.104739362
9.95 0.571363431042 -63.26452408 0.110477809622 82.3059158569 0.618625764353 112.198880862 0.527864252493 -64.4384736041 0.110477809622 82.3059158569 0.571857595624 -63.1584302114 0.618439540075 112.282134909 0.527547250306 115.649714121 0.618625764353 112.198880862 0.618439540075 112.282134909 0.484597405152 100.276573268 0.000419472637569 163.192846091 0.527864252493 -64.4384736041 0.527547250306 115.649714121 0.000419472637572 163.192846091 0.665622305601 119.814693697
9.975 0.574883857126 -66.189207165 0.107673430642 78.7926040861 0.616126041627 107.778969208 0.527545014787 -67.0130640311 0.107673430642 78.7926040861 0.575373637022 -66.0826550623 0.615944048699 107.862316771 0.527223479817 113.075000767 0.616126041627 107.778969208 0.615944048699 107.862316771 0.490919313405 94.5371816883 0.000418422748077 159.32779833 0.527545014787 -67.0130640311 0.527223479817 113.075000767 0.000418422748086 159.327798329 0.666131732254 117.527070928
10 0.578386020455 -69.1153022415 0.104854692623 75.2886904193 0.613602539272 103.370109025 0.527225865096 -69.5838629197 0.104854692622 75.2886904193 0.57887177592 -69.0083223933 0.613424596216 103.453544204 0.526899714837 110.504078726 0.613602539272 103.370109025 0.613424596216 103.453544204 0.497194592182 88.825190311 0.000417502951126 155.470212885 0.527225865096 -69.5838629197 0.526899714837 110.504078726 0.000417502951139 155.470212883 0.666640385436 115.241817925
10.025 0.581868501019 -72.0428189363 0.102021318305 71.7947328652 0.611056414229 98.972258999 0.526906875836 -72.1509415978 0.102021318305 71.7947328652 0.582350596938 -71.935439738 0.610882334096 99.0557765533 0.526576020929 107.936876987 0.611056414229 98.972258999 0.610882334096 99.0557765533 0.50342147025 83.1403170061 0.000416710277274 151.618907774 0.526906875836 -72.1509415978 0.526576020929 107.936876987 0.000416710277289 151.618907771 0.667148158112 112.958882071
10.05 0.585329830718 -74.9717616388 0.0991731083055 68.311360087 0.608488899957 94.5853779749 0.526588118352 -74.7143707838 0.0991731083055 68.311360087 0.585808635893 -74.8640092681 0.608318490711 94.6689733552 0.526252462712 105.373325232 0.608488899957 94.5853779749 0.608318490711 94.6689733552 0.509598109749 77.4822827395 0.00041604136028 147.772731507 0.526588118352 -74.7143707838 0.526252462712 105.373325232 0.000416041360295 147.772731504 0.667654945425 110.67821124
10.075 0.588768502839 -77.9021294694 0.0963099368666 64.8392799893 0.605901302421 90.209424163 0.526269662967 -77.2742206254 0.0963099368666 64.8392799893 0.589244389261 -77.7940277655 0.605734367335 90.2930935416 0.525929103957 102.813353792 0.605901302421 90.209424163 0.605734367335 90.2930935416 0.515722621555 71.8508095863 0.000415492455765 143.93056857 0.526269662967 -77.2742206254 0.525929103957 102.813353792 0.000415492455779 143.930568567 0.668160644567 108.399753781
10.1 0.59218298141 -80.8339163508 0.093431747522 61.3792903461 0.603294995634 85.8443543793 0.525951579024 -79.8305607381 0.093431747522 61.3792903461 0.5926563235 -80.7254866972 0.603131333691 85.9280946787 0.525606007685 100.256893613 0.603294995634 85.8443543793 0.603131333691 85.9280946787 0.521793080234 66.2456190237 0.00041505946151 140.091344461 0.525951579024 -79.8305607381 0.525606007685 100.256893613 0.000415059461523 140.091344458 0.668665154652 106.123458497
10.125 0.595571710337 -83.7671111715 0.0905385487278 57.9322919516 0.600671416825 81.4901233146 0.525633934931 -82.3834602434 0.0905385487278 57.9322919516 0.596042884181 -83.6583723825 0.600510823125 81.5739322347 0.525283236261 97.7038762158 0.600671416825 81.4901233146 0.600510823125 81.5739322347 0.527807538546 60.6664304705 0.000414737939206 136.254030249 0.525633934932 -82.3834602434 0.525283236261 97.7038762158 0.000414737939217 136.254030246 0.669168376594 103.849274632
10.15 0.598933122292 -86.7016980337 0.0876304095354 54.499304907 0.598032061277 77.1466828341 0.525316798211 -84.9329878067 0.0876304095354 54.499304907 0.599402504851 -86.5926662452 0.597874327452 77.2305588789 0.524960851488 95.1542336566 0.598032061277 77.1466828341 0.597874327452 77.2305588789 0.533764041431 55.1129600467 0.000414523137497 132.417646625 0.525316798211 -84.9329878067 0.524960851488 95.1542336566 0.000414523137505 132.417646622 0.669670212984 101.57715185
10.175 0.602265647259 -89.6376565749 0.0847074553819 51.0814888321 0.595378476899 72.8139813091 0.525000235537 -87.4792116755 0.0847074553819 51.0814888321 0.602733615576 -89.52834514 0.595223391526 72.8979238121 0.524638914706 92.6078984906 0.595378476899 72.8139813091 0.595223391526 72.8979238121 0.539660639428 49.5849195273 0.000414410016146 128.581267395 0.525000235537 -87.4792116755 0.524638914706 92.6078984906 0.000414410016151 128.581267393 0.670170567967 99.3070402208
10.2 0.605567720707 -92.574962357 0.0817698640921 47.6801680312 0.592712258583 68.4919629802 0.52468431278 -90.0221997178 0.0817698640921 47.6801680312 0.606034651099 -92.4653817458 0.592559607603 68.5759721283 0.524317486886 90.0648037313 0.592712258583 68.4919629802 0.592559607603 68.5759721283 0.545495401458 44.0820154683 0.000414393271142 124.744022423 0.52468431278 -90.0221997178 0.524317486886 90.0648037313 0.000414393271145 124.744022421 0.670669347123 97.0388902064
10.225 0.608837791335 -95.5135873132 0.0788178622027 44.296862959 0.590035042406 64.1805673528 0.524369095051 -92.5620194599 0.0788178622027 44.296862959 0.609304058574 -95.4037450182 0.58988460954 64.2646442083 0.523996628728 87.5248828114 0.590035042406 64.1805673528 0.58988460954 64.2646442083 0.5512664269 38.6039484855 0.000414467360557 120.905099976 0.524369095051 -92.5620194599 0.523996628728 87.5248828114 0.000414467360558 120.905099975 0.671166457345 94.7726526441
10.25 0.612074328333 -98.4535002449 0.0758517217449 40.9333297774 0.587348499726 59.8797286235 0.524054646744 -95.098738125 0.0758517217449 40.9333297774 0.612540304834 -98.3434006923 0.587200066889 59.9638751462 0.523676400755 84.9880695424 0.587348499726 59.8797286235 0.587200066889 59.9638751462 0.556971856919 33.1504126695 0.000414626530918 117.06374849 0.524054646744 -95.098738125 0.523676400755 84.9880695424 0.000414626530917 117.063748491 0.671661806718 92.5082787336
10.275 0.615275828144 -101.394667364 0.0728717576589 37.5916103943 0.584654331223 55.5893751387 0.52374103158 -97.6324226722 0.0728717576589 37.5916103943 0.615741883139 -101.284311829 0.584507678932 55.6735942052 0.523356863413 82.4542980743 0.584654331223 55.5893751387 0.584507678932 55.6735942052 0.562609884966 27.7210951198 0.000414864843868 113.219277734 0.52374103158 -97.6324226722 0.523356863413 82.4542980743 0.000414864843867 113.219277735 0.672155304404 90.2457200237
10.3 0.61844082067 -104.337052869 0.0698783260612 34.2740962317 0.581954260937 51.3094288845 0.523428312654 -100.163139835 0.0698783260612 34.2740962317 0.618907319389 -104.226439401 0.581809168716 51.3937243067 0.523038077167 79.9235028538 0.581954260937 51.3094288845 0.581809168716 51.3937243067 0.568178766407 22.3156755868 0.00041517620283 109.371059386 0.523428312654 -100.163139835 0.523038077167 79.9235028538 0.000415176202829 109.371059387 0.67264686052 87.9849283999
10.325 0.621567874921 -107.280619556 0.0668718236616 30.9836101688 0.579250030343 47.0398050063 0.523116552475 -102.690956161 0.0668718236616 30.9836101688 0.622035177769 -107.169742904 0.579106277118 47.1241815485 0.522720102596 77.3956185823 0.579250030343 47.0398050063 0.579106277118 47.1241815485 0.573676827248 16.9338262079 0.000415554379394 105.518527037 0.523116552475 -102.690956161 0.522720102596 77.3956185823 0.000415554379393 105.518527038 0.673136386014 85.725856072
10.35 0.624655604058 -110.22532945 0.0638526887312 27.7235128389 0.576543392511 42.7804113581 0.522805813019 -105.215938051 0.0638526887312 27.7235128389 0.6251240658 -110.114180998 0.576400756998 42.8648747521 0.522403000495 74.870580173 0.576543392511 42.7804113581 0.576400756998 42.8648747521 0.579102471889 11.575211328 0.000415993039102 101.661175643 0.522805813019 -105.215938051 0.522403000495 74.870580173 0.000415993039101 101.661175644 0.673623792552 83.468455563
10.375 0.627702669842 -113.171144457 0.0608214041768 24.4978419762 0.573836106386 38.5311480801 0.522496155774 -107.738151803 0.0608214041768 24.4978419762 0.62817263879 -113.059712169 0.573694367468 38.6157050395 0.522086831969 72.3483227067 0.573836106386 38.5311480801 0.573694367468 38.6157050395 0.584454189922 6.2394873943 0.000416485766314 97.7985604538 0.522496155774 -107.738151803 0.522086831969 72.3483227067 0.000416485766314 97.7985604547 0.674108992391 81.2126796985
10.4 0.63070778646 -116.118027036 0.0577785035134 21.3114972457 0.571129931229 34.291907203 0.522187641789 -110.257663648 0.0577785035134 21.3114972457 0.631179603666 -116.0062954 0.57098886832 34.3765654353 0.521771658537 69.8287813872 0.571129931229 34.291907203 0.57098886832 34.3765654353 0.58973056192 0.926302917039 0.000417026087828 93.9302954646 0.522187641789 -110.257663648 0.521771658537 69.8287813872 0.000417026087829 93.9302954651 0.67459189826 78.9584815968
10.425 0.633669723733 -119.065940874 0.0547245808797 18.1704886175 0.568426621242 30.0625722773 0.521880331733 -112.774539795 0.0547245808797 18.1704886175 0.63414372219 -118.953890859 0.568286014637 30.1473404946 0.521457542226 67.311891495 0.568426621242 30.0625722773 0.568286014637 30.1473404946 0.594930264252 -4.36470151126 0.000417607494913 90.0560514285 0.521880331733 -112.774539795 0.521457542226 67.311891495 0.000417607494914 90.0560514286 0.675072423234 76.7058146596
10.45 0.636587309713 -122.014851573 0.0516603067905 15.0822749972 0.56572792041 25.8430180252 0.521574285942 -115.288846476 0.0516603067905 15.0822749972 0.637063813566 -121.902460591 0.565587551622 25.9279059537 0.521144545674 64.7975883402 0.56572792041 25.8430180252 0.565587551622 25.9279059537 0.600052072915 -9.63389314622 0.000418223463468 86.175553495 0.521574285942 -115.288846476 0.521144545674 64.7975883402 0.000418223463468 86.1755534945 0.675550480608 74.4546325633
10.475 0.639459432662 -124.964727343 0.0485864521897 12.0562333919 0.563035557589 21.6331100131 0.521269564481 -117.800649986 0.0485864521897 12.0562333919 0.639938756423 -124.851969217 0.56289520967 21.7181284008 0.52083273223 62.2858072138 0.563035557589 21.6331100131 0.56289520967 21.7181284008 0.605094866416 -14.8816469774 0.000418867472012 82.2885785262 0.521269564481 -117.800649986 0.52083273223 62.2858072138 0.000418867472012 82.2885785252 0.676025983771 72.2048892513
10.5 0.64228504244 -127.915539694 0.0455039247738 9.10432066602 0.560351241845 17.4327043422 0.520966227205 -120.310016731 0.0455039247738 9.10432066601 0.64276749022 -127.802384634 0.560210699687 17.5178649649 0.52052216606 59.7764833379 0.560351241845 17.4327043422 0.560210699687 17.5178649649 0.610057627745 -20.1083455764 0.00041953301728 78.3949521616 0.520966227205 -120.310016731 0.52052216606 59.7764833379 0.00041953301728 78.3949521601 0.676498846078 69.956538927
10.525 0.645063151313 -130.867264133 0.0424138238894 6.24202576988 0.557676658067 13.2416473527 0.520664333819 -122.817013272 0.0424138238894 6.24202576987 0.645549016058 -130.753678718 0.557535708688 13.3269630187 0.520212912244 57.2695518143 0.557676658067 13.2416473527 0.557535708688 13.3269630187 0.614939445494 -25.3143789124 0.000420213627235 74.4945456954 0.520664333819 -122.817013272 0.520212912244 57.2695518143 0.000420213627234 74.4945456935 0.67696898071 67.7095360473
10.55 0.647792834202 -133.819880856 0.0393175242953 3.48977092197 0.555013462876 9.05977534013 0.520363943949 -125.321706377 0.0393175242953 3.48977092197 0.648282396943 -133.705828023 0.554871895682 9.14525989318 0.519905036887 54.7649475712 0.555013462876 9.05977534013 0.554871895682 9.14525989318 0.619739514174 -30.5001441414 0.000420902871373 70.587272837 0.520363943949 -125.321706377 0.519905036887 54.7649475712 0.000420902871371 70.5872728349 0.677436300546 65.4638353173
10.575 0.6504732284 -136.773375451 0.0362168061208 0.875025873982 0.552363280807 4.88691427791 0.520065117211 -127.824163065 0.0362168061208 0.875025873978 0.650966757513 -136.658814491 0.55222088784 4.97258259882 0.519598607224 52.2626053084 0.552363280807 4.8869142779 0.55222088784 4.97258259882 0.624457133815 -35.6660453739 0.000421594368273 66.6730864207 0.520065117211 -127.824163065 0.519598607224 52.2626053084 0.000421594368269 66.6730864186 0.677900718018 63.2193916856
10.6 0.65310353279 -139.727739591 0.0331140612313 -1.56441015394 0.549727700803 0.722879542802 0.519767913288 -130.324450664 0.0331140612313 -1.56441015395 0.653601283264 -139.612626148 0.549584276962 0.808747549568 0.51929369173 49.7624594407 0.549727700803 0.722879542801 0.549584276962 0.808747549568 0.629091708919 -40.8124934268 0.000422281790409 62.7519751275 0.519767913288 -130.324450664 0.51929369173 49.7624594407 0.000422281790404 62.7519751256 0.678362144969 60.9761603404
10.625 0.655683006579 -142.682971737 0.0300126307812 -3.77514811619 0.547108272991 -3.43252436157 0.519472392007 -132.822636857 0.0300126307812 -3.7751481162 0.656185219302 -142.567257819 0.546963616231 -3.34643971522 0.518990360229 47.2644440389 0.547108272991 -3.43252436157 0.546963616231 -3.34643971522 0.633642746864 -45.9399055628 0.000422958866321 58.823960276 0.519472392007 -132.822636857 0.518990360229 47.2644440389 0.000422958866317 58.8239602744 0.678820492503 58.7340967068
10.65 0.658210967607 -145.639077848 0.0269173778003 -5.67946654929 0.54450650575 -7.57950408892 0.519178613424 -135.318789744 0.0269173778003 -5.67946654929 0.658717868652 -145.52271184 0.544360417259 -7.49318481631 0.518688684017 44.7684927684 0.54450650575 -7.57950408893 0.544360417259 -7.49318481631 0.63810985584 -51.0487052239 0.000423619380302 54.8890927305 0.519178613424 -135.318789744 0.518688684017 44.7684927684 0.000423619380299 54.8890927295 0.679275670836 56.4931564449
10.675 0.660686790239 -148.596072099 0.023835701911 -7.16017668521 0.541923863059 -11.7182777478 0.518886637913 -137.812977897 0.023835701911 -7.16017668521 0.661198590165 -148.478998781 0.541776147412 -11.6317048334 0.518388735973 42.2745388264 0.541923863059 -11.7182777478 0.541776147412 -11.6317048334 0.642492742409 -56.1393217609 0.000424257169827 50.9474499641 0.518886637913 -137.812977897 0.518388735973 42.2745388264 0.000424257169826 50.9474499637 0.679727589131 54.2532954488
10.7 0.663109902884 -151.553977612 0.0207794334995 -8.03321327753 0.539361762115 -15.8490752186 0.51859652626 -140.305270421 0.0207794334995 -8.03321327753 0.663626796048 -151.436138184 0.539212227398 -15.7622286235 0.518090590687 39.7825148749 0.539361762115 -15.8490752186 0.539212227398 -15.7622286235 0.646791208795 -61.2121901649 0.000424866120986 46.9991333014 0.51859652626 -140.305270421 0.518090590687 39.7825148749 0.000424866120988 46.9991333016 0.680176155335 52.0144698468
10.725 0.665479785181 -154.512827212 0.0177685910395 -7.99559553141 0.536821571203 -19.9721384976 0.518308339761 -142.795737018 0.0177685910395 -7.99559553141 0.666001949051 -154.394159321 0.536670029116 -19.8849971662 0.517794324588 37.2923529726 0.536821571203 -19.9721384976 0.536670029116 -19.8849971662 0.65100514998 -66.2677508024 0.000425440162216 43.0442653528 0.518308339761 -142.795737018 0.517794324588 37.2923529726 0.00042544016222 43.0442653537 0.680621276009 49.7766360026
10.75 0.66779596487 -157.472664202 0.0148393621963 -6.52244851554 0.534304607808 -24.0877220746 0.51802214033 -145.284448054 0.0148393621963 -6.52244851553 0.668323559347 -157.353101979 0.534150873736 -24.0002639426 0.517500016077 34.8039845018 0.534304607808 -24.0877220746 0.534150873736 -24.0002639426 0.655134550696 -71.306449158 0.000425973256623 39.0829876382 0.51802214033 -145.284448054 0.517500016077 34.8039845018 0.000425973256631 39.0829876397 0.681062856145 47.5397505178
10.775 0.670058014375 -160.433543182 0.0120622595417 -2.6617390962 0.531812136939 -28.196093354 0.517737990606 -147.771474626 0.0120622595417 -2.6617390962 0.67059118112 -160.313017274 0.531656029997 -28.108295357 0.517207745667 32.3173400939 0.531812136939 -28.196093354 0.531656029997 -28.108295357 0.659179482399 -76.3287355864 0.000426459393167 35.1154583812 0.517737990606 -147.771474626 0.517207745667 32.3173400939 0.000426459393178 35.1154583829 0.681500798976 45.3037702356
10.8 0.672265547131 -163.395530902 0.00958496099381 5.31871945798 0.529345369657 -32.2975331258 0.517455954073 -150.256888644 0.00958496099382 5.31871945797 0.672804408899 -163.273968515 0.529186712704 -32.2093712095 0.516917596137 29.8323495499 0.529345369657 -32.2975331258 0.529186712704 -32.2093712095 0.663140100288 -81.3350650764 0.000426892576921 31.1418504443 0.517455954073 -150.256888644 0.516917596137 29.8323495499 0.000426892576933 31.141850446 0.681935005783 43.0686522452
10.825 0.674418213671 -166.358707177 0.00772120955457 20.0072059377 0.526905461766 -36.3923360988 0.517176095183 -152.740762902 0.00772120955458 20.0072059376 0.674962873635 -166.236032115 0.526744081392 -36.3037852296 0.51662965268 27.348941757 0.526905461766 -36.3923360988 0.526744081392 -36.3037852296 0.667016640438 -86.3258970265 0.000427266818522 27.1623493621 0.517176095183 -152.740762902 0.51662965268 27.348941757 0.000427266818533 27.1623493635 0.682365375681 40.834353889
10.85 0.676515697463 -169.323165857 0.00700320217949 41.9210283595 0.524493512662 -40.4808115046 0.516898479482 -155.223171163 0.00700320217949 41.9210283595 0.677066238544 -169.199298568 0.524329239135 -40.3918456812 0.516344003076 24.8670446019 0.524493512662 -40.4808115046 0.524329239135 -40.3918456812 0.67080941709 -91.3016950336 0.000427576122832 23.1771514204 0.516898479482 -155.223171163 0.516344003076 24.8670446019 0.000427576122838 23.1771514211 0.682791805404 38.6008327692
10.875 0.678557710528 -172.289015883 0.0077774336858 63.7833084632 0.522110564293 -44.5632837842 0.516623173756 -157.704188249 0.0077774336858 63.7833084632 0.679114194718 -172.163873504 0.52194323148 -44.4738760498 0.516060737869 22.3865848782 0.522110564293 -44.5632837842 0.52194323148 -44.4738760498 0.674518820153 -96.2629266937 0.000427814476648 19.1864617241 0.516623173756 -157.704188249 0.516060737869 22.3865848782 0.000427814476645 19.1864617238 0.683214189068 36.3680467579
10.9 0.680543988804 -175.256382432 0.00971133643623 78.3948162683 0.519757600212 -48.6400933697 0.516350246164 -160.183890132 0.00971133643623 78.3948162684 0.681106456476 -175.129878828 0.519587045462 -48.5502158245 0.515779950552 19.9074881895 0.519757600212 -48.6400933697 0.519587045462 -48.5502158245 0.678145312917 -101.210063413 0.000427975835133 15.1904921968 0.516350246164 -160.183890132 0.515779950552 19.9074881895 0.000427975835116 15.1904921951 0.683632417925 34.1359540075
10.925 0.682474287238 -178.225408164 0.0122843465203 86.33267216 0.517435544693 -52.7115975741 0.5160797664 -162.662354036 0.0122843465203 86.3326721601 0.683042756448 -178.09745398 0.51726160868 -52.6212213881 0.515501737779 17.4296788463 0.517435544693 -52.7115975741 0.51726160868 -52.6212213881 0.681689430021 -106.143580226 0.000428054106437 11.1894594612 0.5160797664 -162.662354036 0.515501737779 17.4296788463 0.000428054106401 11.189459458 0.6840463801 31.9045129637
10.95 0.684348374588 178.803745393 0.0151890970238 90.1816444682 0.515145261878 -56.7781716033 0.515811805847 -165.13965854 0.0151890970238 90.1816444683 0.684922840354 178.933242701 0.514967788409 -56.6872670294 0.515226199574 14.9530797576 0.515145261878 -56.7781716033 0.514967788409 -56.6872670294 0.685151775649 -111.063955621 0.000428043133756 7.18358256388 0.515811805847 -165.139658539 0.515226199573 14.9530797576 0.000428043133696 7.18358255927 0.684455960312 29.6736823796
10.975 0.686166027848 175.830896331 0.0182811686521 91.6631027251 0.512887554914 -60.8402097059 0.515546437743 -167.615883692 0.0182811686522 91.6631027253 0.686746461403 175.96203245 0.512706390694 -60.7487460927 0.514953439576 12.4776123147 0.512887554914 -60.840209706 0.512706390694 -60.7487460927 0.688533021951 -115.971671359 0.000427936673845 3.17308053107 0.515546437743 -167.615883692 0.514953439576 12.4776123147 0.000427936673756 3.1730805252 0.684861039568 27.4434213326
11 0.68792702625 172.855840666 0.0214922338188 91.7225147071 0.510663165064 -64.8981264783 0.515283737361 -170.091111131 0.0214922338189 91.7225147073 0.688513374268 172.988714397 0.510478159413 -64.8060722824 0.514683565292 10.003196269 0.510663165064 -64.8981264783 0.510478159413 -64.8060722824 0.691833907657 -120.867212295 0.000427728370819 -0.841830223982 0.515283737361 -170.091111131 0.514683565292 10.003196269 0.000427728370699 -0.841830230727 0.685261494846 25.2136892436
11.025 0.689631144731 169.878350464 0.0247880697237 90.881210811 0.508472770735 -68.9523583418 0.515023782193 -172.565424213 0.0247880697237 90.8812108112 0.690223328509 170.013063696 0.508283775266 -68.85968114 0.514416688374 7.52974960107 0.508472770735 -68.9523583418 0.508283775266 -68.85968114 0.695055236842 -125.751066179 0.000427411723872 -4.86093857447 0.515023782193 -172.565424213 0.514416688374 7.52974960106 0.000427411723722 -4.86093858152 0.685657198746 22.9844458982
11.05 0.691278146746 166.898171745 0.0281507239358 89.4401518036 0.506316986409 -73.0033652133 0.514766652139 -175.038908153 0.0281507239359 89.4401518038 0.691876061337 167.034829436 0.506123854648 -72.9100317134 0.514152924922 5.05718838116 0.506316986409 -73.0033652133 0.506123854648 -72.9100317134 0.698197877784 -130.62372344 0.000426980047443 -8.88404130767 0.514766652139 -175.038908153 0.514152924922 5.05718838116 0.000426980047268 -8.88404131434 0.686048019118 20.7556514713
11.075 0.692867776273 163.915022142 0.0315706673198 87.5821194224 0.504196361419 -77.0516323903 0.514512429712 -177.511650167 0.0315706673199 87.5821194226 0.693471289556 164.053732309 0.503998948377 -76.9576084408 0.513892395812 2.58542662056 0.504196361419 -77.0516323904 0.503998948377 -76.9576084408 0.701262761847 -135.485676936 0.000426426422301 -12.9109455054 0.514512429713 -177.511650167 0.513892395812 2.58542662055 0.000426426422109 -12.910945511 0.686433818654 18.5272665551
11.1 0.694399748806 160.928588279 0.0350431051842 85.4233747557 0.502111378547 -81.0976726738 0.514261200253 -179.983739635 0.0350431051843 85.4233747559 0.695008700486 161.069462 0.501909540225 -81.0029232718 0.513635227056 0.114376112332 0.502111378547 -81.0976726738 0.501909540225 -81.0029232718 0.704250882325 -140.337421668 0.000425743636134 -16.9414703861 0.514261200253 -179.983739635 0.513635227056 0.114376112322 0.00042574363594 -16.94147039 0.686814454464 16.2992521904
11.125 0.695873741127 157.93852283 0.0385661285169 83.0408798139 0.500062452384 -85.1420287549 0.514013052145 177.544731732 0.038566128517 83.040879814 0.696487941642 158.081674266 0.499856045228 -85.0465180528 0.51338155019 -2.35605373912 0.500062452384 -85.1420287549 0.499856045228 -85.0465180527 0.707163293135 -145.179454441 0.000424924112439 -20.9754482098 0.514013052145 177.544731732 0.51338155019 -2.35605373913 0.000424924112265 -20.9754482118 0.687189777596 14.0715699031
11.15 0.697289379542 154.944441231 0.0421397376533 80.4873354432 0.498049927425 -89.1852758941 0.513768077051 175.073669709 0.0421397376534 80.4873354433 0.697908608867 155.089987656 0.497838807703 -89.0889672029 0.513131502709 -4.82595610087 0.498049927425 -89.1852758941 0.497838807703 -89.0889672028 0.710001107291 -150.012273454 0.000423959826989 -25.0127237284 0.513768077051 175.073669709 0.513131502709 -4.82595610088 0.000423959826861 -25.0127237287 0.687559632544 11.8441817457
11.175 0.698646226259 151.945917972 0.0457653078679 77.7998708204 0.496074075836 -93.228024924 0.513526370152 172.602977362 0.045765307868 77.7998708204 0.699270232581 152.093979833 0.495858098942 -93.1308807142 0.512885228527 -7.29542690781 0.496074075836 -93.228024924 0.495858098942 -93.1308807142 0.712765495038 -154.836377827 0.000422842211843 -29.0531515225 0.513526370152 172.602977362 0.512885228527 -7.29542690782 0.000422842211792 -29.0531515221 0.687923856702 9.61705034412
11.2 0.69994376349 148.94248245 0.0494452932067 75.0052728029 0.494135094846 -97.270925609 0.513288030404 170.132554836 0.0494452932067 75.0052728029 0.700572261732 149.093183439 0.493914114531 -97.1729075082 0.512642878499 -9.76456507376 0.494135094846 -97.270925609 0.493914114531 -97.1729075082 0.71545768156 -159.652267019 0.000421562047934 -33.0965904228 0.513288030404 170.132554836 0.512642878499 -9.76456507376 0.000421562047996 -33.0965904236 0.688282279795 7.39013895359
11.225 0.701181374765 145.933614296 0.0531830668485 72.123248397 0.492233103706 -101.314670401 0.513053160798 167.662299131 0.0531830668484 72.1232483969 0.701814044939 146.087081463 0.492006971211 -101.215739187 0.512404610979 -12.2334727188 0.492233103706 -101.314670401 0.492006971211 -101.215739187 0.718078944135 -164.460440153 0.000420109348664 -37.1428940582 0.513053160797 167.662299131 0.512404610979 -12.2334727187 0.000420109348875 -37.1428940633 0.688634723276 5.16341152144
11.25 0.702358322886 142.918738129 0.0569828449194 69.1685257537 0.490368140148 -105.359998632 0.512821868634 165.192103858 0.0569828449191 69.1685257534 0.702994808233 143.075102019 0.490136703245 -105.260114223 0.512170592442 -14.702255414 0.490368140148 -105.359998632 0.490136703245 -105.260114223 0.72063060865 -169.261395219 0.000418473238829 -41.1918964234 0.512821868634 165.192103858 0.512170592443 -14.702255414 0.000418473239221 -41.191896437 0.688980999701 2.93683276107
11.275 0.703473723772 139.897217654 0.0608496651972 66.1522454577 0.488540156268 -109.407701192 0.512594265817 162.721858976 0.0608496651968 66.1522454574 0.704113628666 140.056612483 0.488303258197 -109.306822629 0.511940998163 -17.1710224465 0.488540156268 -109.407701192 0.488303258197 -109.306822629 0.723114045353 -174.055628129 0.000416641835557 -45.2433912268 0.512594265816 162.721858976 0.511940998163 -17.1710224465 0.000416641836154 -45.243391254 0.689320912099 0.710368237448
11.3 0.70452651537 136.868349024 0.0647894051747 63.0829046772 0.486749013761 -113.45862574 0.512370469144 160.251450512 0.064789405174 63.0829046768 0.705169402931 137.030912905 0.486506492047 -113.356711163 0.511716012962 -19.6398871042 0.486749013761 -113.45862574 0.486506492047 -113.356711164 0.725530663754 -178.843631637 0.000414602140838 -49.297103684 0.512370469143 160.251450512 0.511716012963 -19.6398871042 0.00041460214165 -49.2971037308 0.689654253344 -1.51601553361
11.325 0.70551542056 133.831353368 0.0688088312711 59.96701175 0.484994478406 -117.51368251 0.512150600627 157.780760255 0.0688088312702 59.9670117494 0.706160809945 133.997228581 0.484746163547 -117.410689133 0.511495832029 -22.1089669855 0.484994478406 -117.51368251 0.484746163547 -117.410689133 0.727881906574 176.374105925 0.00041233995862 -53.3526533936 0.512150600627 157.780760255 0.51149583203 -22.1089669854 0.000412339959638 -53.3526534657 0.689980805583 -3.74235097065
11.35 0.706438902835 130.785368377 0.0729156753736 56.8095485328 0.483276213693 -121.573850777 0.511934787815 155.30966543 0.0729156753724 56.8095485322 0.707086266145 130.954701709 0.483021927706 -121.469734844 0.511280661826 -24.578384333 0.483276213693 -121.573850777 0.483021927706 -121.469734844 0.730169242656 171.59710208 0.000409839853219 -57.4095070036 0.511934787815 155.30966543 0.511280661826 -24.5783843329 0.000409839854409 -57.4095071053 0.690300339733 -5.96866929457
11.375 0.707295113235 127.729438828 0.0771187377516 53.6143022041 0.481593773476 -125.640186044 0.511723164131 152.838038342 0.0771187377501 53.6143022033 0.707943871982 127.902381978 0.481333328283 -125.53490279 0.511070721082 -27.0482663966 0.481593773477 -125.640186044 0.481333328282 -125.53490279 0.73239415876 166.824881846 0.000407085169762 -61.4669195989 0.511723164131 152.838038342 0.511070721082 -27.0482663965 0.000407085171059 -61.4669197315 0.690612615119 -8.19500037837
11.4 0.708081826734 124.662505901 0.0814280174692 50.3841065331 0.479946593506 -129.713828053 0.511515869229 150.365745998 0.0814280174676 50.3841065323 0.708731347794 124.839215971 0.479679789142 -129.607331645 0.510866241892 -29.5187458258 0.479946593507 -129.713828053 0.479679789142 -129.607331645 0.734558150192 162.056979582 0.000404058141105 -65.5238641675 0.511515869229 150.365745998 0.510866241893 -29.5187458257 0.000404058142414 -65.5238643267 0.690917379319 -10.4213725784
11.425 0.708796365867 121.583395134 0.0858548731528 47.1210191159 0.478333981673 -133.79600969 0.511313049361 147.892649694 0.0858548731511 47.1210191151 0.709445956848 121.764035219 0.478060604304 -133.688253157 0.510667470926 -31.9899610973 0.478333981674 -133.79600969 0.478060604304 -133.688253157 0.736662710202 157.292941057 0.000400740108559 -69.5789491899 0.511313049361 147.892649694 0.510667470927 -31.9899610972 0.000400740109754 -69.5789493632 0.691214368296 -12.6478125485
11.45 0.709435508937 118.490802835 0.0904122186159 43.8264524436 0.476755106774 -137.888066893 0.511114857761 145.41860457 0.0904122186144 43.8264524429 0.710084412875 118.675542732 0.476474926488 -137.779002052 0.510474670762 -34.462056978 0.476755106774 -137.888066893 0.476474926487 -137.779002052 0.738709318138 152.532325751 0.000397111884952 -73.6303254073 0.51111485776 145.41860457 0.510474670762 -34.4620569779 0.00039711188589 -73.6303255701 0.691503306908 -14.8743450408
11.475 0.709995379567 115.383280737 0.0951147596078 40.5012710367 0.475208985576 -141.991449687 0.510921455043 142.943459128 0.0951147596067 40.5012710362 0.710642768852 115.572297788 0.474921753931 -141.881027047 0.510288121355 -36.9351850299 0.475208985577 -141.991449687 0.474921753931 -141.881027047 0.740699426347 147.774709402 0.000393154286919 -77.6755841919 0.510921455042 142.943459128 0.510288121355 -36.9351850299 0.000393154287451 -77.6755843037 0.691783909908 -17.1009926997
11.5 0.710471313653 112.259218685 0.0999792799939 37.1458631234 0.473694467916 -146.107734469 0.510733009619 140.467054718 0.0999792799939 37.1458631234 0.711116283077 112.452698787 0.473399915214 -145.99590312 0.510108121666 -39.4095041593 0.473694467916 -146.107734469 0.473399915214 -145.99590312 0.742634445833 143.019686797 0.000388848857553 -81.7116516735 0.510733009619 140.467054718 0.510108121666 -39.4095041593 0.000388848857555 -81.7116516735 0.692055883503 -19.3277758593
