! Generated from PyAEDT SolutionData; AEDT ExportNetworkData workaround
# GHz S MA R 50
9 0.454870436667 17.1734771524 0.273975365598 -56.878188377 0.569393943264 -9.81573271705 0.627551529571 43.6189583923 0.273975365598 -56.878188377 0.455487284772 16.9819002014 0.569742809516 -9.74099048165 0.626787016028 -136.31252629 0.569393943264 -9.81573271705 0.569742809516 -9.74099048165 0.592606477333 169.745313087 0.0011096858632 94.4136890966 0.627551529571 43.6189583923 0.626787016028 -136.31252629 0.0011096858632 94.4136890966 0.461861324284 -144.527980407
9.025 0.453023468882 14.1354640245 0.273468599936 -60.5077343949 0.571512322594 -14.3911108822 0.627183156281 40.7572494962 0.273468599936 -60.5077343949 0.453633634994 13.943219437 0.571855544984 -14.3166760231 0.626428823379 -139.17354067 0.571512322594 -14.3911108822 0.571855544984 -14.3166760231 0.5885227356 163.860447506 0.00111229751559 90.024869598 0.627183156281 40.7572494962 0.626428823379 -139.17354067 0.00111229751528 90.024869597 0.462846625458 -147.169778483
9.05 0.451219878032 11.1086679559 0.272996244756 -64.1216399704 0.573570003426 -18.9522398213 0.626810661389 37.9032653345 0.272996244755 -64.1216399704 0.451823442243 10.915807549 0.57390748041 -18.8780986091 0.626066540781 -142.026833706 0.573570003426 -18.9522398213 0.573907480411 -18.8780986091 0.584511040611 157.992489712 0.00111481546143 85.64931228 0.626810661389 37.9032653345 0.626066540781 -142.026833706 0.00111481546102 85.6493122784 0.463840340296 -149.80638739
9.075 0.449457798239 8.09266418224 0.272558670354 -67.7203529889 0.575569467691 -23.4992512076 0.626434089437 35.0568641376 0.272558670354 -67.7203529889 0.450054841877 7.89923988955 0.575901100087 -23.4253898177 0.625700211955 -144.872546412 0.575569467691 -23.4992512076 0.575901100087 -23.4253898177 0.580570759022 152.141737074 0.00111724293678 81.2870842577 0.626434089437 35.0568641376 0.625700211954 -144.872546412 0.00111724293639 81.287084256 0.46484228307 -152.437908631
9.1 0.447735249653 5.0870527428 0.272156141085 -71.3043287695 0.577513213168 -28.0322883473 0.626053481579 32.2179074218 0.272156141085 -71.3043287695 0.448325853897 4.89311646904 0.577838904163 -27.9586928489 0.625329878184 -147.710816499 0.577513213168 -28.0322883473 0.577838904163 -27.9586928489 0.576700601152 146.308451025 0.00111958297893 76.9382393674 0.626053481579 32.2179074218 0.625329878184 -147.710816499 0.00111958297865 76.9382393659 0.465852274963 -155.064441407
9.125 0.44605015875 2.09145884831 0.271788816376 -74.8740281461 0.579403747158 -32.5515055872 0.625668875853 29.3862598845 0.271788816376 -74.8740281461 0.446634403311 1.89706233407 0.579723402314 -32.478161935 0.624955578532 -150.541778488 0.579403747158 -32.5515055872 0.579723402314 -32.478161935 0.572898727147 140.492857316 0.00112183847006 72.6028206578 0.625668875853 29.3862598845 0.624955578532 -150.541778488 0.00112183846991 72.6028206569 0.466870143893 -157.686082696
9.15 0.444400377099 -0.894466882485 0.271456752263 -78.4299156079 0.581243580086 -37.0570677715 0.625280307408 26.5617893029 0.271456752263 -78.4299156079 0.444978338942 -1.08927218531 0.581557107352 -36.9839617977 0.624577350011 -153.365563822 0.581243580086 -37.0570677715 0.581557107352 -36.9839617977 0.569162840689 134.69514597 0.00112401217813 68.2808625321 0.625280307408 26.5617893029 0.624577350011 -153.365563822 0.0011240121781 68.280862532 0.467895724336 -160.302927317
9.175 0.442783698701 -3.87104830271 0.271159903384 -81.9724575107 0.583035219099 -41.5491497361 0.624887808696 23.7443664347 0.271159903385 -81.9724575107 0.443355450822 -4.06621134613 0.583342528815 -41.4762671434 0.624195227728 -156.182300971 0.583035219099 -41.5491497361 0.583342528815 -41.4762671434 0.565490270921 128.915471025 0.00112610679458 63.9723925726 0.624887808696 23.7443664347 0.624195227728 -156.182300971 0.00112610679466 63.9723925733 0.468928857164 -162.915068008
9.2 0.441197876008 -6.83858372165 0.27089812536 -85.5021203679 0.584781161685 -46.027935835 0.62449140964 20.9338649227 0.27089812536 -85.5021203679 0.441763486274 -7.03405396822 0.58508216659 -45.9552621906 0.623809244997 -158.992115536 0.584781161685 -46.027935835 0.58508216659 -45.9552621906 0.561878043377 123.153950152 0.00112812496851 59.6774330776 0.62449140964 20.9338649227 0.623809244997 -158.992115536 0.00112812496865 59.6774330789 0.469969389472 -165.522595493
9.225 0.439640634742 -9.79734598244 0.270671177492 -89.0193692282 0.586483889374 -50.4936194905 0.624091137777 18.1301612008 0.270671177492 -89.0193692282 0.440200164775 -9.99307350405 0.586778504608 -50.4211402213 0.623419433438 -161.795130345 0.586483889374 -50.4936194906 0.586778504608 -50.4211402213 0.55832294085 117.410664237 0.00113006933698 55.3960023424 0.624091137777 18.1301612008 0.623419433438 -161.795130345 0.00113006933714 55.3960023441 0.471017174417 -168.125598546
9.25 0.438109687597 -12.7475826233 0.270478725736 -92.5246661448 0.588145861556 -54.9464027632 0.623687018374 15.3331344047 0.270478725736 -92.5246661448 0.438663191716 -12.9435181929 0.588434004662 -54.8741031516 0.623025823045 -164.591465551 0.588145861556 -54.9464027632 0.588434004662 -54.8741031516 0.554821555167 111.685656959 0.00113194255162 51.1281157147 0.623687018374 15.3331344047 0.623025823045 -164.591465551 0.00113194255177 51.1281157165 0.472072071057 -170.72416406
9.275 0.436602746912 -15.6895161134 0.27032034589 -96.0184687409 0.589769509465 -59.3864959361 0.623279074535 12.5426662839 0.27032034589 -96.0184687409 0.437150271129 -15.88561129 0.59005110039 -59.3143611171 0.62262844225 -167.381238723 0.589769509465 -59.3864959361 0.59005110039 -59.3143611171 0.55137033089 105.978934441 0.0011337473013 46.8737864533 0.623279074535 12.5426662839 0.62262844225 -167.381238723 0.00113374730141 46.8737864547 0.473133944201 -173.318377108
9.3 0.435117536414 -18.6233441552 0.270195526948 -99.5012288722 0.591357230372 -63.8141171111 0.622867327286 9.75864111813 0.270195526948 -99.5012288722 0.435659117483 -18.8195513631 0.591632191457 -63.7421320697 0.622227317962 -170.164564932 0.591357230372 -63.8141171111 0.591632191457 -63.7421320697 0.547965601916 100.290464981 0.00113548633116 42.6330264165 0.622867327286 9.75864111813 0.622227317962 -170.164564932 0.00113548633121 42.6330264171 0.474202664253 -175.908321004
9.325 0.433651802084 -21.5492400465 0.270103674583 -102.973391389 0.592911382013 -68.2294918131 0.62245179565 6.98094563538 0.270103674583 -102.973391389 0.434187466602 -21.7455126489 0.59317963799 -68.157641383 0.621822475608 -172.941556837 0.592911382013 -68.2294918131 0.59317963799 -68.157641383 0.544603621972 94.6201789043 0.00113716245811 38.4058466059 0.62245179565 6.98094563538 0.621822475608 -172.941556837 0.00113716245807 38.4058466052 0.475278107067 -178.494077364
9.35 0.432203322235 -24.4673530942 0.270044114722 -106.435392995 0.594434277289 -72.6328526018 0.622032496716 4.2094689337 0.270044114721 -106.435392995 0.432733085793 -24.6636454618 0.594695755265 -72.5611214643 0.621413939149 -175.712324765 0.594434277289 -72.6328526018 0.594695755265 -72.5611214643 0.541280589893 88.9679685484 0.00113877858309 34.1922575871 0.622032496716 4.2094689337 0.621413939149 -175.712324765 0.00113877858296 34.1922575848 0.476360153808 178.924273838
9.375 0.430769916847 -27.3778090761 0.270016097173 -109.887661208 0.595928179265 -77.0244386883 0.621609445692 1.44410240526 0.270016097172 -109.887661208 0.431293783238 -27.5740766506 0.596182808714 -76.9528113727 0.621001731108 -178.476976791 0.595928179265 -77.0244386883 0.596182808714 -76.9528113727 0.53799267055 83.3336883807 0.00114033770044 29.9922698076 0.621609445692 1.44410240526 0.621001731108 -178.476976791 0.00114033770022 29.9922698034 0.477448690813 176.346654214
9.4 0.429349456234 -30.2807107421 0.270018799291 -113.330613413 0.597395296491 -81.4044955572 0.621182655959 -1.31526033668 0.270018799291 -113.330613413 0.429867416703 -30.4769100961 0.597643009227 -81.3329564414 0.620585872572 178.764381188 0.597395296491 -81.4044955572 0.597643009227 -81.3329564414 0.534736012189 77.7171552584 0.00114184290462 25.8058938275 0.621182655959 -1.31526033668 0.620585872572 178.764381188 0.00114184290433 25.8058938214 0.478543609461 173.772986908
9.425 0.427939869074 -33.1761383526 0.270051329646 -116.764656011 0.598837778646 -85.7732745932 0.620752139115 -4.06872352832 0.270051329646 -116.764656011 0.428451901626 -33.3722272447 0.599078508806 -85.7018079051 0.620166383209 176.011645383 0.598837778646 -85.7732745932 0.599078508806 -85.7018079051 0.531506760896 72.1181488183 0.00114329739484 21.6331404784 0.620752139115 -4.06872352833 0.620166383209 176.011645383 0.0011432973945 21.6331404705 0.479644806042 171.20319654
9.45 0.426539149864 -36.064150248 0.270112731666 -120.190183656 0.600257712532 -90.1310327127 0.620317905014 -6.81638932325 0.270112731666 -120.190183656 0.427045218616 -36.2600876737 0.60049139655 -90.0596225321 0.619743281266 173.264714041 0.600257712532 -90.1310327127 0.60049139655 -90.0596225321 0.528301072774 66.5364119884 0.00114470447779 17.4740209605 0.620317905014 -6.81638932325 0.619743281266 173.264714041 0.00114470447742 17.4740209512 0.480752181637 168.637209162
9.475 0.425145365843 -38.9447834443 0.270201987267 -123.607578583 0.601657118414 -94.478032 0.61987996181 -9.55835785798 0.270201987267 -123.607578583 0.425645420422 -39.1405296838 0.60188369499 -94.4066622615 0.619316583573 170.523487383 0.601657118414 -94.478032 0.60188369499 -94.4066622615 0.52511512438 60.9716516067 0.00114606756903 13.3285468877 0.61987996181 -9.55835785798 0.619316583573 170.523487383 0.00114606756866 13.3285468774 0.481865641997 166.074952204
9.5 0.423756663405 -41.8180542524 0.270318020419 -127.017210018 0.603037946705 -98.8145393501 0.619438315984 -12.2947273152 0.270318020419 -127.017210018 0.424250638402 -42.0135709146 0.603257356773 -98.7431938466 0.618886305548 167.787867533 0.603037946705 -98.8145393501 0.603257356773 -98.7431938466 0.521945121857 55.4235391314 0.00114739019339 9.19673028605 0.619438315984 -12.2947273152 0.618886305548 167.787867533 0.00114739019305 9.19673027551 0.482985097429 163.516354425
9.525 0.422371274065 -44.6839589171 0.27045970066 -130.419433664 0.604402074992 -103.140826118 0.618992972388 -15.0255939848 0.27045970066 -130.419433664 0.422859088523 -44.879208979 0.604614261683 -103.069488504 0.618452461191 165.057758464 0.604402074992 -103.140826118 0.604614261683 -103.069488504 0.518787309136 49.8917114244 0.00114867598471 5.07858355136 0.618992972388 -15.0255939848 0.618452461191 165.057758464 0.00114867598442 5.07858354138 0.484110462683 160.961345872
9.55 0.420987519987 -47.5424742717 0.270625846541 -133.814591268 0.6057513054 -107.457167776 0.618543934268 -17.7510523227 0.270625846541 -133.814591268 0.421469076946 -47.7374221149 0.605956214 -107.385821573 0.618015063089 162.333065937 0.6057513054 -107.457167776 0.605956214 -107.385821573 0.515637975499 44.3757715882 0.0011499286854 0.974119368407 0.618543934268 -17.7510523227 0.618015063089 162.333065937 0.00114992868516 0.974119359816 0.485241656846 158.409857831
9.575 0.419603819127 -50.3935584061 0.270815228989 -137.203010255 0.607087362268 -111.763843577 0.618091203303 -20.4711950077 0.270815228989 -137.203010255 0.420079005204 -50.5881698492 0.607284940174 -111.692472179 0.617574122411 159.613697442 0.607087362268 -111.763843577 0.607284940174 -111.692472179 0.512493462736 38.8752898384 0.00115115214601 -3.1166494066 0.618091203303 -20.4711950077 0.617574122411 159.613697442 0.00115115214586 -3.11664941298 0.486378603237 155.861822785
9.6 0.418218690006 -53.2371513463 0.271026574591 -140.585003424 0.608411890141 -116.061136234 0.61763477963 -23.1861129962 0.271026574591 -140.585003424 0.41868737502 -53.4313936736 0.608602086809 -115.98972291 0.617129648912 156.899562146 0.608411890141 -116.061136234 0.608602086809 -115.98972291 0.509350172078 33.3898043922 0.00115235032535 -7.19370989859 0.61763477963 -23.1861129962 0.617129648912 156.899562146 0.00115235032528 -7.19370990203 0.487521229304 153.317174371
9.625 0.416830756155 -56.0731757426 0.271258568786 -143.96086871 0.609726452041 -120.349331599 0.617174661879 -25.8958955757 0.271258568786 -143.96086871 0.417292792797 -56.2670177279 0.609909218937 -120.277859501 0.616681650932 154.19057084 0.609726452041 -120.349331599 0.609909218937 -120.277859501 0.506204571011 27.9188223554 0.00115352729111 -11.2570494005 0.617174661879 -25.8958955757 0.616681650932 154.19057084 0.00115352729111 -11.2570494005 0.488669466525 150.775847342
9.65 0.415438750251 -58.9015375652 0.271509858966 -147.330888998 0.611032528012 -124.628718364 0.616710847196 -28.6006304157 0.271509858966 -147.330888998 0.415893973785 -59.0949494922 0.611207818549 -124.557170536 0.616230135397 151.48663589 0.611032528012 -124.628718364 0.611207818549 -124.557170536 0.503053200062 22.4618205906 0.00115468722147 -15.3066555932 0.616710847196 -28.6006304157 0.616230135397 151.48663589 0.00115468722154 -15.3066555895 0.489823250315 148.237777525
9.675 0.41404151798 -61.7221268069 0.271779057481 -150.695331985 0.612331513912 -128.899587768 0.616243331279 -31.3004036173 0.271779057481 -150.695331985 0.414489745993 -61.9150804839 0.612499283387 -128.827947149 0.615775107826 148.787671186 0.612331513912 -128.899587768 0.612499283387 -128.827947149 0.499892679604 17.0182465525 0.00115583440781 -19.3425167974 0.616243331279 -31.3004036173 0.615775107826 148.787671186 0.00115583440793 -19.3425167899 0.490982519928 145.702901782
9.7 0.412638021649 -64.5348181911 0.272064744554 -154.054450088 0.613624720429 -133.162233318 0.6157721084 -33.9952997616 0.272064744554 -154.054450088 0.413079053829 -64.7272869614 0.613784925953 -133.09048275 0.615316572327 146.093592096 0.613624720429 -133.162233318 0.613784925953 -133.09048275 0.496719716682 11.587519076 0.00115697325845 -23.3646222541 0.6157721084 -33.9952997616 0.615316572327 146.093592096 0.0011569732586 -23.3646222432 0.492147218365 143.171157977
9.725 0.411227343579 -67.3394718869 0.272365471094 -157.408480395 0.614913372305 -137.416950522 0.615297171435 -36.6854019559 0.272365471094 -157.408480395 0.411660961531 -67.531430633 0.615065972728 -137.345072758 0.614854531611 143.404315422 0.614913372305 -137.416950522 0.615065972728 -137.345072758 0.493531111876 6.16902910523 0.00115810830365 -27.3729624326 0.615297171435 -36.6854019559 0.614854531611 143.404315422 0.00115810830382 -27.3729624189 0.493317292284 140.642484937
9.75 0.4098086893 -70.1359342312 0.27267976142 -160.757644637 0.616198607739 -141.664036636 0.614818511892 -39.3707918788 0.27267976142 -160.757644637 0.410234656394 -70.327359373 0.616343563566 -141.59201435 0.614388986992 140.719759356 0.616198607739 -141.664036636 0.616343563566 -141.59201435 0.490323766156 0.762140354376 0.00115924420177 -31.3675293608 0.614818511892 -39.3707918788 0.614388986992 140.719759356 0.00115924420194 -31.3675293452 0.49449269191 138.116822417
9.775 0.408381390575 -72.924038459 0.273006115898 -164.102149203 0.617481477954 -145.903790428 0.614336119932 -42.0515498242 0.273006115898 -164.102149203 0.408799451825 -73.1149079459 0.617618751257 -145.83160622 0.613919938398 138.039843437 0.617481477954 -145.903790429 0.617618751257 -145.83160622 0.487094687738 -4.63381010821 0.00116038574634 -35.3483169763 0.614336119932 -42.0515498242 0.613919938398 138.039843437 0.00116038574649 -35.3483169599 0.495673370947 135.594111071
9.8 0.406944908278 -75.7036054455 0.273343013486 -167.442185161 0.618762946904 -150.136511952 0.613849984398 -44.7277547432 0.273343013486 -167.442185162 0.407354790251 -75.8938987407 0.618892501223 -150.064148356 0.613447384378 135.364488513 0.618762946904 -150.136511952 0.618892501223 -150.064148356 0.483840998876 -10.0195113589 0.00116153787405 -39.3153214942 0.613849984398 -44.7277547432 0.613447384378 135.364488513 0.00116153787418 -39.3153214781 0.496859286486 133.074292413
9.825 0.405498835152 -78.4744444622 0.273688914204 -170.777928313 0.620043891101 -154.362502333 0.613360092835 -47.3994842859 0.273688914204 -170.777928313 0.405900245902 -78.6641425189 0.620165691342 -154.289941831 0.612971322117 132.693616699 0.620043891101 -154.362502333 0.620165691342 -154.289941831 0.480559942594 -15.3956782055 0.00116270567323 -43.2685417898 0.613360092835 -47.3994842859 0.612971322117 132.693616699 0.00116270567333 -43.2685417751 0.498050398925 130.557308791
9.85 0.404042898452 -81.2363539512 0.274042261529 -174.109539241 0.621325099552 -158.58206358 0.612866431517 -50.0668148407 0.274042261529 -174.109539241 0.404435527484 -81.4254391803 0.621439111866 -158.509288605 0.612491747444 130.02715134 0.621325099552 -158.58206358 0.621439111866 -158.509288605 0.47724888931 -20.7630508642 0.00116389439254 -47.2079797971 0.612866431517 -50.0668148407 0.612491747444 130.02715134 0.0011638943926 -47.2079797848 0.499246671876 128.043103355
9.875 0.402576962515 -83.9891223223 0.274401484727 -177.437163378 0.622607273771 -162.795498395 0.612368985461 -52.7298215736 0.274401484727 -177.437163378 0.402960480767 -84.1775785501 0.622713465436 -162.722491342 0.612008654848 127.365016974 0.622607273771 -162.795498395 0.622713465436 -162.722491342 0.473905343374 -26.1223947301 0.00116510944961 -51.1336409231 0.612368985461 -52.7298215736 0.612008654848 127.365016974 0.00116510944964 -51.1336409139 0.500448072079 125.531620025
9.9 0.401101031254 -86.7325287793 0.274765001131 179.239068936 0.623891027879 -167.003110011 0.61186773845 -55.388578466 0.274765001131 179.239068936 0.401475091107 -86.9203411949 0.62398936716 -166.929853246 0.611522037495 124.707139299 0.623891027879 -167.003110011 0.62398936716 -166.929853246 0.470526949475 -31.4745002401 0.00116635643921 -55.0455344831 0.61186773845 -55.388578466 0.611522037495 124.707139299 0.00116635643922 -55.0455344775 0.501654569318 123.022803467
9.925 0.399615250589 -89.4663441812 0.275131218375 175.919042395 0.62517688875 -171.205202035 0.611362673052 -58.0431583511 0.275131218375 175.919042395 0.399979485897 -89.6534992721 0.625267344755 -171.131677904 0.611031887243 122.053445136 0.62517688875 -171.205202035 0.625267344755 -171.131677904 0.467111498979 -36.8201828299 0.00116764114066 -58.9436741612 0.611362673052 -58.0431583511 0.611031887243 122.053445136 0.00116764114066 -58.9436741594 0.502866136332 120.516599066
9.95 0.398119910837 -92.1903319464 0.275498536611 172.602656679 0.626465296217 -175.402078309 0.610853770634 -60.6936329497 0.275498536611 172.602656679 0.398473936973 -92.3768174218 0.626547838739 -175.328269146 0.610538194663 119.403862393 0.626465296217 -175.402078309 0.626547838739 -175.328269146 0.463656936177 -42.160282982 0.00116896952415 -62.8280785031 0.610853770634 -60.6936329497 0.610538194663 119.403862393 0.00116896952415 -62.8280785049 0.504082748726 118.012952895
9.975 0.396615449045 -94.9042490085 0.275865350696 169.289826424 0.627756603317 -179.594042784 0.610341011376 -63.3400729053 0.275865350696 169.289826424 0.396958862971 -95.0900537084 0.627831202657 -179.51993092 0.610040949062 116.75832004 0.627756603317 -179.594042784 0.627831202657 -179.51993092 0.460161364525 -47.4956663646 0.0011703477559 -66.6987714466 0.610341011376 -63.3400729053 0.610040949062 116.75832004 0.00117034775591 -66.6987714515 0.505304384885 115.511811693
10 0.395102451277 -97.6078468321 0.276230052403 165.980481207 0.629051076562 176.218600593 0.609824374287 -65.9825478174 0.276230052403 165.980481207 0.395434831634 -97.792960622 0.629117703348 176.29303282 0.609540138501 114.116748071 0.629051076562 176.218600593 0.629117703348 176.29303282 0.45662305289 -52.8272240582 0.00117178220189 -70.5557828963 0.609824374287 -65.9825478174 0.609540138501 114.116748071 0.00117178220191 -70.5557829036 0.506531025887 113.01312284
10.025 0.393581654841 -100.3008725 0.276591032647 162.674565562 0.630348896253 172.035547977 0.609303837213 -68.6211262751 0.276591032647 162.674565562 0.393902562053 -100.485286149 0.630407521237 172.110318215 0.609035749827 111.479077474 0.630348896253 172.035547977 0.630407521237 172.110318215 0.453040441907 -58.155872867 0.00117327943016 -74.3991493437 0.609303837213 -68.6211262751 0.609035749827 111.479077474 0.0011732794302 -74.3991493525 0.50776265541 110.516834333
10.05 0.392053950443 -102.983069879 0.276946683757 159.372039012 0.631650156814 167.85649571 0.60877937685 -71.2558758886 0.276946683757 159.372039012 0.392362926849 -103.166774922 0.631700750652 167.931621587 0.608527768699 108.845240203 0.631650156814 167.85649571 0.631700750652 167.931621587 0.449412150489 -63.4825557121 0.00117484621169 -78.2289145333 0.60877937685 -71.2558758886 0.608527768699 108.845240203 0.00117484621175 -78.2289145428 0.508999259643 108.022894764
10.075 0.390520384247 -105.654180883 0.277295401824 156.07287615 0.632954867153 163.681140394 0.608250968752 -73.8868633213 0.277295401824 156.07287615 0.390816954244 -105.837169464 0.632997400169 163.756639506 0.608016179613 106.215169149 0.632954867153 163.681140394 0.632997400169 163.756639506 0.445736982604 -68.8082421031 0.0011764895199 -82.0451301697 0.608250968752 -73.8868633213 0.608016179613 106.215169149 0.00117648951997 -82.0451301791 0.510240827198 105.531253299
10.1 0.388982159809 -108.313946837 0.277635589136 152.777066739 0.634262951054 159.509178947 0.607718587336 -76.5141543195 0.277635589136 152.777066739 0.389265830026 -108.496211531 0.634297392987 159.585068855 0.607500965943 103.588798108 0.634262951054 159.509178947 0.634297392987 159.585068855 0.4420139344 -74.1339286823 0.00117821652882 -85.8478566577 0.607718587336 -76.5141543195 0.607500965943 103.588798108 0.00117821652889 -85.8478566663 0.511487349015 103.041859652
10.125 0.387440639848 -110.962109959 0.277965656741 149.48461586 0.635574247601 155.340308649 0.607182205893 -79.1378137429 0.277965656741 149.48461586 0.38771089934 -111.143643575 0.635600567327 155.416606869 0.606982109971 100.966061756 0.635574247601 155.340308649 0.635600567327 155.416606869 0.438242201777 -79.4606398387 0.00118003461 -89.6371638636 0.607182205893 -79.1378137429 0.606982109971 100.966061756 0.00118003461008 -89.637163871 0.512738818269 100.554664073
10.15 0.385897347813 -113.598414969 0.278284027156 146.195544104 0.636888511632 151.174227166 0.606641796586 -81.7579055932 0.278284027156 146.195544104 0.386153668281 -113.779210333 0.636906676869 151.250951165 0.606459592924 98.3468956223 0.636888511632 151.174227166 0.636906676869 151.250951165 0.434421188514 -84.7894283837 0.00118195132832 -93.4131318817 0.606641796586 -81.7579055932 0.606459592924 98.3468956223 0.00118195132838 -93.4131318875 0.513995230279 98.0696173214
10.175 0.384353969178 -116.222610848 0.278589137256 142.9098878 0.638205414244 147.010632568 0.606097330462 -84.3744930428 0.278589137256 142.9098878 0.384595805225 -116.40266056 0.638215391231 147.087799756 0.605933395019 95.7312360574 0.638205414244 147.010632568 0.638215391231 147.087799756 0.430550515049 -90.1213762815 0.00118397443656 -97.1758517901 0.606097330462 -84.3744930428 0.605933395019 95.7312360574 0.00118397443661 -97.1758517943 0.515256582409 95.5866706498
10.2 0.382812352417 -118.834452738 0.278879441382 139.627699301 0.63952454334 142.849223323 0.605548777449 -86.9876384625 0.278879441382 139.627699301 0.383039141834 -119.013748907 0.63952629649 142.926851052 0.605403495503 93.1190202119 0.63952454334 142.849223323 0.63952629649 142.926851052 0.426630028014 -95.4575954264 0.00118611186897 -100.925426376 0.605548777449 -86.9876384625 0.605403495503 93.1190202119 0.001186111869 -100.925426379 0.516522873973 93.1057757872
10.225 0.381274509579 -121.43370402 0.279153414686 136.349047311 0.64084540424 138.689698281 0.604996106362 -89.5974034484 0.279153414686 136.349047311 0.381485673669 -121.612237974 0.640838895768 138.767803838 0.604869872703 90.5101860072 0.64084540424 138.689698281 0.640838895768 138.767803838 0.422659810608 -100.799228454 0.00118837173359 -104.661970812 0.604996106362 -89.5974034484 0.604869872703 90.5101860072 0.00118837173361 -104.661970814 0.517794106138 90.62688492
10.25 0.37974261637 -124.02013856 0.279409556768 133.074017274 0.642167420353 134.531756632 0.604439284905 -92.2038488485 0.279409556768 133.074017274 0.379937560322 -124.197900535 0.642152609874 134.610357238 0.60433250407 87.9046721107 0.642167420353 134.531756632 0.642152609874 134.610357238 0.418640193907 -106.147449571 0.00119076230351 -108.385613268 0.604439284905 -92.2038488485 0.60433250407 87.9046721107 0.00119076230351 -108.385613268 0.519070281824 88.1499506765
10.275 0.378219011668 -126.593543149 0.27964639563 129.802711806 0.643489933933 130.375097852 0.603878279671 -94.8070347891 0.27964639563 129.802711806 0.378397124977 -126.770521948 0.643466778029 130.454210659 0.603791366239 85.3024179095 0.643489933933 130.375097852 0.643466778029 130.454210659 0.414571769178 -111.503465388 0.00119329200684 -112.096495428 0.603878279671 -94.8070347891 0.603791366239 85.3024179095 0.00119329200683 -112.096495428 0.520351405603 85.6749261098
10.3 0.37670619636 -129.153720133 0.279862491992 126.53525119 0.644812206922 126.219421625 0.603313056144 -97.4070206992 0.279862491992 126.53525119 0.376866853302 -129.32990276 0.644780658676 126.299063713 0.603246435079 82.7033634852 0.644812206922 126.219421625 0.644780658676 126.299063713 0.410455401251 -116.868515733 0.00119596941548 -115.79477292 0.603313056144 -97.4070206992 0.603246435079 82.7033634852 0.00119596941546 -115.794772919 0.521637483597 83.2017646836
10.325 0.37520683139 -131.700490246 0.280056444014 123.271773932 0.646133421899 122.064427738 0.602743578702 -100.003865336 0.280056444014 123.271773932 0.375349391564 -131.875861522 0.646093430391 122.144616118 0.602697685759 80.1074495887 0.646133421899 122.064427738 0.646093430391 122.144616118 0.406292243011 -122.243874407 0.00119880323256 -119.480615612 0.602743578702 -100.003865336 0.602697685759 80.1074495887 0.00119880323253 -119.480615611 0.522928523372 80.7304202566
10.35 0.373723734904 -134.23369565 0.280226892468 120.012437367 0.64745268313 117.909815954 0.602169810617 -102.59762681 0.280226892468 120.012437367 0.373847543843 -134.408237799 0.6474041929 117.990567569 0.602145092803 77.5146176147 0.64745268313 117.909815954 0.6474041929 117.990567569 0.402083751016 -127.630849865 0.00120180227856 -123.154207781 0.602169810617 -102.59762681 0.602145092803 77.5146176147 0.00120180227853 -123.154207781 0.524224533833 78.2608470685
10.375 0.372259878368 -136.753203184 0.280372526409 116.757418333 0.648769017764 113.755285859 0.601591714054 -105.188362608 0.280372526409 116.757418333 0.372364268228 -136.926895396 0.648711968224 113.836617587 0.601588630166 74.9248095766 0.648769017764 113.755285859 0.648711968224 113.836617587 0.397831702271 -133.030785753 0.00120497547611 -126.815748139 0.601591714054 -105.188362608 0.601588630166 74.9248095766 0.0012049754761 -126.815748139 0.525525525118 75.7929997264
10.4 0.370818381519 -139.258907816 0.280492089401 113.506913908 0.650081377155 109.600536675 0.60100925008 -107.776129615 0.280492089401 113.506913908 0.370902671852 -139.431725796 0.650015701965 109.682465329 0.601028271297 72.3379680809 0.650081377155 109.600536675 0.650015701965 109.682465329 0.393538212114 -138.445061276 0.00120833183346 -130.465449686 0.60100925008 -107.776129615 0.601028271297 72.3379680809 0.00120833183346 -130.465449686 0.526831508483 73.3268331915
10.425 0.369402506023 -141.750736301 0.280584386361 110.261142208 0.651388638342 105.445267033 0.600422378655 -110.360984142 0.280584386361 110.261142208 0.369466004645 -141.922651789 0.651314264734 105.527809374 0.600463989216 69.7540363028 0.651388638342 105.445267033 0.651314264734 105.527809374 0.389205753207 -143.875091308 0.00121188042662 -134.103539399 0.600422378655 -110.360984142 0.600463989216 69.7540363028 0.00121188042663 -134.103539399 0.528142496191 70.8623027665
10.45 0.368015647681 -144.22865103 0.280648291064 107.020343253 0.652689605703 101.28917472 0.599831058642 -112.942981943 0.280648291064 107.020343253 0.368057651639 -144.399631315 0.652606453747 101.372347458 0.599895756593 67.1729579596 0.652689605703 101.28917472 0.652606453747 101.372347458 0.384837175539 -149.322326174 0.00121563038037 -137.730257724 0.599831058642 -112.942981943 0.599895756593 67.1729579596 0.00121563038039 -137.730257725 0.529458501398 68.3993640832
10.475 0.366661327046 -146.692654057 0.280682754415 103.784779897 0.653983012782 97.1319563687 0.599235247805 -115.522178241 0.280682754415 103.784779897 0.366681123696 -146.862661469 0.653890994607 97.2157761784 0.599323545829 64.5946772859 0.653983012782 97.1319563687 0.653890994607 97.2157761784 0.380435727356 -154.788251015 0.00121959084813 -141.345857873 0.599235247805 -115.522178241 0.599323545829 64.5946772859 0.00121959084816 -141.345857874 0.530779538033 65.9379730908
10.5 0.365343178299 -149.142791293 0.280686813532 100.554738827 0.655267524327 92.9733071093 0.598634902812 -118.098627752 0.280686813532 100.554738827 0.365340046492 -149.311782695 0.655166543269 93.0577906364 0.598747329143 62.0191390075 0.655267524327 92.9733071093 0.655166543269 93.0577906364 0.376005076888 -160.274384623 0.00122377099091 -144.950604894 0.598634902812 -118.098627752 0.598747329143 62.0191390075 0.00122377099095 -144.950604895 0.532105620677 63.4780860444
10.525 0.364064936226 -151.579156839 0.280659601757 97.3305316322 0.656541738528 88.8129201602 0.598029979235 -120.672384699 0.280659601757 97.3305316322 0.364038147618 -151.747083102 0.656431688217 88.898084038 0.598167078665 59.4462883151 0.656541738528 88.8129201602 0.656431688217 88.898084038 0.371549334709 -165.782277618 0.00122817995551 -148.544774517 0.598029979235 -120.672384699 0.598167078665 59.4462883151 0.00122817995554 -148.544774517 0.533436764441 61.019659494
10.55 0.362830421148 -154.001897422 0.280600359669 94.1124959396 0.657804189496 84.6504863605 0.597420431552 -123.243502843 0.280600359669 94.1124959396 0.362779241631 -154.168702914 0.657684952869 84.7363472253 0.597582766527 56.8760708378 0.657804189496 84.6504863605 0.657684952869 84.7363472253 0.367073076526 -171.313509807 0.00123282685218 -152.128651741 0.597420431552 -123.243502843 0.597582766527 56.8760708378 0.00123282685218 -152.128651741 0.534772984834 58.5626502735
10.575 0.361643521645 -156.411216925 0.280508447242 90.900996614 0.659053349985 80.4856936323 0.596806213148 -125.812035497 0.280508447242 90.900996614 0.361567212903 -156.576838998 0.658924798216 80.5722681419 0.59699436497 54.308432616 0.659053349985 80.4856936323 0.658924798216 80.5722681419 0.362581366142 -176.869686585 0.00123772073213 -155.702529159 0.596806213148 -125.812035497 0.59699436497 54.308432616 0.00123772073211 -155.702529159 0.536114297635 56.1070154908
10.6 0.360508174928 -158.807380948 0.280383357248 87.6964270271 0.660287634379 76.318226365 0.596187276311 -128.378035552 0.280383357248 87.6964270271 0.360405996123 -158.971749434 0.660149625726 76.4055312204 0.596401846448 51.7433200744 0.660287634379 76.318226365 0.660149625726 76.4055312204 0.358079778305 177.547565857 0.00124287056526 -159.266704996 0.596187276311 -128.378035552 0.596401846448 51.7433200744 0.0012428705652 -159.266704995 0.537460718756 53.6527125174
10.625 0.359428344704 -161.190721367 0.280224730067 84.4992103865 0.661505401961 72.147764711 0.595563572238 -130.941555493 0.280224730067 84.4992103865 0.359299554286 -161.353758098 0.661357780517 72.2358166806 0.595805183739 49.1806799935 0.661505401961 72.147764711 0.661357780517 72.2358166806 0.353574421081 171.936606695 0.00124828521846 -162.821480825 0.595563572238 -130.941555493 0.595805183739 49.1806799935 0.00124828521835 -162.821480824 0.538812264104 51.1996989785
10.65 0.358407996398 -163.561640848 0.280032370072 81.3098011203 0.662704960496 67.9739837818 0.594935051022 -133.502647426 0.280032370072 81.3098011203 0.35825185403 -163.723259196 0.66254755483 68.0627997292 0.595204350068 46.6204594809 0.662704960496 67.9739837818 0.66254755483 68.0627997292 0.349071957339 166.295788273 0.00125397343523 -166.367158968 0.594935051022 -133.502647426 0.595204350068 46.6204594809 0.00125397343507 -166.367158966 0.540168949439 48.7479327435
10.675 0.35745106957 -165.920617259 0.279806263766 78.12868631 0.663884570127 63.7965527294 0.594301661655 -136.061363091 0.279806263766 78.12868631 0.357266838174 -166.08072171 0.663717191819 63.8861496443 0.594599319233 44.0626059424 0.663884570127 63.7965527294 0.663717191819 63.8861496443 0.344579624855 160.623465791 0.00125994381722 -169.90403952 0.594301661655 -136.061363091 0.594599319233 44.0626059423 0.001259943817 -169.904039517 0.54153079022 46.2973719164
10.7 0.35656144741 -168.268207927 0.279546599901 74.9563871592 0.665042447634 59.615133698 0.593663352014 -138.61775389 0.279546599901 74.9563871592 0.356348395313 -168.426693689 0.664864889671 59.7055287311 0.593990065741 41.5070670511 0.665042447634 59.615133698 0.664864889671 59.7055287311 0.340105254486 154.918009159 0.00126620480853 -173.432417003 0.593663352014 -138.61775389 0.593990065741 41.507067051 0.00126620480826 -173.432417 0.542897801459 43.8479748269
10.725 0.35574292316 -170.60505369 0.27925379182 71.7934604838 0.666176771062 55.4293806275 0.593020068856 -141.171870901 0.27925379182 71.7934604838 0.355500326324 -170.76180634 0.665988806102 55.5205911297 0.593376564954 38.9537907168 0.666176771062 55.4293806275 0.665988806102 55.5205911297 0.335657285759 149.177817324 0.00127276468388 -176.952576591 0.593020068856 -141.171870901 0.593376564954 38.9537907168 0.00127276468357 -176.952576588 0.544269997554 41.3997000205
10.75 0.354999163331 -172.931882674 0.278928502305 68.6405002011 0.667285684754 51.2389378871 0.592371757799 -143.723764901 0.278928502305 68.6405002011 0.354726307659 -173.086777862 0.667087063224 51.3309814525 0.592758793242 36.4027250537 0.667285684754 51.2389378871 0.667087063224 51.3309814525 0.331244779151 143.401335362 0.00127963154189 179.535210101 0.592371757799 -143.723764901 0.592758793242 36.4027250537 0.00127963154155 179.535210104 0.545647392134 38.9525062501
10.775 0.354333667589 -175.249513767 0.278571671258 65.4981387932 0.668367304809 47.0434387137 0.591718363305 -146.273486387 0.278571671258 65.4981387932 0.354029851275 -175.40241696 0.66815775284 47.1363332283 0.592136728158 33.8538183468 0.668367304809 47.0434387137 0.66815775284 47.1363332284 0.326877424243 137.587074636 0.00128681330487 176.030689721 0.591718363305 -146.273486387 0.592136728158 33.8538183468 0.00128681330453 176.030689724 0.547029997878 36.5063524665
10.8 0.353749725164 -177.558859713 0.278184546581 62.3670487073 0.669419725013 42.8425034263 0.591059828658 -148.821085594 0.278184546581 62.3670487073 0.353414261058 -177.709626003 0.669198942164 42.9362671213 0.591510348617 31.3070190173 0.669419725013 42.8425034262 0.669198942164 42.9362671213 0.322565542842 131.733636311 0.00129431772713 172.53363239 0.591059828658 -148.821085594 0.591510348617 31.3070190173 0.00129431772681 172.533632392 0.548417826345 34.0611978092
10.825 0.35325036764 -179.860929805 0.277768718692 59.2479436521 0.670441023247 38.6357373805 0.590396095935 -151.366612515 0.277768718692 59.2479436521 0.352882585604 179.990596238 0.670208680023 38.7303888918 0.590879635101 28.7622755867 0.670441023247 38.6357373805 0.670208680023 38.7303888919 0.318320086096 125.839738477 0.00130215241378 169.043837473 0.590396095935 -151.366612515 0.590879635101 28.7622755866 0.00130215241353 169.043837474 0.549810887786 31.6170015975
10.85 0.352838317969 177.843167865 0.277326159157 56.1415797318 0.671429268423 34.4227286248 0.589727105971 -153.910116919 0.277326159157 56.1415797318 0.352437567179 177.697152279 0.671185003539 34.518287059 0.590244569875 26.2195366381 0.671429268423 34.4227286248 0.671185003539 34.518287059 0.314152624558 119.904247076 0.00131032485278 165.561139944 0.589727105971 -153.910116919 0.590244569875 26.2195366381 0.00131032485263 165.561139945 0.551209190949 29.1737233209
10.875 0.352515935535 175.55222461 0.276859264016 53.0487563519 0.672382527966 30.2030452081 0.58905279832 -156.451648377 0.276859264016 53.0487563519 0.35208158669 175.40884409 0.672125945333 30.2995302149 0.589605137234 23.678750777 0.672382527966 30.2030452081 0.672125945333 30.2995302149 0.310075330122 113.926210777 0.00131884246308 162.085417389 0.58905279832 -156.451648377 0.589605137234 23.678750777 0.00131884246308 162.085417389 0.55261274288 26.7313226297
10.9 0.352285157052 173.26492982 0.276370902463 49.9703168102 0.673298875867 25.9762320833 0.588373111204 -158.991256272 0.276370902463 49.9703168102 0.351816604434 173.124371718 0.673029541263 26.0736639367 0.588961323769 21.1398665886 0.673298875867 25.9762320833 0.673029541263 26.0736639367 0.306100948761 107.904899803 0.0013277126627 158.616597685 0.588373111204 -158.991256272 0.588961323769 21.1398665886 0.00132771266291 158.616597685 0.55402154871 24.2897593252
10.925 0.352147433037 170.97987006 0.275864471652 46.9071484694 0.674176401319 21.7418075401 0.587687981466 -161.528989825 0.275864471652 46.9071484694 0.351644096386 170.842332363 0.673893838701 21.8402072274 0.58831311867 18.6028325928 0.674176401319 21.7418075401 0.673893838701 21.8402072274 0.302242763029 101.839848638 0.00133694296082 155.154667412 0.587687981466 -161.528989825 0.58831311867 18.6028325928 0.00133694296127 155.15466741 0.555435611432 21.8489933496
10.95 0.352103659549 168.695528563 0.275343958548 43.860182384 0.675013217952 17.4992590857 0.586997344503 -164.064898114 0.275343958548 43.860182384 0.351564985674 168.561219862 0.674716905361 17.5986484066 0.587660514061 16.0675971963 0.675013217952 17.4992590857 0.674716905361 17.5986484066 0.298514543416 95.7309023453 0.00134654107887 151.699681029 0.586997344503 -164.064898114 0.587660514061 16.0675971963 0.0013465410796 151.699681026 0.556854931667 19.4089847757
10.975 0.352154104781 166.410285028 0.274814009887 40.8303922251 0.675807473643 13.24803868 0.586301134202 -166.599030088 0.274814009887 40.8303922251 0.351579568856 166.279424491 0.675496838633 13.3484403564 0.587003505376 13.5341086409 0.675807473643 13.2480386801 0.675496838633 13.3484403564 0.294930487795 89.578266072 0.00135651510655 148.251770886 0.586301134202 -166.599030088 0.587003505376 13.534108641 0.00135651510757 148.251770884 0.55827950742 16.9696937965
11 0.352298329973 164.122415599 0.274280011549 37.8187923144 0.676557360864 8.98755721067 0.585599282869 -169.131434592 0.27428001155 37.8187923144 0.351687436456 163.995232987 0.676231775403 9.08899500837 0.586342091786 11.0023149476 0.676557360864 8.98755721073 0.676231775402 9.08899500831 0.291505148451 83.3825571458 0.00136687369937 144.811158111 0.585599282869 -169.131434592 0.586342091786 11.0023149477 0.00136687370069 144.811158107 0.559709333816 14.5310807133
11.025 0.352535103979 161.830092858 0.273748178877 34.8264345353 0.677261127504 4.71717807252 0.584891721154 -171.662160383 0.273748178878 34.8264345353 0.351887387071 161.706828607 0.676919902243 4.81967693693 0.585676276679 8.47216385531 0.677261127504 4.7171780726 0.676919902242 4.81967693684 0.288253346456 77.144858953 0.00137762632581 141.378164429 0.584891721155 -171.662160383 0.585676276679 8.47216385544 0.00137762632742 141.378164426 0.561144402826 12.093105925
11.05 0.352862310571 159.531385603 0.273225659817 31.8544038415 0.677917088029 0.436209688398 0.584178377984 -174.19125615 0.273225659818 31.8544038414 0.35217733415 159.412291022 0.67755946586 0.539795895451 0.585006068204 5.94360275462 0.67791708803 0.436209688495 0.67755946586 0.539795895352 0.285190073478 70.8667756469 0.00138878357308 137.953225005 0.584178377985 -174.19125615 0.585006068205 5.94360275477 0.00138878357491 137.953225001 0.562584702975 9.65572991532
11.075 0.353276847311 157.224258111 0.272720653167 28.9038120175 0.678523634798 -3.85610322589 0.583459180501 -176.718770537 0.272720653169 28.9038120175 0.352554204263 157.10959573 0.678148783572 -3.75140190104 0.584331479895 3.41657861362 0.678523634798 -3.85610322579 0.678148783572 -3.75140190115 0.282330381355 64.5504866051 0.00140035752226 134.536902355 0.583459180502 -176.718770538 0.584331479896 3.41657861379 0.00140035752423 134.536902351 0.564030219032 7.2189132404
11.1 0.353774514408 154.906568496 0.272242544731 25.9757892734 0.67907924923 -8.16058988974 0.582734054023 -179.244752163 0.272242544733 25.9757892734 0.353013825283 154.796612635 0.678686253504 -8.0547439839 0.583652531373 0.891037896091 0.679079249231 -8.16058988963 0.678686253503 -8.05474398401 0.279689259942 58.1987995008 0.00141236220523 131.129901455 0.582734054024 -179.244752163 0.583652531374 0.891037896265 0.00141236220719 131.129901452 0.565480931677 4.78261651583
11.125 0.35434989149 152.576065677 0.271802064841 23.0714731544 0.679582512426 -12.4781654676 0.582002922061 178.230750354 0.271802064842 23.0714731544 0.353550802402 152.471103287 0.679170364059 -12.3711436175 0.582969249155 -1.63307353035 0.679582512427 -12.4781654675 0.679170364059 -12.3711436176 0.27728150356 51.8152008994 0.001424814158 127.733086145 0.582002922062 178.230750353 0.582969249156 -1.63307353019 0.00142481415976 127.733086142 0.566936817152 2.3468004028
11.15 0.354996199487 150.230384315 0.271411471562 20.1919941308 0.680032114616 -16.8098452119 0.581265706411 175.707688362 0.271411471563 20.1919941307 0.354158379188 150.130716177 0.679599702031 -16.7016139154 0.582281667576 -4.15581049764 0.680032114616 -16.8098452119 0.679599702031 -16.7016139155 0.275121565768 45.4039034386 0.00143773308739 124.347496986 0.581265706412 175.707688361 0.582281667577 -4.15581049752 0.00143773308869 124.347496984 0.568397846883 -0.088574406075
11.175 0.355705143872 147.867036912 0.27108476497 17.3384570743 0.680426862609 -21.1567611682 0.580522327414 173.186013141 0.27108476497 17.3384570742 0.354828279944 147.772979282 0.679972958462 -21.0472845139 0.58158982984 -6.67722865462 0.680426862609 -21.1567611682 0.679972958462 -21.047284514 0.273223400842 38.9698889146 0.00145114267146 120.974370782 0.580522327414 173.186013141 0.581589829841 -6.67722865457 0.00145114267198 120.974370781 0.569863987084 -2.52354720159
11.2 0.356466734206 145.48340205 0.270837939283 14.5119176354 0.680765684056 -25.5201819703 0.579772704507 170.665675846 0.270837939283 14.5119176355 0.355550528299 145.39528885 0.680288931021 -25.4094213308 0.580893789233 -9.19738460097 0.680765684056 -25.5201819703 0.680288931021 -25.4094213307 0.271600287846 32.5189469342 0.00146507151767 117.615162013 0.579772704506 170.665675847 0.580893789233 -9.19738460103 0.00146507151704 117.615162015 0.571335198323 -4.95815727322
11.225 0.357269073065 143.076707417 0.270689281438 11.7133522776 0.681047626883 -29.9015363751 0.579016757352 168.14662742 0.270689281436 11.7133522778 0.35631323516 142.994893095 0.680546521185 -29.7894500569 0.580193610504 -11.7163360411 0.681047626882 -29.9015363753 0.680546521186 -29.7894500567 0.270264629338 26.0577091302 0.00147955430792 114.271566559 0.579016757349 168.146627421 0.580193610503 -11.7163360413 0.0014795543057 114.271566563 0.572811435069 -7.39244392491
11.25 0.358098104891 140.644005877 0.270659727013 8.94362039675 0.681271851607 -34.3024413457 0.578254408118 165.628818446 0.270659727009 8.94362039721 0.357102346567 140.568869085 0.680744723872 -34.1889841873 0.579489371454 -14.2341419618 0.681271851605 -34.302441346 0.680744723873 -34.188984187 0.269227710937 19.593679138 0.00149463316576 110.94554817 0.578254408109 165.62881845 0.579489371452 -14.2341419623 0.0014946331615 110.945548177 0.574292645204 -9.82644649137
11.275 0.358937311666 138.18214228 0.27077328746 6.20341651906 0.681437613396 -38.7247356844 0.57748558627 163.112198877 0.270773287455 6.20341651988 0.357901338399 138.11409053 0.680882606254 -38.6098585928 0.578781164757 -16.750862839 0.681437613393 -38.7247356849 0.680882606257 -38.6098585923 0.268499400118 13.135258356 0.00151035928957 107.63936835 0.577485586252 163.112198885 0.578781164754 -16.7508628397 0.00151035928281 107.639368361 0.575778769495 -12.2602043547
11.3 0.359767337127 135.687707932 0.271057566549 3.49320999691 0.681544229479 -43.1705204771 0.576710239354 160.596717471 0.271057566542 3.49320999822 0.358690839701 135.627183441 0.680959271247 -43.0541698894 0.578069100052 -19.2665608785 0.681544229475 -43.1705204777 0.680959271252 -43.0541698888 0.268087752458 6.69176665911 0.00152679490618 104.355620515 0.576710239318 160.596717486 0.578069100047 -19.2665608796 0.00152679489647 104.35562053 0.577269741039 -14.6937569615
11.325 0.36056551374 133.156978547 0.271544389151 0.813168855223 0.681591025819 -47.6422079322 0.575928359984 158.082320496 0.271544389141 0.813168857153 0.35944815894 133.104465499 0.680973799414 -47.5243251855 0.57735330634 -21.7813002994 0.681591025813 -47.6422079331 0.68097379942 -47.5243251846 0.26799848183 0.273455266436 0.00154401561389 101.097269607 0.57592835991 158.082320526 0.577353306333 -21.7813003007 0.00154401560093 101.097269628 0.578765484663 -17.12714384
11.35 0.361305255642 130.585829949 0.272270572363 -1.83693659036 0.681577254547 -52.142580623 0.575140065504 155.5689483 0.272270572351 -1.8369365877 0.360146676504 130.541863468 0.680925160564 -52.0231012104 0.576633934739 -24.2951476671 0.681577254538 -52.142580624 0.680925160573 -52.0231012093 0.26823423931 -6.10849458007 0.00156211320371 97.8676987586 0.575140065335 155.568948361 0.57663393473 -24.2951476689 0.00156211318738 97.8676987863 0.580265916289 -19.5604046173
11.375 0.361955264411 127.96962354 0.273278878093 -4.45785612575 0.68150197024 -56.6748636891 0.574345903335 153.056524281 0.27327887808 -4.4578561223 0.360755050494 127.934800688 0.680812082863 -56.5537163746 0.575911161643 -26.8081722892 0.681501970229 -56.6748636904 0.680812082873 -56.5537163733 0.268793637401 -12.4419990441 0.00158119907332 94.6707651566 0.574345902858 153.056524431 0.575911161631 -26.8081722913 0.00158119905385 94.6707651911 0.581770942246 -21.9935790371
11.4 0.36247846981 125.303050201 0.274619198327 -7.05101574972 0.681363848242 -61.2428132783 0.573548748821 150.54491194 0.274619198313 -7.05101574556 0.361236158194 125.278043393 0.680632862273 -61.1199190304 0.575185192344 -29.3204466846 0.681363848229 -61.2428132798 0.680632862286 -61.1199190289 0.26966995798 -18.7141449288 0.00160140838475 91.5108680204 0.573548746424 150.544912456 0.57518519233 -29.320446687 0.00160140836294 91.5108680608 0.583280458545 -24.4267069769
11.425 0.362830589625 122.579916299 0.276350040517 -9.61871788612 0.681160921183 -65.8508254513 0.572794618337 148.03618056 0.276350040503 -9.61871788152 0.361545657695 122.565489537 0.680385088037 -65.7260961455 0.574456265188 -31.8320471451 0.681160921169 -65.8508254529 0.680385088052 -65.7260961439 0.270849504346 -24.9113379481 0.00162290516568 88.3930326658 0.572794496136 148.036179643 0.574456265173 -31.8320471476 0.00162290514314 88.3930327094 0.5847943501 -26.859828465
11.45 0.362958133064 119.792847866 0.278540402092 -12.1643998296 0.680890199626 -70.5040710343 0.571890945769 145.527184566 0.278540402081 -12.1643998252 0.361629994649 119.789876181 0.680065249512 -70.3774078518 0.573724656337 -34.3430544081 0.680890199612 -70.5040710357 0.680065249526 -70.3774078503 0.272309613916 -31.019564839 0.00164588862228 85.3230160735 0.571890948893 145.52718555 0.573724656323 -34.3430544104 0.00164588860184 85.3230161147 0.586312489901 -29.2929836971
11.475 0.362795576566 116.932877085 0.281272151885 -14.6929698812 0.680547127805 -75.2086635662 0.571072427767 143.017430206 0.281272151878 -14.692969878 0.361423583646 116.942369464 0.679668174515 -75.0799549904 0.572990685213 -36.8535544663 0.680547127794 -75.2086635671 0.679668174525 -75.0799549895 0.274016453951 -37.0248140408 0.00167060102603 82.3074414314 0.571072427879 143.017430345 0.572990685203 -36.8535544678 0.00167060101227 82.3074414602 0.587834738131 -31.7262130525
11.5 0.362261283707 113.988856343 0.284643074231 -17.2112482774 0.680124803261 -79.9718697191 0.570241470438 140.509153759 0.284643074231 -17.2112482774 0.360844736717 114.011981976 0.679186226954 -79.8409889879 0.572254720725 -39.3636395463 0.680124803261 -79.9718697191 0.679186226954 -79.8409889879 0.27592288805 -42.9136957234 0.00169733766925 79.3539720225 0.570241470438 140.509153759 0.572254720725 -39.3636395463 0.00169733766925 79.3539720223 0.589360941228 -34.1595571091
