! Generated from PyAEDT SolutionData; AEDT ExportNetworkData workaround
# GHz S MA R 50
9 0.605276783469 25.1237825653 0.275269921134 -65.7788177543 0.53034257868 -2.54519159926 0.525930827345 38.6782358411 0.275269921134 -65.7788177543 0.606602163226 25.1235644095 0.530144808975 -2.56404889465 0.524601532218 -141.265223767 0.53034257868 -2.54519159926 0.530144808975 -2.56404889465 0.661575979083 174.351326415 0.000674281844512 2.79801433661 0.525930827345 38.6782358411 0.524601532218 -141.265223767 0.000674281844514 2.79801433641 0.669469597956 -151.986247531
9.025 0.603496486831 22.051099746 0.275172882823 -69.2985735849 0.532598450839 -7.06737434948 0.525747163764 35.909842653 0.275172882823 -69.2985735849 0.604814739685 22.0543717773 0.532403778214 -7.08537057408 0.524427940844 -144.033354968 0.532598450839 -7.06737434946 0.532403778214 -7.0853705741 0.657933035364 168.511682281 0.000674745772704 -2.38728006221 0.525747163764 35.9098426529 0.524427940844 -144.033354968 0.000674745772667 -2.38728007271 0.669749791013 -154.427775502
9.05 0.601744455909 18.9882826331 0.27509193434 -72.8042159282 0.534802288283 -11.5761939364 0.525560145471 33.148938636 0.27509193434 -72.8042159282 0.60305495016 18.994903665 0.53461129541 -11.5933522111 0.524250909527 -146.794065928 0.534802288283 -11.5761939363 0.53461129541 -11.5933522112 0.654341528976 162.687962111 0.000674999342247 -7.55388311522 0.525560145471 33.148938636 0.524250909527 -146.794065928 0.00067499934218 -7.55388313192 0.670035100685 -156.864070517
9.075 0.600019200756 15.9350175084 0.275028252895 -76.296060707 0.536955843251 -16.0716718878 0.525369945015 30.3953925394 0.275028252895 -76.296060707 0.601321323334 15.9448399753 0.536769108502 -16.0880178339 0.524070602197 -149.547487739 0.536955843251 -16.0716718878 0.536769108502 -16.0880178339 0.650799828411 156.880769688 0.000675048254558 -12.7003883284 0.525369945014 30.3953925393 0.524070602198 -149.547487739 0.000675048254472 -12.7003883481 0.67032524964 -159.295231819
9.1 0.598319108356 12.8910057069 0.274982902159 -79.7744490225 0.539061006776 -20.5538551843 0.525176730671 27.6490757998 0.27498290216 -79.7744490225 0.599612266273 12.9038760099 0.538879102781 -20.5694168511 0.523887176105 -152.29374867 0.539061006776 -20.5538551843 0.538879102781 -20.5694168512 0.647306051101 151.090615617 0.00067489900706 -17.8255556709 0.525176730671 27.6490757997 0.523887176106 -152.29374867 0.000674899006963 -17.8255556911 0.670619970201 -161.721356636
9.125 0.596642460534 9.85596403007 0.274956832989 -83.2397436359 0.541119787242 -25.0228142045 0.524980666327 24.9098624831 0.274956832989 -83.239743636 0.597926082296 9.87172288894 0.540943279506 -25.0376219953 0.523700782176 -155.03297424 0.541119787242 -25.0228142045 0.540943279505 -25.0376219953 0.643858086259 145.31792422 0.00067455876168 -22.9282980344 0.524980666326 24.909862483 0.523700782176 -155.03297424 0.000674558761581 -22.9282980533 0.670919004069 -164.142540249
9.15 0.594987450699 6.82962506107 0.274950884702 -86.6923256666 0.543134290159 -29.4786408088 0.524781911401 22.177629224 0.274950884702 -86.6923256667 0.596260987659 6.84810787144 0.542963735729 -29.4927274035 0.523511565338 -157.765287297 0.543134290159 -29.4786408088 0.542963735729 -29.4927274035 0.640453616564 139.563040057 0.000674035227121 -28.0076668215 0.524781911401 22.1776292239 0.523511565339 -157.765287297 0.000674035227026 -28.007666838 0.671222102053 -166.558876048
9.175 0.59335219944 3.81173738934 0.274965786813 -90.1325915088 0.545106699197 -33.9214465601 0.524580620798 19.452255164 0.274965786813 -90.1325915088 0.594615127094 3.83277458772 0.544942645387 -33.9348468354 0.523319664831 -160.490808085 0.545106699197 -33.92144656 0.544942645387 -33.9348468354 0.637090138634 133.826234032 0.000673336556813 -33.0628370825 0.524580620798 19.452255164 0.523319664831 -160.490808085 0.000673336556727 -33.0628370959 0.671529023807 -168.970455597
9.2 0.591734769059 0.802065755907 0.275002161144 -93.5609499652 0.547039258514 -38.3513610778 0.524376944887 16.7336218888 0.275002161144 -93.5609499652 0.592986588281 0.825483191018 0.54688224168 -38.3641120252 0.52312521448 -163.209654325 0.547039258514 -38.3513610777 0.54688224168 -38.3641120252 0.633764982301 128.107709034 0.000672471263653 -38.0930925885 0.524376944887 16.7336218888 0.52312521448 -163.209654325 0.00067247126358 -38.0930925984 0.671839537564 -171.377368692
9.225 0.590133177086 -2.19960887374 0.275060524233 -96.977819596 0.548934256379 -42.768530522 0.52417102951 14.0216133644 0.275060524233 -96.977819596 0.591373415286 -2.17398956235 0.548784800759 -42.7806711624 0.522928342957 -165.921941278 0.548934256379 -42.768530522 0.548784800759 -42.7806711624 0.63047532871 122.407605119 0.000671448151838 -43.0978111899 0.52417102951 14.0216133644 0.522928342957 -165.921941278 0.000671448151781 -43.0978111964 0.672153419883 -173.779703419
9.25 0.588545408826 -5.19348930086 0.275141289972 -100.383626277 0.550794010098 -47.1731162014 0.523963016003 11.3161158737 0.275141289972 -100.383626277 0.589773621045 -5.16585029699 0.550652626701 -47.1846874971 0.522729174024 -168.627781823 0.550794010098 -47.1731162013 0.550652626701 -47.1846874971 0.62721822731 116.726004193 0.000670276265474 -48.0764507667 0.523963016003 11.3161158737 0.522729174024 -168.627781823 0.000670276265434 -48.07645077 0.672470455392 -176.177546211
9.275 0.586969429014 -8.17976214169 0.27524477242 -103.778800959 0.552620852189 -51.5652932988 0.523753041239 8.61701795274 0.27524477242 -103.778800959 0.58818519893 -8.15028905935 0.552488037744 -51.5763380636 0.522527826752 -171.327286522 0.552620852189 -51.5652932988 0.552488037744 -51.5763380636 0.623990611799 111.062934248 0.000668964853067 -53.0285360292 0.523753041239 8.61701795274 0.522527826752 -171.327286522 0.000668964853044 -53.0285360296 0.672790436546 -178.57098191
9.3 0.585403192608 -11.1585979258 0.275371188729 -107.163777628 0.554417117786 -55.9452497086 0.523541237682 5.9242103271 0.275371188729 -107.163777628 0.586606133469 -11.1274794087 0.554293353748 -55.9558125136 0.522324415736 -174.020563683 0.554417117786 -55.9452497086 0.554293353748 -55.9558125136 0.620789315113 105.418373127 0.000667523346629 -57.9536463827 0.523541237682 5.9242103271 0.522324415736 -174.020563683 0.000667523346621 -57.9536463807 0.673113163383 179.039906185
9.325 0.583844654784 -14.1301512384 0.275520662151 -110.53899144 0.556185133212 -60.3131849763 0.523327733458 3.23758584967 0.275520662151 -110.53899144 0.585034410254 -14.0975785522 0.556070884825 -60.3233120544 0.522119051289 -176.707719433 0.556185133212 -60.3131849763 0.556070884825 -60.3233120544 0.617611083532 99.7922518734 0.000665961353768 -62.8514050242 0.523327733458 3.23758584968 0.522119051289 -176.707719433 0.000665961353775 -62.8514050203 0.673438443286 176.655036259
9.35 0.582291780186 -17.0945609007 0.275693225079 -113.904877049 0.557927205662 -64.6693093353 0.523112652426 0.557039438647 0.275693225079 -113.904877049 0.583468025108 -17.0607275177 0.557822921076 -64.6790484815 0.521911839628 -179.388857775 0.557927205662 -64.6693093353 0.557822921076 -64.6790484815 0.614452589988 94.1844576802 0.000664288660986 -67.7214693942 0.523112652426 0.557039438656 0.521911839628 -179.388857775 0.000664288661004 -67.721469389 0.673766090747 174.27432793
9.375 0.580742551466 -20.0519501821 0.275888822092 -117.261867083 0.559645613933 -69.0138428304 0.522896114262 -2.11753198319 0.275888822093 -117.261867083 0.581904992537 -20.01705136 0.559551723382 -69.0232433002 0.521702883053 177.935919345 0.559645613933 -69.0138428304 0.559551723382 -69.0232433002 0.611310446649 88.5948364715 0.000662515246246 -72.5635230699 0.522896114262 -2.11753198318 0.521702883053 177.935919345 0.000662515246274 -72.5635230638 0.674095927147 171.897702197
9.4 0.579194977181 -23.0024270405 0.276107312984 -120.610390795 0.561342600135 -73.3470145219 0.522678234547 -4.78622954796 0.276107312985 -120.610390795 0.580343353532 -22.966659393 0.561259515168 -73.3561269268 0.521492280111 175.266511983 0.561342600135 -73.3470145219 0.561259515168 -73.3561269268 0.608181216835 83.0231951619 0.000660651298899 -77.3772691448 0.522678234547 -4.78622954795 0.521492280111 175.266511983 0.000660651298933 -77.3772691384 0.674427780525 169.525081387
9.425 0.577647099064 -25.9460843846 0.276348475747 -123.950872845 0.563020362308 -77.6690617622 0.522459124859 -7.4491525008 0.276348475747 -123.950872845 0.578781182758 -25.9096454464 0.562948475076 -77.6779379617 0.521280125761 172.602822135 0.563020362308 -77.6690617623 0.562948475076 -77.6779379617 0.605061426335 77.4693036228 0.000658707245056 -82.1624251136 0.522459124859 -7.44915250079 0.521280125761 172.602822135 0.000658707245094 -82.1624251072 0.674761485362 167.156389111
9.45 0.576096998741 -28.8830003535 0.276612009494 -127.283732229 0.564681047875 -81.9802295365 0.522238892865 -10.1063982566 0.276612009495 -127.283732229 0.577216595175 -28.8460881393 0.564620730479 -81.9889225283 0.521066511526 169.944753682 0.564681047875 -81.9802295366 0.564620730479 -81.9889225283 0.601947574166 71.9328963933 0.000656693776628 -86.9187192472 0.522238892866 -10.1063982566 0.521066511526 169.944753682 0.000656693776667 -86.9187192413 0.67509688237 164.791550211
9.475 0.574542803913 -31.8132386106 0.276897537322 -130.609381325 0.56632674787 -86.2807698616 0.522017642418 -12.7580624549 0.276897537322 -130.609381325 0.57564775213 -31.7760511687 0.56627835176 -86.2893336686 0.520851525644 167.292212335 0.56632674787 -86.2807698616 0.56627835176 -86.2893336686 0.598836142804 66.4136741718 0.00065462188237 -91.6458884232 0.522017642418 -12.7580624549 0.520851525644 167.292212335 0.000654621882407 -91.645888418 0.675433818277 162.430490716
9.5 0.572982694057 -34.7368486473 0.277204609076 -133.928225065 0.567959491852 -90.5709412351 0.521795473649 -15.4042390137 0.277204609076 -133.928225065 0.574072866964 -34.6995836073 0.567923347286 -90.5794307905 0.520635253209 164.645105578 0.567959491852 -90.5709412352 0.567923347286 -90.5794307905 0.595723607936 60.9113051188 0.000652502879445 -96.3436773548 0.521795473649 -15.4042390137 0.520635253209 164.645105578 0.000652502879479 -96.3436773503 0.675772145627 160.073137796
9.525 0.571414905683 -37.6538660923 0.277532704035 -137.240660208 0.569581243464 -94.8510081298 0.521572483064 -18.0450201809 0.277532704035 -137.240660208 0.572490210181 -37.6167202091 0.569557659019 -94.8594791593 0.520417776317 162.003342622 0.569581243464 -94.8510081298 0.569557659019 -94.8594791593 0.592606447734 55.4254260012 0.000650348444231 -101.011839146 0.521572483064 -18.0450201809 0.520417776317 162.003342622 0.000650348444259 -101.011839143 0.676111722574 157.719419717
9.55 0.569837737177 -40.5643130238 0.277881233505 -140.547074708 0.571193896552 -99.1212405256 0.52134876364 -20.6804965843 0.277881233505 -140.547074708 0.570898114198 -40.5274817178 0.571183158695 -99.1297494281 0.5201991742 159.36683435 0.571193896552 -99.1212405256 0.571183158695 -99.1297494281 0.58948115169 49.9556432047 0.00064817064125 -105.650137091 0.52134876364 -20.6804965843 0.5201991742 159.36683435 0.000648170641272 -105.650137089 0.676452412689 155.3692658
9.575 0.568249553282 -43.4681982816 0.27824954331 -143.847847178 0.572799271795 -103.381913476 0.521124404913 -23.31075728 0.27824954331 -143.847847178 0.56929497774 -43.4318751757 0.572801644506 -103.390517202 0.51997952336 156.735493266 0.572799271795 -103.381913476 0.572801644506 -103.390517202 0.586344228999 44.5015336363 0.000645981949357 -110.25834762 0.521124404913 -23.31075728 0.51997952336 156.735493266 0.000645981949372 -110.258347618 0.676794084765 153.022606374
9.6 0.566648789243 -46.3655177768 0.278636916183 -147.143346432 0.57439911379 -107.633306702 0.520899493074 -25.935889799 0.278636916183 -147.143346432 0.567679269894 -46.3298942305 0.574414838245 -107.642062629 0.519758897702 154.109233454 0.57439911379 -107.633306702 0.574414838245 -107.642062629 0.583192216534 39.0626455365 0.000643795284472 -114.836264292 0.520899493074 -25.935889799 0.519758897702 154.109233454 0.000643795284479 -114.836264292 0.677136612626 150.679372742
9.625 0.565033954663 -49.2562547948 0.279042574063 -150.433931096 0.575995088533 -111.875704213 0.520674111057 -28.5559801917 0.279042574063 -150.433931096 0.566049533878 -49.2215194378 0.576024382836 -111.884670023 0.519537368661 151.487970524 0.575995088533 -111.875704213 0.576024382836 -111.884670023 0.58002168639 33.638499217 0.000641624018334 -119.383702742 0.520674111057 -28.5559801917 0.519537368661 151.487970524 0.000641624018334 -119.383702742 0.677479874947 148.339497139
9.65 0.563403637087 -52.1403802928 0.27946568029 -153.719949294 0.577588781249 -116.109393943 0.520448338625 -31.1711130711 0.27946568029 -153.719949294 0.564404390548 -52.1067185571 0.577631840228 -116.118627494 0.519315005328 148.871621568 0.577588781249 -116.109393943 0.577631840228 -116.118627494 0.576829253037 28.2285877351 0.000639481992938 -123.900506451 0.520448338625 -31.1711130711 0.519315005328 148.871621568 0.000639481992932 -123.900506451 0.677823755066 146.002912689
9.675 0.561756505384 -55.017853187 0.279905341699 -157.001738381 0.579181694536 -120.334667413 0.520222252463 -33.7813716539 0.279905341699 -157.001738381 0.562742541689 -54.9854468396 0.579238689584 -120.344226614 0.519091874576 146.260105119 0.579181694536 -120.334667413 0.579238689584 -120.344226614 0.573611580066 22.8323775156 0.000637383530421 -128.386553259 0.520222252463 -33.7813716539 0.519091874576 146.260105119 0.00063738353041 -128.38655326 0.678168140808 143.669553376
9.7 0.560091312921 -57.8886206298 0.280360610623 -160.279624738 0.580775246765 -124.551819399 0.519995926256 -36.3868378006 0.280360610623 -160.279624738 0.561062773118 -57.8576473069 0.580846325748 -124.561762079 0.518868041178 143.653341102 0.580775246765 -124.551819399 0.580846325748 -124.561762079 0.570365386573 17.4493089225 0.000635343438306 -132.841762498 0.519995926256 -36.3868378006 0.518868041178 143.653341102 0.00063534343829 -132.8417625 0.678512924309 141.339354
9.725 0.558406900601 -60.7526182764 0.280830486789 -163.553923609 0.582370770713 -128.761147621 0.51976943078 -38.987592053 0.280830486789 -163.553923609 0.559363957644 -60.7232510189 0.582456057922 -128.771531404 0.518643567929 141.051250794 0.582370770713 -128.761147621 0.582456057922 -128.771531404 0.567087453175 12.0787967872 0.000633377010081 -137.26610264 0.51976943078 -38.987592053 0.518643567929 141.051250794 0.000633377010062 -137.266102642 0.678858001844 139.012250148
9.75 0.556702199772 -63.6097705387 0.281313919135 -166.82493898 0.583969512394 -132.96295244 0.519542833983 -41.5837136711 0.281313919135 -166.82493898 0.557645057903 -63.5821773321 0.584069108557 -132.973834612 0.51841851576 138.453756783 0.583969512394 -132.96295244 0.584069108557 -132.973834612 0.563774627697 6.72023089032 0.000631500021165 -141.659599352 0.519542833983 -41.5837136711 0.51841851576 138.453756783 0.000631500021144 -141.659599353 0.67920327366 136.688178154
9.775 0.554976235061 -66.4599908282 0.281809807522 -170.092963489 0.585572630046 -137.157536563 0.519316201069 -44.175280668 0.281809807522 -170.092963489 0.555905129126 -66.4343341456 0.5856866124 -137.168973947 0.518192943851 135.860782923 0.585572630046 -137.157536563 0.5856866124 -137.168973947 0.560423830547 1.37297639665 0.000629728720347 -146.02234385 0.519316201069 -44.175280668 0.518192943851 135.860782923 0.000629728720326 -146.022343851 0.679548643804 134.36707507
9.8 0.553228127147 -69.3031817865 0.282317004364 -173.358278375 0.587181193266 -141.34520476 0.51908959458 -46.7623698433 0.282317004364 -173.358278375 0.554143321848 -69.279618138 0.587309615674 -141.357253585 0.517966909744 133.272254296 0.587181193266 -141.34520476 0.587309615674 -141.357253585 0.557032059827 -3.96362576044 0.000628079816782 -150.354501447 0.51908959458 -46.7623698433 0.517966909744 133.272254296 0.000628079816762 -150.354501448 0.679894019964 132.048878635
9.825 0.551457095525 -72.1392355057 0.282834316162 -176.621153442 0.588796182257 -145.526263592 0.518863074484 -49.3450568156 0.282834316161 -176.621153442 0.552358884606 -72.1179149935 0.588939075387 -145.538979366 0.517740469447 130.688097173 0.588796182257 -145.526263592 0.588939075387 -145.538979366 0.553596396202 -9.29025855139 0.00062657046264 -154.656320162 0.518863074484 -49.3450568156 0.517740469447 130.688097173 0.000626570462623 -154.656320163 0.680239313306 129.733527237
9.85 0.549662461274 -74.9680337386 0.283360504955 -179.881847051 0.590418487165 -149.701021141 0.518636698256 -51.9234160534 0.283360504955 -179.881847051 0.550551166657 -74.9490996202 0.590575858725 -149.714458522 0.517513677537 128.108238972 0.590418487165 -149.701021141 0.590575858725 -149.714458522 0.550114007582 -14.6076285859 0.000625218231479 -158.928139289 0.518636698256 -51.9234160534 0.517513677537 128.108238972 0.000625218231465 -158.92813929 0.680584438317 127.420959891
9.875 0.547843649862 -77.7894481014 0.283894289691 176.859393874 0.592048907502 -153.869786751 0.518410520968 -54.4975209048 0.283894289691 176.859393874 0.548719620728 -77.7730363615 0.592220742527 -153.883999423 0.517286587264 125.532608221 0.592048907502 -153.869786751 0.592220742527 -153.883999423 0.546582153663 -19.9164659194 0.00062404109236 -163.170397784 0.518410520968 -54.4975209048 0.517286587264 125.532608221 0.00062404109235 -163.170397785 0.680929312646 125.111116202
9.9 0.54600019403 -80.6033402706 0.284434347501 173.602333825 0.593688151623 -158.032870783 0.518184595372 -57.0674436262 0.284434347501 173.602333825 0.546863805852 -80.5895792027 0.593874412818 -158.047911328 0.517059250643 122.961134519 0.593688151623 -158.032870783 0.593874412818 -158.047911328 0.542998190381 -25.2175239382 0.00062305737973 -167.383642339 0.518184595372 -57.0674436262 0.517059250643 122.961134519 0.000623057379725 -167.383642339 0.681273856953 122.803936342
9.925 0.544131736757 -83.4095621767 0.284979314903 170.346748681 0.595336836255 -162.190584368 0.517958971997 -59.6332554101 0.284979314903 170.346748681 0.54498339029 -83.3985719759 0.595537464399 -162.206504144 0.516831718544 120.393748499 0.595336836255 -162.190584368 0.595537464399 -162.206504144 0.539359574339 -30.5115793345 0.000622285759024 -171.568534986 0.517958971997 -59.6332554101 0.516831718544 120.393748499 0.000622285759024 -171.568534986 0.681617994754 120.499361019
9.95 0.542238034348 -86.2079561981 0.285527788923 167.092425677 0.596995486062 -166.343239177 0.517733699236 -62.195026412 0.285527788923 167.092425677 0.543078154583 -86.1998485664 0.597210400463 -166.360088198 0.516604040783 117.830381789 0.596995486062 -166.343239177 0.597210400463 -166.360088198 0.535663867263 -35.7994321776 0.000621745187952 -175.725860083 0.517733699236 -62.195026412 0.516604040783 117.830381789 0.000621745187956 -175.725860083 0.681961652276 118.197331452
9.975 0.540318959658 -88.9983553595 0.286078328136 163.839163367 0.598664533239 -170.491147199 0.517508823447 -64.7528257761 0.286078328136 163.839163367 0.541147994739 -88.9932331243 0.598893632249 -170.508974012 0.516376266202 115.270966979 0.598664533239 -170.491147199 0.598893632249 -170.508974012 0.531908740571 -41.081906093 0.000621454873397 -179.856530504 0.517508823447 -64.7528257761 0.516376266202 115.270966979 0.000621454873407 -179.856530504 0.682304758303 115.897789344
10 0.538374505465 -91.7805835373 0.286629453631 160.586771592 0.600344317125 -174.634620528 0.517284389049 -67.3067216607 0.286629453631 160.586771592 0.53919292558 -91.7785402851 0.600587478711 -174.653472098 0.516148442745 112.715437579 0.600344317125 -174.634620528 0.600587478711 -174.653472098 0.528091980102 -46.3598485586 0.000621434223912 176.038407148 0.517284389049 -67.3067216607 0.516148442745 112.715437579 0.000621434223925 176.038407148 0.682647244035 113.600676854
10.025 0.536404788029 -94.5544556801 0.287179649913 157.335071448 0.60203508383 -178.773971161 0.517060438629 -69.8567812631 0.287179649913 157.335071448 0.537213084274 -94.5555754049 0.602292166207 -178.793892754 0.51592061753 110.163727988 0.60203508383 -178.773971161 0.602292166207 -178.793892754 0.524211491104 -51.6341313253 0.000621702797785 171.957768489 0.517060438629 -69.8567812631 0.51592061753 110.163727988 0.000621702797801 171.95776849 0.682989042942 111.305936576
10.05 0.534410050814 -97.3197780457 0.287727365726 154.083895272 0.603736985874 177.090489196 0.516837013045 -72.4030708436 0.287727365726 154.083895272 0.535208734041 -97.3241348158 0.60400782819 177.069454121 0.515692836915 107.615773455 0.603736985874 177.090489196 0.60400782819 177.069454121 0.520265303539 -56.9056509742 0.000622280246776 167.900228655 0.516837013045 -72.4030708436 0.515692836915 107.615773455 0.000622280246794 167.900228656 0.683330090623 109.013511515
10.075 0.532390668418 -100.076348464 0.288271014818 150.833086632 0.605450081827 172.9584493 0.516614151544 -74.945655749 0.288271014818 150.833086632 0.533180268062 -100.084006106 0.605734504916 172.936259207 0.515465146558 105.071510048 0.605450081827 172.9584493 0.605734504916 172.936259207 0.516251577792 -62.175329616 0.000623186255673 163.864321136 0.516614151544 -74.945655749 0.515465146558 105.071510048 0.000623186255694 163.864321137 0.683670324663 106.723345058
10.1 0.530347150688 -102.823956632 0.288808976647 147.582500335 0.607174335959 168.829598547 0.516391891873 -77.4846004364 0.288808976647 147.582500335 0.531128213589 -102.834968435 0.607472143143 168.806213922 0.515237591473 102.530874613 0.607174335959 168.829598547 0.607472143143 168.806213922 0.512168610874 -67.4441157432 0.000624440477984 159.848438334 0.516391891873 -77.4846004364 0.515237591473 102.530874613 0.000624440478005 159.848438334 0.684009684495 104.435380959
10.125 0.528280147042 -105.562384444 0.289339597034 144.332002459 0.608909617882 164.703627121 0.516170270403 -80.0199684966 0.289339597034 144.332002459 0.529053236256 -105.576792882 0.609220595846 164.679010578 0.515010216076 99.9938047468 0.608909617882 164.703627121 0.609220595846 164.679010578 0.508014843187 -72.7129852405 0.000626062468201 155.850833987 0.516170270403 -80.0199684966 0.515010216076 99.9938047468 0.000626062468222 155.850833987 0.684348111264 102.149563312
10.15 0.526190450973 -108.291406372 0.289861188773 141.081470399 0.610655702205 160.580226137 0.515949322257 -82.5518226768 0.289861188773 141.081470399 0.526956144586 -108.309242852 0.610979621924 160.55434252 0.514783064229 97.4602387585 0.610655702205 160.580226137 0.610979621924 160.55434252 0.503788865954 -77.9829425636 0.000628071611276 151.869627607 0.515949322257 -82.5518226768 0.514783064229 97.4602387585 0.000628071611296 151.869627607 0.684685547688 99.8658365288
10.175 0.524079004752 -111.010789899 0.290372032202 137.830792947 0.612412268176 156.459087775 0.51572908144 -85.0802249041 0.290372032202 137.830792947 0.524837894687 -111.032074528 0.612748885911 156.431904246 0.514556179277 94.930115638 0.612412268176 156.459087775 0.612748885911 156.431904246 0.499489429394 -83.2550220899 0.000630487050117 147.902811005 0.51572908144 -85.0802249041 0.514556179277 94.930115638 0.000630487050136 147.902811005 0.685021937925 97.5841453217
10.2 0.521946904298 -113.720296018 0.290870375753 134.5798704 0.614178899341 152.339905391 0.515509580976 -87.6052363086 0.290870375753 134.5798704 0.522699595132 -113.745037392 0.614527957693 152.311391528 0.514329604079 92.4033750229 0.614178899341 152.339905391 0.614527957693 152.311391528 0.495115451734 -88.5302896493 0.000633327612096 143.94825697 0.515509580976 -87.6052363086 0.514329604079 92.4033750229 0.000633327612113 143.948256971 0.68535722744 95.3044346801
10.225 0.519795404201 -116.419679799 0.291354436484 131.328614698 0.6159550832 148.222373624 0.515290853047 -90.1269172473 0.291354436484 131.328614698 0.520542511991 -116.447874825 0.616316312227 148.192501505 0.514103381029 89.8799571666 0.6159550832 148.222373624 0.616316312227 148.192501505 0.490666029161 -93.8098442395 0.000636611735758 140.003730083 0.515290853047 -90.1269172473 0.514103381029 89.8799571666 0.000636611735773 140.003730083 0.685691362869 93.0266498518
10.25 0.517625922888 -119.10869105 0.291822400611 128.076949608 0.617740210864 144.106188486 0.515072929144 -92.6453273274 0.291822400611 128.076949608 0.518368074004 -119.140324783 0.618113329269 144.074932775 0.513877552083 87.3598029061 0.617740210864 144.106188486 0.618113329269 144.074932775 0.486140446788 -99.0948199296 0.000640357399068 136.066899587 0.515072929144 -92.6453273274 0.513877552083 87.3598029061 0.00064035739908 136.066899587 0.686024291895 90.750736323
10.275 0.515440047884 -121.787075067 0.292272424057 124.824810943 0.61953357674 139.99104744 0.514855840219 -95.1605254309 0.292272424057 124.824810943 0.516177877859 -121.822120577 0.619918293116 139.958385462 0.513652158764 84.8428536318 0.61953357674 139.99104744 0.619918293116 139.958385462 0.48153819076 -104.386387956 0.00064458205065 132.135354195 0.514855840219 -95.1605254309 0.513652158764 84.8428536318 0.000644582050659 132.135354195 0.686355963112 88.4766397997
10.3 0.513239541149 -124.454573485 0.292702633029 121.572146828 0.621334378214 135.876649467 0.514639616835 -97.6725697394 0.292702633029 121.572146828 0.513973693543 -124.49299176 0.621730392358 135.842561284 0.513427242177 82.3290512562 0.621334378214 135.876649467 0.621730392358 135.842561284 0.476858961575 -109.685759011 0.00064930254558 128.206618613 0.514639616835 -97.6725697394 0.513427242177 82.3290512562 0.000649302545587 128.206618613 0.686686325897 86.2043061895
10.325 0.511026344444 -127.110925266 0.293111124649 118.318918023 0.623141715365 131.762695117 0.514424289332 -100.181517759 0.293111124649 118.318918023 0.511757469723 -127.152665125 0.623548719658 131.727163598 0.51320284301 79.8183381848 0.623141715365 131.762695117 0.623548719658 131.727163598 0.472102688746 -114.99418573 0.000654535087294 124.278171508 0.514424289332 -100.181517759 0.51320284301 79.8183381848 0.000654535087298 124.278171508 0.687015330287 83.9336815826
10.35 0.508802584672 -129.755867796 0.293495967651 115.065098294 0.624954590707 127.648886551 0.51420988799 -102.687426348 0.293495967651 115.065098294 0.509531339112 -129.800865847 0.625372271558 127.611897437 0.512979001533 77.3106572867 0.624954590707 127.648886551 0.625372271558 127.611897437 0.467269546891 -120.312965365 0.000660295177155 120.347464605 0.51420988799 -102.687426348 0.512979001533 77.3106572867 0.000660295177157 120.347464606 0.687342926845 81.664712235
10.375 0.506570579153 -132.389138146 0.293855203174 111.810674851 0.626771908967 123.534927569 0.513996443198 -105.190351741 0.293855203174 111.810674851 0.507297623755 -132.437318765 0.627199948323 123.496469533 0.512755757594 74.8059518664 0.626771908967 123.534927569 0.627199948323 123.496469533 0.462359973375 -125.643442649 0.000666597573123 116.411942512 0.513996443198 -105.190351741 0.512755757594 74.8059518664 0.000666597573124 116.411942512 0.687669066542 79.3973445512
10.4 0.50433284075 -135.010474482 0.294186845675 108.555648845 0.628592476902 119.42052363 0.513783985625 -107.690349579 0.294186845675 108.555648845 0.505058840183 -135.061749822 0.629030553825 119.38058833 0.512533150611 72.3041656364 0.628592476902 119.42052363 0.629030553825 119.38058833 0.45737468761 -130.987012845 0.000673456258814 112.469062868 0.513783985625 -107.690349579 0.512533150611 72.3041656364 0.000673456258814 112.469062868 0.687993700623 77.1315250665
10.425 0.502092082794 -137.61961765 0.294488883979 105.300035942 0.630415003187 115.30538185 0.513572546393 -110.187474939 0.294488883979 105.300035942 0.502817704351 -137.673887682 0.630862795497 115.263963984 0.51231121956 69.80524269 0.630415003187 115.30538185 0.630862795497 115.263963984 0.452314712137 -136.345124959 0.000680884423999 108.516316383 0.513572546393 -110.187474939 0.51231121956 69.80524269 0.000680884423998 108.516316383 0.688316780489 74.8672004317
10.45 0.499851223712 -140.216312947 0.294759282515 102.043866968 0.632238098357 111.189211002 0.513362157257 -112.681782361 0.294759282515 102.043866968 0.500577136284 -140.273465528 0.632695284341 111.146308349 0.512090002961 67.3091274755 0.632238098357 111.189211002 0.632695284341 111.146308349 0.447181395602 -141.719285108 0.000688894457341 104.551246321 0.513362157257 -112.681782361 0.512090002961 67.3091274755 0.00068889445734 104.551246321 0.688638257572 72.6043173955
10.475 0.497613391264 -142.800312095 0.294995982736 98.7871886448 0.634060274844 107.071721487 0.513152850781 -115.173325882 0.294995982736 98.7871886448 0.498340264331 -142.860223069 0.634526535029 107.027334949 0.511869538864 64.8157647713 0.634060274844 107.071721487 0.634526535029 107.027334949 0.441976437754 -147.11106002 0.00069749795185 100.571467013 0.513152850781 -115.173325882 0.511869538865 64.8157647713 0.000697497951849 100.571467013 0.688958083208 70.3428227899
10.5 0.495381926302 -145.37137543 0.295196904793 95.5300644097 0.635879947114 102.952625306 0.512944660519 -117.662159069 0.295196904793 95.5300644097 0.496110428937 -145.433908756 0.636354966101 102.906758943 0.511649864836 62.3250996612 0.635879947114 102.952625306 0.636354966101 102.906758943 0.436701916594 -152.522080626 0.000706705723196 96.5746810096 0.512944660519 -117.662159069 0.511649864836 62.3250996612 0.000706705723196 96.5746810096 0.689276208518 68.0826635135
10.525 0.493160385915 -147.929274312 0.295359949465 92.2725753322 0.637695431909 98.831636004 0.512737621194 -120.148335047 0.295359949465 92.2725753322 0.493891185793 -147.994282226 0.638178900283 98.7842970662 0.511431017936 59.8370775111 0.637695431909 98.831636004 0.638178900283 98.7842970662 0.43136031779 -157.954045717 0.000716527840704 92.5586945452 0.512737621194 -120.148335047 0.511431017936 59.8370775111 0.000716527840704 92.5586945451 0.689592584281 65.8237865165
10.55 0.490952545847 -150.47379379 0.295483000396 89.0148211388 0.639504948648 94.708468609 0.512531768878 -122.631906543 0.295483000396 89.0148211388 0.491686308262 -150.541116987 0.639996564934 94.65966756 0.511213034713 57.3516439464 0.639504948648 94.708468609 0.639996564934 94.65966756 0.425954566497 -163.408725591 0.000726973670495 88.5214310281 0.512531768878 -122.631906543 0.511213034713 57.3516439464 0.000726973670496 88.5214310281 0.689907160813 63.5661387859
10.575 0.488762402045 -153.004735502 0.295563926675 85.7569213492 0.641306619969 90.5828395435 0.512327141172 -125.112925918 0.295563926675 85.7569213492 0.489499788919 -153.074203354 0.641806092665 90.5325900828 0.510995951182 54.8687448305 0.641306619969 90.5828395435 0.641806092665 90.5325900828 0.420488061691 -168.887965642 0.000738051929979 84.4609423728 0.512327141172 -125.112925918 0.510995951182 54.8687448305 0.000738051929981 84.4609423727 0.690219887842 61.3096673298
10.6 0.486594171167 -155.521920847 0.295600585791 82.4990165362 0.643098472471 86.4544665199 0.512123777383 -127.591445205 0.295600585791 82.4990165362 0.487335840056 -155.593351646 0.643605522129 86.4027855984 0.510779802821 52.3883262434 0.643098472471 86.4544665199 0.643605522129 86.4027855984 0.414964713136 -174.39368978 0.000749770752631 80.3754180437 0.512123777383 -127.591445205 0.510779802821 52.3883262434 0.000749770752633 80.3754180436 0.690530714386 59.054319163
10.625 0.484452289904 -158.02519442 0.29559082701 79.2412697191 0.64487843766 82.3230684086 0.511921718698 -130.067516151 0.29559082701 79.2412697191 0.485198892981 -158.098395643 0.645392799033 82.2699762406 0.510564624562 49.9103344625 0.64487843766 82.3230684086 0.645392799033 82.2699762406 0.409388981079 -179.927903581 0.000762137761789 76.2631917737 0.511921718698 -130.067516151 0.510564624562 49.9103344625 0.000762137761791 76.2631917736 0.690839588626 56.8000412926
10.65 0.482341412915 -160.51442772 0.295532495212 75.9838679028 0.646644353134 78.1883650796 0.511721008356 -132.54119026 0.295532495212 75.9838679028 0.483093595928 -160.589196318 0.647165777377 78.1338851499 0.510350450796 47.4347159426 0.646644353134 78.1883650796 0.647165777377 78.1338851499 0.403765918754 174.507302985 0.000775160152111 72.1227459907 0.511721008356 -132.54119026 0.510350450796 47.4347159426 0.000775160152113 72.1227459905 0.69114645778 54.5467807029
10.675 0.480266409182 -162.989523126 0.295423435229 72.7270237755 0.648393964045 74.0500772087 0.511521691813 -135.012518835 0.295423435229 72.7270237755 0.481024810379 -163.065645837 0.648922220971 73.994236276 0.51013731537 44.961417298 0.648393964045 74.0500772087 0.648922220971 73.994236276 0.398101217726 168.90975343 0.000788844777281 67.952714057 0.511521691813 -135.012518835 0.51013731537 44.961417298 0.000788844777283 67.9527140569 0.691451267981 52.2944843414
10.7 0.478232356585 -165.45041814 0.295261496739 69.4709775816 0.650124924856 69.907926046 0.511323816909 -137.481553025 0.295261496739 69.4709775816 0.478997605583 -165.527671817 0.650659805243 69.8507541421 0.509925251611 42.490385285 0.650124924856 69.907926046 0.650659805243 69.8507541421 0.392401256094 163.277183438 0.000803198242558 63.751880484 0.511323816909 -137.481553025 0.509925251611 42.490385285 0.00080319824256 63.7518804839 0.691753964138 50.0430991045
10.725 0.476244534461 -167.897089889 0.295044539753 66.2159991842 0.651834801438 65.7616331378 0.51112743402 -139.948343872 0.295044539753 66.2159991842 0.477017251062 -167.975241842 0.652376119387 65.7031635635 0.509714292345 40.0215667846 0.651834801438 65.7616331378 0.652376119387 65.7031635635 0.386673149466 157.607240662 0.000818227000942 59.5191793318 0.51112743402 -139.948343872 0.509714292345 40.0215667846 0.000818227000943 59.5191793317 0.692054489818 47.7925718229
10.75 0.474308413942 -170.329559857 0.294770440761 62.9623903406 0.653521073531 61.6109199941 0.510932596208 -142.412942363 0.294770440761 62.9623903406 0.475089206873 -170.40836821 0.654068668868 61.5511893116 0.50950446993 37.5549087867 0.653521073531 61.6109199941 0.654068668868 61.5511893116 0.380924804573 151.897485943 0.000833937451842 55.2536910377 0.510932596208 -142.412942363 0.50950446993 37.5549087867 0.000833937451843 55.2536910376 0.6923527871 45.5428492476
10.775 0.472429645821 -172.747898836 0.294437099574 59.7104872103 0.655181137614 57.4555076942 0.510739359366 -144.875399483 0.294437099574 59.7104872103 0.473219111399 -172.827112885 0.655734878339 57.3945557171 0.509295816307 35.0903583743 0.655181137614 57.4555076942 0.655734878339 57.3945557171 0.375164975249 146.145396361 0.00085033604147 50.9546379362 0.510739359366 -144.875399483 0.509295816307 35.0903583743 0.00085033604147 50.9546379361 0.692648796449 43.2938780356
10.8 0.470614045746 -175.15223206 0.294042446957 56.4606631237 0.656812310205 53.2951164178 0.510547782348 -147.335766263 0.294042446957 56.4606631237 0.471412766435 -175.231592635 0.657372094977 53.2329861989 0.509088363054 32.6278627083 0.656812310205 53.2951164178 0.657372094977 53.2329861989 0.369403320377 140.3483706 0.000867429364419 46.6213787371 0.510547782348 -147.335766263 0.509088363054 32.6278627083 0.000867429364419 46.621378737 0.692942456572 41.0456047353
10.825 0.468867576506 -177.542744471 0.293584453088 53.2133316404 0.658411831633 49.1294648917 0.510357927091 -149.794093847 0.293584453088 53.2133316404 0.469676119371 -177.621984298 0.658977592296 49.0662027085 0.508882141469 30.1673690128 0.658411831633 49.1294648917 0.658977592296 49.0662027085 0.363650463199 134.503737177 0.00088522426631 42.2534022254 0.510357927091 -149.794093847 0.508882141469 30.1673690128 0.00088522426631 42.2534022253 0.693233704271 38.7979757725
10.85 0.46719632722 -179.919686082 0.29306113696 49.9689499319 0.659976870313 44.9582697374 0.510169858737 -152.250433544 0.29306113696 49.9689499319 0.46801524227 -179.998530129 0.660548574446 44.8939250772 0.508677182657 27.7088245609 0.659976870313 44.9582697374 0.660548574446 44.8939250772 0.357918051162 128.608766209 0.000903727947718 37.8503204232 0.510169858737 -152.250433544 0.508677182657 27.7088245609 0.000903727947719 37.850320423 0.693522474303 36.550937436
10.875 0.465606489269 177.716622632 0.292470576802 46.7280225299 0.661504527535 40.781244705 0.509983645724 -154.704836889 0.292470576802 46.7280225299 0.466436307662 177.638456822 0.662082181042 40.7158702497 0.508473517646 25.2521766601 0.661504527535 40.781244705 0.662082181042 40.7158702497 0.352218815176 122.660685455 0.000922948070033 33.4118614289 0.509983645724 -154.704836889 0.508473517646 25.2521766601 0.000922948070034 33.4118614286 0.69380869922 34.3044358623
10.9 0.464104328831 175.365785382 0.291810921651 43.4911054846 0.662991842823 36.5980997775 0.509799359884 -157.157355714 0.291810921651 43.4911054846 0.464945560953 175.28858738 0.663575492534 36.5317513884 0.508271177515 22.7973726386 0.662991842823 36.5980997775 0.663575492534 36.5317513884 0.346566626806 116.656701499 0.000942892864265 28.937862113 0.509799359884 -157.157355714 0.508271177516 22.7973726386 0.000942892864266 28.9378621126 0.694092309213 32.0584170219
10.925 0.462696155945 173.027324822 0.291080404211 40.2588109884 0.664435799841 32.408540125 0.50961707652 -159.608042207 0.291080404211 40.2588109884 0.463549289347 172.95139103 0.665025536143 32.3412768304 0.508070193555 20.3443598307 0.664435799841 32.408540125 0.665025536143 32.3412768304 0.340976551483 110.594026986 0.000963571244203 24.4282608071 0.50961707652 -159.608042207 0.508070193555 20.3443598307 0.000963571244205 24.4282608065 0.694373231943 29.8128267037
10.95 0.461388290094 170.700677491 0.290277355178 37.0318125246 0.66583333289 28.2122648902 0.509436874463 -162.056948987 0.290277355178 37.0318125246 0.462253787282 170.626310902 0.666429292366 28.1441488747 0.507870597441 17.8930855623 0.66583333289 28.2122648902 0.666429292366 28.1441488747 0.335464895329 104.469914919 0.00098499292564 19.8830900791 0.509436874463 -162.056948987 0.507870597441 17.8930855623 0.000984992925643 19.8830900782 0.694651392372 27.5676104999
10.975 0.460187022343 168.385189033 0.289400219257 33.8108506136 0.667181333987 24.0089657816 0.509258836128 -164.504129169 0.289400219257 33.8108506136 0.461065318429 168.312699024 0.667783702065 23.9400623802 0.507672421445 15.4434971357 0.667181333987 24.0089657816 0.667783702065 23.9400623802 0.330049242614 98.2817010228 0.00100716855365 15.3024696417 0.509258836128 -164.504129169 0.507672421445 15.4434971357 0.00100716855366 15.3024696406 0.694926712578 25.3227137912
11 0.459098574181 166.080109753 0.288447573129 30.5967392353 0.668476660512 19.7983254489 0.509083047547 -166.949636448 0.288447573129 30.5967392353 0.459990074383 166.009811934 0.669085674119 19.728703147 0.507475698664 12.9955418143 0.668476660512 19.7983254489 0.669085674119 19.728703147 0.324748480228 92.0268551621 0.00103010984011 10.6865993945 0.509083047547 -166.949636448 0.507475698664 12.9955418143 0.00103010984012 10.686599393 0.695199111565 23.0780817306
11.025 0.458129053245 163.784590594 0.287418145739 27.3903730223 0.669716143421 15.5800156149 0.508909598381 -169.393525166 0.287418145739 27.3903730223 0.459034130245 163.716806713 0.670332093639 15.5097460551 0.507280463291 10.5491668059 0.669716143421 15.5800156149 0.670332093639 15.5097460551 0.319582804877 85.7030426596 0.00105382971366 6.03575255476 0.508909598381 -169.393525166 0.507280463291 10.5491668059 0.00105382971367 6.03575255299 0.695468505059 20.8336592281
11.05 0.457284406213 161.497679579 0.286310841303 24.1927353258 0.670896595978 11.353694932 0.508738581927 -171.835850399 0.286310841303 24.1927353258 0.458203397361 161.432737478 0.671519830692 11.2828529312 0.507086750908 8.10431924488 0.670896595978 11.353694932 0.671519830692 11.2828529312 0.314573708041 79.3081961325 0.0010783424844 1.35026879397 0.508738581927 -171.835850399 0.507086750908 8.10431924488 0.00107834248441 1.35026879197 0.695734805301 18.5893909341
11.075 0.456570369157 159.218318742 0.285124765613 21.0049072738 0.672014822978 7.11900653259 0.508570095099 -174.276668035 0.285124765613 21.0049072738 0.457503573521 159.156552394 0.672645749515 7.0476701107 0.506894598821 5.66094617328 0.672014822978 7.11900653259 0.672645749515 7.0476701107 0.309743933108 72.8405980608 0.00110366402527 -3.36945274343 0.508570095099 -174.276668035 0.506894598821 5.66094617328 0.00110366402527 -3.36945274557 0.695997920815 16.3452212231
11.1 0.455992415676 156.945341568 0.283859256289 17.8280779502 0.673067630387 2.87557523672 0.508404238395 -176.716034864 0.283859256289 17.8280779502 0.456940090926 156.887091171 0.673706718142 2.80382565976 0.50670404643 3.21899452007 0.673067630387 2.87557523672 0.673706718142 2.80382565976 0.305117398629 66.2989737252 0.00112981197183 -8.12296069097 0.508404238395 -176.716034864 0.50670404643 3.21899452007 0.00112981197183 -8.12296069311 0.696257756172 14.1010941773
11.125 0.455555703054 154.677470877 0.282513917871 14.66355584 0.674051835331 -1.37699562093 0.508241115839 -179.154008658 0.282513917871 14.66355584 0.456518062158 154.623083032 0.674699618375 -1.4490737798 0.506515135639 0.778411078553 0.674051835331 -1.37699562093 0.674699618375 -1.4490737798 0.300719081379 59.6825933603 0.0011568059417 -12.9097591593 0.508241115839 -179.154008658 0.506515135639 0.778411078551 0.0011568059417 -12.9097591612 0.696514211735 11.8569535687
11.15 0.455265016557 152.413317077 0.281088662808 11.5127816942 0.674964276335 -5.63912778703 0.508080834916 178.409351728 0.281088662808 11.5127816942 0.456242224256 152.363145045 0.675621355998 -5.71144656547 0.506327911304 -1.66085751862 0.674964276335 -5.63912778703 0.675621355998 -5.71144656547 0.296574853088 52.9913813577 0.00118466777392 -17.7293160796 0.508080834916 178.409351728 0.506327911304 -1.66085751863 0.00118466777392 -17.7293160811 0.696767183386 9.61274284236
11.175 0.455124711715 150.15137665 0.279583759712 8.37734297736 0.675801823696 -9.9112721539 0.507923506476 175.973986271 0.279583759712 8.37734297736 0.456116880736 150.1057807 0.676468871133 -9.98374009326 0.506142421736 -4.09886482693 0.675801823696 -9.9112721539 0.676468871133 -9.98374009326 0.292711265329 46.2260291398 0.00121342178797 -22.5810723987 0.507923506476 175.973986271 0.506142421736 -4.09886482693 0.00121342178797 -22.5810723995 0.697016562241 7.36840509794
11.2 0.455138654015 147.890030664 0.277999890574 5.25899006191 0.676561389857 -14.1939133419 0.50776924462 173.539833679 0.277999890574 5.25899006191 0.456145840974 147.849378518 0.677239148582 -14.2664353503 0.505958719239 -6.53566462046 0.676561389857 -14.1939133419 0.677239148582 -14.2664353503 0.289155278419 39.3881069697 0.00124309506068 -27.4644523364 0.50776924462 173.539833679 0.505958719239 -6.53566462046 0.00124309506068 -27.4644523362 0.697262234334 5.12388307185
11.225 0.455310154844 145.627543068 0.276338219074 2.15965432543 0.677239939629 -18.4875748538 0.507618166572 171.106831295 0.276338219074 2.15965432541 0.456332355765 145.592210473 0.677929228028 -18.5600520344 0.505776860705 -8.97131092578 0.677239939629 -18.4875748538 0.677929228027 -18.5600520344 0.285933932305 32.4801685734 0.00127371771809 -32.378874911 0.507618166572 171.106831295 0.505776860705 -8.97131092578 0.00127371771809 -32.3788749095 0.697504080296 2.87911911849
11.25 0.455641901677 143.362058486 0.274600472641 -0.918531719122 0.677834500079 -22.7928248604 0.507470392523 168.674914991 0.274600472641 -0.918531719159 0.456679047071 143.332429911 0.678536213886 -22.8651542986 0.505596908263 -11.4058580595 0.677834500079 -22.7928248604 0.678536213886 -22.8651542986 0.28307396042 25.5058411945 0.00130532323752 -37.3237669264 0.507470392523 168.674914991 0.505596908263 -11.4058580595 0.00130532323753 -37.3237669232 0.697741974994 0.634055191311
11.275 0.456135879397 141.091599174 0.272789041565 -3.97321217877 0.678342169876 -27.1102826809 0.507326045455 166.244019069 0.272789041564 -3.97321217883 0.457187828856 141.068068696 0.679057284636 -27.1823571844 0.505418929975 -13.8393606703 0.678342169876 -27.1102826809 0.679057284636 -27.1823571844 0.280601351288 18.4698928097 0.00133794875326 -42.2985775965 0.507326045455 166.244019069 0.505418929975 -13.8393606703 0.00133794875328 -42.2985775914 0.697975787155 -1.61136717654
11.3 0.456793278276 138.81406085 0.270907099286 -7.00178342918 0.678760127897 -31.4406260308 0.507185250947 163.814076148 0.270907099286 -7.00178342927 0.45785981456 138.797033239 0.679489701396 -31.5123338133 0.5052430006 -16.2718737849 0.678760127897 -31.4406260308 0.679489701396 -31.5123338133 0.27854086719 11.3782679435 0.0013716353569 -47.3027949529 0.507185250947 163.814076148 0.5052430006 -16.2718737849 0.00137163535694 -47.3027949458 0.698205378965 -3.85720689185
11.325 0.457614382409 136.527207114 0.268958748958 -10.001367808 0.679085640822 -35.784599112 0.507048136958 161.385017059 0.268958748958 -10.0013678081 0.458695205082 136.517099199 0.679830815496 -35.8558234138 0.505069202413 -18.7034528604 0.679085640822 -35.784599112 0.679830815496 -35.8558234138 0.276915533968 4.23808409513 0.00140642838082 -52.3359641514 0.507048136958 161.385017059 0.505069202413 -18.7034528604 0.00140642838087 -52.3359641422 0.698430605631 -6.10352332132
11.35 0.458598430418 134.228662325 0.266949202537 -12.9687857314 0.679316069472 -40.1430216341 0.506914833583 158.956770728 0.266949202537 -12.9687857315 0.459693149207 134.225904693 0.680078074799 -40.2136402668 0.504897626094 -21.1341538409 0.679316069472 -40.1430216341 0.680078074799 -40.2136402668 0.275746120707 -2.94241760406 0.00144237765009 -57.3977077496 0.506914833583 158.956770728 0.504897626094 -21.1341538409 0.00144237765016 -57.3977077385 0.698651314918 -8.35037631184
11.375 0.459743438007 131.915902964 0.264885000121 -15.9005269578 0.679448873591 -44.5167988586 0.506785472796 156.529264065 0.264885000121 -15.900526958 0.460851566212 131.920942081 0.680229028468 -44.5866836649 0.504728371678 -23.5640332215 0.679448873592 -44.5167988586 0.680229028467 -44.5866836649 0.275050631869 -10.1539711841 0.00147953768471 -62.4877479858 0.506785472796 156.529264065 0.504728371678 -23.5640332215 0.0014795376848 -62.4877479732 0.698867346653 -10.5978262109
11.4 0.461045969542 129.586247834 0.262774278868 -18.792722239 0.679481614772 -48.9069327736 0.506660188161 154.102421843 0.262774278867 -18.7927222392 0.462166918092 129.599548678 0.680281329879 -48.9759489872 0.504561549585 -25.9931481183 0.679481614772 -48.9069327735 0.680281329878 -48.9759489872 0.27484383683 -17.3864341136 0.00151796782947 -67.6059310323 0.506660188161 154.102421843 0.504561549585 -25.9931481183 0.00151796782958 -67.6059310189 0.69907853219 -12.8459338875
11.425 0.462500843537 127.236847871 0.260627102746 -21.6411173524 0.679411957194 -53.314534515 0.506539114531 151.676166578 0.260627102745 -21.6411173526 0.463633916614 127.258897169 0.68023273735 -53.3825400056 0.504397281719 -28.4215563462 0.679411957194 -53.314534515 0.680232737349 -53.3825400056 0.275136862138 -24.6289808319 0.0015577322841 -72.7522531388 0.506539114531 151.676166578 0.504397281719 -28.4215563462 0.00155773228422 -72.7522531258 0.699284693842 -15.0947607526
11.45 0.464100754959 124.8646769 0.258455866457 -24.4410525973 0.679237665824 -57.7408381656 0.506422387715 149.250418408 0.258455866457 -24.4410525975 0.465245148573 124.895987067 0.680081112331 -57.8076825514 0.504235702647 -30.8493165046 0.679237665824 -57.7408381656 0.68008111233 -57.8076825514 0.275936869725 -31.8703329652 0.00159889999998 -77.926888514 0.506422387716 149.250418408 0.504235702647 -30.8493165046 0.00159890000009 -77.9268885029 0.699485644271 -17.3443687801
11.475 0.465835796215 122.466525468 0.256275788999 -27.1874523743 0.678956601713 -62.1872160776 0.506310144133 146.825094966 0.256275788998 -27.1874523745 0.466990601655 122.507639298 0.679824414693 -62.2527396855 0.504076960865 -33.2764880717 0.678956601713 -62.1872160776 0.679824414692 -62.2527396856 0.277246839892 -39.0990138693 0.0016415444025 -83.1302187098 0.506310144133 146.825094966 0.504076960865 -33.2764880717 0.00164154440258 -83.1302187028 0.699681185835 -19.5948205278
11.5 0.467692859216 120.039000779 0.254105514285 -29.8748316094 0.678566714002 -66.6551958843 0.506202520437 144.400111254 0.254105514285 -29.8748316094 0.468857074007 120.090496927 0.679460694704 -66.719228534 0.503921220149 -35.7031315086 0.678566714002 -66.6551958843 0.679460694704 -66.719228534 0.279065471301 -46.303612512 0.0016857428895 -88.3628631816 0.506202520437 144.400111254 0.503921220149 -35.7031315086 0.0016857428895 -88.3628631815 0.69987110989 -21.8461791581
