! Touchstone file exported from HFSS 2025.2.4
!        File:           C:/Users/chaoy/Documents/single_magictee_v2_stageA/g2_5p80mm_lt_4p50mm/single_magictee_v2.aedt
!        Generated:      03:03:53 PM Sep 19, 2026
!        Design:         SingleMagicT_v2
!        Project:        single_magictee_v2
!
! Variables:
!        f_adapt = 10.2GHz
!        ridge_g1 = 7.672mm
!        ridge_g2 = 5.8mm
!        ridge_l1 = 9.872mm
!        ridge_l2 = 8.857mm
!        ridge_w = 4.572mm
!        terminal_ridge_len = 4.5mm
!        wg_a = 22.86mm
!        wg_b = 10.16mm
!
!Data is not renormalized
# GHz S MA
! Terminal data exported
! Port[1] = P1_CollinearMinusX
! Port[2] = P2_CollinearPlusX
! Port[3] = P3_HArm_Ridged
! Port[4] = P4_EArm
9                              0.147093155812367 -159.829987852118 0.494583250946308 -160.374367906281 0.542733303785982 123.718444334093 0.662715302643678 45.0251835325793 
                               0.494583250946298 -160.374367906282 0.145006383065765 -159.579416268954 0.543174819464405 123.749034601687 0.662813452076358 -134.914657253506 
                               0.542733303785978 123.718444334094 0.543174819464405 123.749034601686 0.640624877313738 -132.31070620855 0.00120126105561792 158.154931110266 
                               0.662715302643676 45.0251835325791 0.662813452076363 -134.914657253506 0.00120126105562192 158.154931109962 0.348547432009468 -109.23474972906 
9.025                          0.147178163309118 -162.15645772703 0.496362654778437 -163.251717980051 0.54164267661633 120.669265996033 0.662257532351208 42.1163239689561 
                               0.496362654778437 -163.251717980051 0.145092246132509 -161.906004639294 0.54208252571752 120.699785440253 0.662357859109884 -137.824721703743 
                               0.541642676616337 120.669265996034 0.542082525717525 120.699785440252 0.642469001019605 -135.656626455634 0.00120046869044362 154.679795872723 
                               0.662257532351213 42.1163239689555 0.662357859109885 -137.824721703743 0.00120046869044479 154.679795872374 0.35027842579123 -111.947754484387 
9.05                           0.147274348949797 -164.475304427273 0.498140479741675 -166.120016150181 0.540546546075772 117.623501228754 0.661796339802251 39.2153834113585 
                               0.49814047974168 -166.120016150182 0.145190130894006 -164.225031174056 0.540984922353429 117.653960170953 0.661898562709689 -140.726876635361 
                               0.540546546075785 117.623501228756 0.540984922353437 117.653960170952 0.644313805972705 -139.003901722091 0.0011994192526471 151.206214657096 
                               0.66179633980226 39.2153834113578 0.661898562709686 -140.726876635361 0.00119941925264614 151.206214656722 0.352013481623131 -114.656552727764 
9.075                          0.147382713807644 -166.786846937074 0.499917445311657 -168.979452700579 0.539443859791435 114.581054956697 0.661331709815803 36.3222275158323 
                               0.499917445311667 -168.979452700579 0.145301072121262 -166.536819140766 0.539880961032788 114.611463088039 0.661435534378638 -143.621255390029 
                               0.539443859791452 114.581054956699 0.539880961032798 114.611463088038 0.646160849654126 -142.352522308939 0.00119810752171075 147.734687746835 
                               0.661331709815814 36.3222275158315 0.661435534378633 -143.621255390028 0.00119810752170829 147.734687746452 0.35375250292411 -117.361209350952 
9.1                            0.147504193290166 -169.091426408696 0.501694282395964 -171.830219120355 0.538333569639571 111.541834355817 0.660863629466011 33.4367223770213 
                               0.501694282395976 -171.830219120355 0.145426036941446 -168.841714341986 0.538769597405864 111.572200611971 0.660968749283693 -146.507990865438 
                               0.53833356963959 111.541834355819 0.538769597405875 111.57220061197  0.648011671966236 -145.702471532996 0.00119652857570785 144.265705073187 
                               0.660863629466023 33.4367223770205 0.660968749283687 -146.507990865437 0.00119652857570442 144.265705072808 0.355495399658759 -120.061788166529 
9.125                          0.147639656633429 -171.389403943322 0.503471727873868 -174.672507743442 0.537214634156107 108.505749292141 0.660392087653059 30.5587348220771 
                               0.503471727873881 -174.672507743442 0.145565924315304 -171.140082816887 0.537649793485401 108.53608173791  0.660498185706658 -149.387215220281 
                               0.537214634156127 108.505749292143 0.537649793485412 108.536081737909 0.649867789007529 -149.053725229877 0.00119467780125724 140.799748110102 
                               0.660392087653071 30.5587348220764 0.660498185706652 -149.38721522028 0.00119467780125328 140.79974810974  0.357242087923046 -122.758351924746 
9.15                           0.147789906657529 -173.681158407843 0.505250519506162 -177.506511411957 0.536086020900591 105.472712714724 0.659917074711562 27.688132669012  
                               0.505250519506174 -177.506511411958 0.145721564784193 -173.432308579435 0.536520519974798 105.503018438181 0.660023824541918 -152.259059614696 
                               0.536086020900609 105.472712714726 0.536520519974808 105.50301843818  0.651730687133222 -152.406251325663 0.00119255090455702 137.337291836445 
                               0.659917074711574 27.6881326690113 0.660023824541911 -152.259059614695 0.00119255090455293 137.337291836109 0.358992489564073 -125.450962333379 
9.175                          0.147955679747397 -175.967084291992 0.507031391211482 179.667576838215 0.534946708770945 102.442641004103 0.659438582054634 24.8247849517011 
                               0.507031391211493 179.667576838215 0.145893720449066 -175.718791398052 0.535380758549085 102.472926019835 0.659545648839363 -155.123653983984 
                               0.534946708770961 102.442641004104 0.535380758549094 102.472926019834 0.653601817310613 -155.760009477974 0.00119014392358806 133.878806746926 
                               0.659438582054644 24.8247849517005 0.659545648839358 -155.123653983983 0.00119014392358416 133.878806746624 0.360746531832364 -128.139680080122 
9.2                            0.148137646026451 -178.247589609268 0.50881506870348 176.84956407111  0.533795690266272 99.4154542774771 0.65895660185174 21.9685621137316 
                               0.50881506870349 176.84956407111  0.14608308514728 -177.999944620551 0.534229504086013 99.4457234384955 0.659063643390538 -157.981126843432 
                               0.533795690266286 99.4154542774785 0.53422950408602 99.4457234384947 0.655482589777267 -159.114950786803 0.00118745324154399 130.424760893661 
                               0.658956601851748 21.9685621137311 0.659063643390534 -157.981126843431 0.00118745324154054 130.424760893396 0.36250414706508 -130.824564857134 
9.225                          0.148336409694159 179.476906155771 0.510602265481399 174.039257725027 0.532631973694721 96.3910766519556 0.658471126738371 19.119336173265  
                               0.510602265481406 174.039257725027 0.146290284796811 179.723806952748 0.533065766844323 96.4213335698472 0.658577794355906 -160.831605122098 
                               0.532631973694731 96.3910766519567 0.533065766844329 96.4213335698465 0.657374369009219 -162.471017575101 0.00118447560150983 126.975621940907 
                               0.658471126738378 19.1193361732646 0.658577794355903 -160.831605122097 0.00118447560150702 126.975621940684 0.364265272398527 -133.505675387377 
9.25                           0.148552509502269 177.205974051957 0.512393679165095 171.236465868858 0.531454585323213 93.3694364672763 0.657982149555543 16.2769808610474 
                               0.5123936791651  171.236465868858 0.146515877881337 177.452029145526 0.531888574586072 93.3996834401672 0.658088088931044 -163.675214023445 
                               0.53145458532322 93.3694364672772 0.531888574586077 93.3996834401667 0.659278469005522 -165.828143238702 0.00118120812237634 123.531859216395 
                               0.657982149555548 16.2769808610471 0.658088088931042 -163.675214023444 0.00118120812237433 123.531859216217 0.366029849508293 -136.183069452391 
9.275                          0.14878641934813 174.939177616293 0.514189988164328 168.440997441672 0.530262571465633 90.3504664695135 0.657489663117092 13.4413717336494 
                               0.514189988164331 168.440997441672 0.146760356053523 175.184280429926 0.530696974639649 90.3807044174153 0.657594515049518 -166.512076910768 
                               0.530262571465638 90.350466469514  0.530696974639652 90.3807044174149 0.661196148894835 -169.186252164816 0.00117764831594362 120.09394574361  
                               0.657489663117095 13.4413717336492 0.657594515049517 -166.512076910767 0.0011776483159425 120.093945743476 0.367797824375321 -138.856803921209 
9.3                            0.149038548967248 172.676074778026 0.515991848671063 165.652662476722 0.529055000505908 87.3341039573347 0.656993660002784 10.6123862639658 
                               0.515991848671063 165.652662476722 0.147024144837687 172.920113897628 0.529490035899961 87.3643323644532 0.657097061120127 -169.3423152154  
                               0.529055000505909 87.3341039573349 0.529490035899962 87.364332364453  0.663128608868943 -172.545259717939 0.00117379410513489 116.662360240532 
                               0.656993660002785 10.6123862639658 0.657097061120127 -169.3423152154  0.00117379410513472 116.662360240442 0.369569147076209 -141.52693478013 
9.325                          0.149309244710677 170.416219711187 0.517799891962792 162.871272311011 0.527830964852218 84.320290892434  0.656494132375233 7.78990391094016 
                               0.51779989196279 162.871272311011 0.147307604416706 170.659079176484 0.528266850762076 84.3505077560285 0.656595715796219 -172.16604836576 
                               0.527830964852217 84.320290892434  0.528266850762077 84.3505077560284 0.665076986447501 -175.905072291681 0.00116964384321196 113.23758907154  
                               0.656494132375232 7.78990391094021 0.656595715796221 -172.16604836576 0.00116964384321278 113.237589071492 0.37134377159605 -144.193517163086 
9.35                           0.149598790396301 168.159164634828 0.519614722004245 160.09663978147  0.526589582818495 81.3089739758151 0.655991071818694 4.97380617040979 
                               0.519614722004241 160.09663978147  0.14761103049158 168.400724291667 0.527026536984496 81.3391757612035 0.656090467774768 -174.983393735363 
                               0.526589582818492 81.3089739758149 0.527026536984496 81.3391757612036 0.667042353077538 -179.265587424643 0.00116519633385684 109.820128140467 
                               0.655991071818692 4.97380617040993 0.656090467774771 -174.983393735363 0.00116519633385864 109.820128140459 0.373121655662112 -146.856605382375 
9.375                          0.149907408226142 165.904461560177 0.521436913334429 157.328579408717 0.525330000429233 78.300104691631  0.655484469197836 2.1639766088932  
                               0.521436913334422 157.328579408716 0.147934655205347 166.144597470317 0.525768239478102 78.3302862929542 0.655581305622914 -177.794466607988 
                               0.525330000429227 78.3001046916306 0.525768239478101 78.3302862929544 0.669025711070569 177.373306021834 0.0011604508519608 106.410484714165 
                               0.655484469197832 2.16397660889342 0.655581305622918 -177.794466607988 0.00116045085196355 106.410484714194 0.374902760596686 -149.516252959551 
9.4                            0.150235259764786 163.651663983802 0.523267009225691 154.566907569332 0.524051393143594 75.293639320323  0.654974314534657 -0.63969911793632 
                               0.523267009225682 154.566907569332 0.148278648126077 163.890248888525 0.524491132016796 75.3237940266885 0.655068217629742 179.400619841712 
                               0.524051393143588 75.2936393203224 0.524491132016794 75.3237940266889 0.671027990879382 174.011727626569 0.00115540716494364 103.009179167264 
                               0.654974314534653 -0.639699117936041 0.655068217629746 179.400619841711 0.00115540716494728 103.009179167327 0.376687051187464 -152.17251265627 
9.425                          0.150582446976585 161.400328525662 0.525105520101361 151.811442657494 0.522752967494813 72.2895389228144 0.654460596901795 -3.43733326043042 
                               0.525105520101351 151.811442657494 0.148643117286412 161.637232359273 0.5231944188658  72.3196583894609 0.65455119168108 176.601754553815 
                               0.522752967494806 72.2895389228137 0.523194418865798 72.3196583894614 0.673050048715761 170.649805114894 0.0011500655544111 99.6167466402084 
                               0.654460596901789 -3.43733326043007 0.654551191681086 176.601754553814 0.00115006555441555 99.6167466403008 0.378474495573832 -154.825436504942 
9.45                           0.150949013321645 159.150016510687 0.526952922198518 149.06200523675  0.521433962640875 69.287769297534  0.65394330433053 -6.22903598221964 
                               0.526952922198507 149.06200523675  0.149028110279504 159.385106959741 0.521877336323636 69.3178435216694 0.65403021515521 173.808828576503 
                               0.521433962640867 69.2877692975332 0.521877336323634 69.31784352167   0.675092664509529 167.287674011554 0.00114442683794934 96.2337386039472 
                               0.653943304330525 -6.22903598221927 0.654030215155216 173.808828576503 0.00114442683795453 96.2337386040647 0.380265065147513 -157.475075839012 
9.475                          0.151334944912524 156.900295492183 0.528809656462532 146.318418182667 0.520093651822579 66.2883009120432 0.653422423731922 -9.01491537805134 
                               0.528809656462519 146.318418182667 0.14943361541329 157.13343859604  0.520539154173853 66.3183182130296 0.6535052748374  171.021735048682 
                               0.520093651822571 66.2883009120423 0.520539154173851 66.3183182130303 0.677156540208347 163.925477243487 0.00113849239085111 92.8607243259183 
                               0.653422423731916 -9.01491537805092 0.653505274837407 171.021735048681 0.00113849239085693 92.8607243260561 0.382058734466039 -160.121481322758 
9.5                            0.151740171735253 154.650740715093 0.530676127660235 143.580506816981 0.518731343725201 63.2911088110436 0.652897940829534 -11.7950775008057 
                               0.530676127660222 143.580506816981 0.14985956292672 154.881801503171 0.519179177042699 63.3210558146175 0.652976356851325 168.240369173232 
                               0.518731343725192 63.2911088110427 0.519179177042697 63.3210558146182 0.679242298416721 160.563364696067 0.00113226416756876 89.4982922331167 
                               0.652897940829529 -11.7950775008052 0.652976356851331 168.240369173232 0.00113226416757511 89.4982922332702 0.383855481177589 -162.764702980466 
9.525                          0.152164568939509 152.400936516754 0.532552703698826 140.848099033872 0.517346383740116 60.2961725025297 0.652369840102375 -14.5696263963728 
                               0.532552703698813 140.848099033872 0.150305826272909 152.629779677633 0.517796745659089 60.3260341287658 0.652443446605438 165.464628182218 
                               0.517346383740108 60.2961725025288 0.517796745659087 60.3260341287665 0.681350481371566 157.201492726567 0.00112574472269592 86.1470511690378 
                               0.652369840102369 -14.5696263963724 0.652443446605445 165.464628182217 0.00112574472270268 86.1470511692021 0.385655285955787 -165.4047902249  
9.55                           0.152607958203739 150.150477662522 0.534439715137955 138.121025418853 0.515938155123001 57.3034758238362 0.651838104736713 -17.3386641451613 
                               0.534439715137942 138.121025418853 0.15077222347514 150.376968239871 0.516391238013432 57.3332352785797 0.651906528752543 162.694411295237 
                               0.515938155122993 57.3034758238353 0.516391238013431 57.3332352785805 0.68348155025061 153.840023638792 0.00111893723128991 82.807631542122  
                               0.651838104736708 -17.3386641451608 0.651906528752549 162.694411295237 0.00111893723129697 82.8076315422924 0.387458132443099 -168.041791884951 
9.575                          0.153070109181545 147.89897061331  0.536337454882815 135.399119360774 0.514506080045431 54.313006789306  0.651302716585575 -20.1022909090956 
                               0.536337454882802 135.399119360774 0.151258518562256 148.122974723432 0.514962070412112 54.3426455588191 0.651365587160835 159.92961967208  
                               0.514506080045424 54.3130067893051 0.514962070412111 54.3426455588199 0.685635884808694 150.479125122938 0.00111184550836302 79.4806863639415 
                               0.651302716585571 -20.1022909090951 0.651365587160842 159.929619672079 0.00111184550837027 79.4806863641134 0.389264007201577 -170.675756232409 
9.6                            0.153550741035882 145.646034721851 0.538246178046493 132.682217157308 0.513049620537033 51.3247574212781 0.650763656134796 -22.8606049830449 
                               0.53824617804648 132.682217157308 0.151764423090197 145.867420287499 0.513508698424711 51.3542552698625 0.650820604894848 157.17015636072  
                               0.513049620537027 51.3247574212773 0.513508698424709 51.3542552698633 0.687813783335866 147.118969664869 0.00110447402738998 76.1668921757295 
                               0.650763656134792 -22.8606049830444 0.650820604894854 157.17015636072  0.0011044740273973 76.1668921758985 0.391072899669716 -173.306731007778 
9.625                          0.154049524067448 143.391303354314 0.540166101970267 129.970158114294 0.511568279315628 48.3387235660577 0.650220902474612 -25.6137028497131 
                               0.540166101970255 129.970158114294 0.152289597756343 143.609940849341 0.512030617721374 48.3680585364348 0.650271564204779 154.415926241614 
                               0.511568279315623 48.3387235660569 0.512030617721373 48.3680585364356 0.690015462929922 143.759733929044 0.00109682793770208 72.8669498619105 
                               0.650220902474608 -25.6137028497126 0.650271564204785 154.415926241613 0.00109682793770937 72.8669498620724 0.392884802124294 -175.934763445078 
9.65                           0.154566081443212 141.134424933758 0.542097406391046 127.262784639201 0.510061600503182 45.3549046964891 0.649674433275877 -28.3616792371028 
                               0.542097406391034 127.262784639201 0.152833654112864 141.350188133071 0.510527364798069 45.3840531127376 0.649718446522843 151.666835969181 
                               0.510061600503178 45.3549046964884 0.510527364798068 45.3840531127384 0.692241060074824 140.401598119371 0.00108891308066419 69.5815853490175 
                               0.649674433275874 -28.3616792371023 0.649718446522848 151.666835969181 0.00108891308067134 69.5815853491685 0.394699709646129 -178.559900295602 
9.675                          0.155099991030205 138.875063901875 0.544040233745574 124.559942328961 0.508529170225756 42.3733037027112 0.649124224770085 -31.104627177743 
                               0.544040233745563 124.559942328961 0.153396156384491 139.087830631178 0.508998517587849 42.4022401755784 0.649161232465345 148.922793911281 
                               0.508529170225754 42.3733037027105 0.508998517587849 42.4022401755791 0.694490631515196 137.04474532226  0.00108073600455813 66.3115501877214 
                               0.649124224770083 -31.1046271777426 0.64916123246535 148.922793911281 0.00108073600456504 66.3115501878581 0.396517620088757 178.817812149431 
9.7                            0.155650787338672 136.612901595524 0.545994689601574 121.861480052334 0.506970617096035 39.3939266726129 0.648570251732468 -33.8426380689609 
                               0.545994689601565 121.861480052334 0.153976623395107 136.822554475327 0.507443695956649 39.422624107034  0.648599901839301 146.183710087391 
                               0.506970617096033 39.3939266726124 0.507443695956649 39.4226241070347 0.69676415541593 133.689360836102 0.00107230397812443 63.0576220146138 
                               0.648570251732467 -33.8426380689605 0.648599901839306 146.18371008739  0.00107230397813101 63.0576220147331 0.398338534049116 176.198328037337 
9.725                          0.156217963577327 134.347637034671 0.547960843206445 119.167250026948 0.505385612577429 36.4167826634621 0.64801248746753 -36.5758017335419 
                               0.547960843206438 119.167250026948 0.1545745306062  134.554064213141 0.505862562082521 36.4452122681369 0.648034433652548 143.449496106142 
                               0.505385612577428 36.4167826634616 0.505862562082521 36.4452122681375 0.699061532794768 130.335631491342 0.00106362500274245 59.8206048888448 
                               0.648012487467529 -36.5758017335416 0.648034433652551 143.449496106141 0.00106362500274862 59.820604888944  0.400162454839392 173.581601933571 
9.75                           0.156800973821937 132.078987618611 0.549938728144622 116.477107891083 0.503773871229184 33.4418834661079 0.647450903796487 -39.3042064802081 
                               0.549938728144615 116.477107891083 0.155189312268706 132.28208348796  0.504254820717669 33.470014765001  0.64746480612634 140.720065102791 
                               0.503773871229183 33.4418834661075 0.504254820717669 33.4700147650015 0.701382589214654 126.983744965189 0.00105470782325545 56.6013294966671 
                               0.647450903796488 -39.3042064802078 0.647464806126344 140.72006510279  0.00105470782326114 56.6013294967442 0.401989388459254 170.967588802493 
9.775                          0.157399235296708 129.806689727656 0.551928343095184 113.790912770249 0.502135150832341 30.4692433630997 0.646885471046141 -42.027939163411 
                               0.551928343095179 113.790912770249 0.155820363688027 130.006355618945 0.502620219333039 30.4970442087438 0.646890996709599 137.995331677119 
                               0.502135150832342 30.4692433630994 0.502620219333039 30.4970442087442 0.703727076721651 123.633889094887 0.00104556193747145 53.4006532143545 
                               0.646885471046143 -42.0279391634106 0.646890996709601 137.995331677119 0.00104556193747657 53.4006532144078 0.403819343567784 168.356243989295 
9.8                            0.158012130766109 127.530499227923 0.553929652681745 111.108527338538 0.500469252396829 27.4988788819906 0.646316158038813 -44.7470852420058 
                               0.553929652681741 111.108527338538 0.15646704360018 127.72664407939  0.500958548145658 27.5263154704856 0.646312982094   135.275211832202 
                               0.50046925239683 27.4988788819903 0.500958548145658 27.5263154704861 0.706094676013312 120.286251193285 0.00103619760439085 50.2194600168079 
                               0.646316158038815 -44.7470852420055 0.646312982094002 135.275211832202 0.00103619760439537 50.2194600168364 0.405652331454489 165.747523203094 
9.825                          0.158639011032779 125.250191877351 0.555942588407067 108.429817874718 0.498776020050384 24.5308085450228 0.645742932083039 -47.461728836442 
                               0.555942588407064 108.429817874718 0.157128676655036 125.442732871669 0.49926964002934 24.5578454326366 0.645730738229255 132.559622914408 
                               0.498776020050386 24.5308085450226 0.49926964002934 24.5578454326369 0.70848499882159 116.941017370265 0.00102662585122756 47.058660215419  
                               0.645742932083041 -47.4617288364417 0.645730738229257 132.559622914408 0.00102662585123141 47.0586602154222 0.407488366008815 163.141382501203 
9.85                           0.159279197535203 122.965563631722 0.557967049665292 105.754654312995 0.497055340810425 21.5650526163153 0.645165758964798 -50.1719527841645 
                               0.557967049665291 105.754654312995 0.157804556000671 123.154426797906 0.497553370309782 21.5916527376006 0.645144240337965 129.848483554953 
                               0.497055340810427 21.5650526163152 0.497553370309782 21.5916527376008 0.710897590493715 113.59837186336  0.00101685847929895 43.9191900043996 
                               0.645165758964801 -50.1719527841643 0.645144240337966 129.848483554953 0.00101685847930211 43.9191900043773 0.409327463687702 160.537778274547 
9.875                          0.159931985036824 120.676430850107 0.560002904825036 103.082910288326 0.495307144240381 18.6016328475948 0.644584602939125 -52.8778386929857 
                               0.560002904825036 103.082910288326 0.158493945960822 120.861551626188 0.495809656445465 18.6277575349489 0.644553462929569 127.141713613234 
                               0.495307144240382 18.6016328475948 0.495809656445465 18.627757534949  0.713331932753905 110.258496380642 0.00100690806886278 40.8020107898167 
                               0.644584602939128 -52.8778386929855 0.64455346292957 127.141713613234 0.00100690806886522 40.8020107897696 0.411169643480752 157.936667234242 
9.9                            0.160596644396354 118.382630399937 0.56204999237695 100.414463176154 0.49353140199237 15.6405722234335 0.643999426722006 -55.5794669922373 
                               0.562049992376951 100.414463176154 0.159196084795573 118.563954152915 0.494038457596167 15.6661812280319 0.643958379812951 124.439234122159 
                               0.493531401992372 15.6405722234336 0.494038457596167 15.666181228032  0.715787446628399 106.92156945873  0.000996787982972046 37.7081082699979 
                               0.64399942672201 -55.5794669922372 0.643958379812951 124.439234122159 0.000996787982973742 37.708108269927  0.413014926872642 155.338006399302 
9.925                          0.161272425407255 116.084019662681 0.564108122139716 97.7491941264169 0.491728127238491 12.6818947068694 0.643410191482533 -58.2769169815734 
                               0.564108122139718 97.7491941264168 0.159910187533575 116.261502162741 0.492239774081232 12.7069462209131 0.643358964107373 121.740967235597 
                               0.491728127238493 12.6818947068695 0.492239774081231 12.7069462209131 0.718263495516011 103.587765838443 0.000986512370403785 34.6384912298156 
                               0.643410191482537 -58.2769169815733 0.643358964107373 121.740967235597 0.000986512370404735 34.6384912297223 0.4148633378025  152.741753085473 
9.95                           0.161958559692682 113.780476441979 0.566177076518699 95.0869880916373 0.489897373993288 9.7256249862077  0.642816856835331 -60.9702668773392 
                               0.566177076518702 95.0869880916372 0.1606354488625  113.954084288401 0.490413646730096 9.75007566642686 0.642755188251466 119.046836178046 
                               0.489897373993289 9.72562498620787 0.490413646730095 9.75007566642673 0.720759388386325 100.257255860393 0.000976096167691775 31.5941900046922 
                               0.642816856835335 -60.9702668773391 0.642755188251465 119.046836178046 0.000976096167691982 31.5941900045788 0.416714902619981 150.147864895162 
9.975                          0.162654263640819 111.471898776885 0.568256611811793 92.4277338489222 0.488039236330295 6.77178822371652 0.642219380833347 -63.6595938564685 
                               0.568256611811797 92.4277338489221 0.161371046063005 111.641609773611 0.488560156127853 6.79559321607551 0.64214702401008 116.356765196571 
                               0.488039236330296 6.77178822371672 0.488560156127852 6.79559321607531 0.723274383087662 96.9302048824666 0.000965555100256693 28.5762545630627 
                               0.642219380833352 -63.6595938564685 0.642147024010079 116.356765196571 0.00096555510025617 28.5762545629315 0.418569650037875 147.556299708458 
10                             0.163358741364333 109.158204663798 0.570346459557211 89.7713240156585 0.486153847495827 3.8204098068447  0.641617719961109 -66.3449740979196 
                               0.570346459557216 89.7713240156584 0.162116141970362 109.324008143083 0.486679421758935 3.8435227723956  0.641534442478873 113.670679515004 
                               0.486153847495827 3.82040980684495 0.486679421758934 3.84352277239533 0.725807689747137 93.6067727208629 0.000954905682579531 25.5857521486166 
                               0.641617719961113 -66.3449740979195 0.641534442478872 113.670679515004 0.000954905682578301 25.5857521484706 0.420427611081078 144.967015675199 
10.025                         0.164071187666814 106.839331691429 0.572446327918214 87.1176550587025 0.484241378923415 0.871515102510886 0.641011829128608 -69.0264828216926 
                               0.57244632791822 87.1176550587024 0.16286988794702 107.001228784548 0.484771601052215 0.893888244339346 0.640917414086559 110.988505290383 
                               0.484241378923415 0.871515102511152 0.484771601052213 0.893888244339052 0.728358474245446 90.2871131160594 0.000944165217304595 22.6237644161056 
                               0.641011829128612 -69.0264828216926 0.640917414086558 110.988505290383 0.000944165217302691 22.623764415948  0.422288819031852 142.379971208083 
10.05                          0.164790790998542 104.515236594005 0.574555903099933 84.4666272968539 0.482302039152525 -2.07487078506869 0.640401661666022 -71.7041943255138 
                               0.574555903099939 84.4666272968538 0.16363142684886 104.673240448468 0.482836888331063 -2.05328669386307 0.640295908594809 108.310169571558 
                               0.482302039152524 -2.0748707850684 0.48283688833106 -2.05328669386346 0.730925861749438 86.971373224755  0.000933351793087323 19.6913839870697 
                               0.640401661666025 -71.7041943255139 0.640295908594807 108.310169571558 0.000933351793084785 19.6913839869039 0.424153309371288 139.795124976792 
10.075                         0.165516736383694 102.185894728638 0.57667485079363 81.8181448964037 0.480336072655364 -5.01872325262776 0.639787169319482 -74.3781820193014 
                               0.576674850793637 81.8181448964036 0.164399895967709 102.340030671865 0.480875513672066 -4.99797883998072 0.639669895095839 105.63560025985  
                               0.480336072655362 -5.01872325262742 0.480875513672063 -4.99797883998114 0.733508940286148 83.6596931385543 0.0009224842809195 16.7897103448183 
                               0.639787169319486 -74.3781820193015 0.639669895095837 105.63560025985  0.00092248428091638 16.789710344648  0.426021119716963 137.212435903099 
10.1                           0.16624820830128 99.8512994834458 0.578802817643856 79.1721158595556 0.478343758575729 -7.96001843186004 0.639168302248154 -77.048518457558 
                               0.578802817643863 79.1721158595556 0.165174429932822 100.001605133333 0.478887741676272 -7.94016569689213 0.639039342007784 102.964726071657 
                               0.478343758575726 -7.9600184318597 0.478887741676268 -7.94016569689257 0.736106764342556 80.3522054298626 0.00091158232857095 13.9198449818118 
                               0.639168302248157 -77.0485184575581 0.639039342007782 102.964726071657 0.000911582328567304 13.9198449816407 0.427892289756795 134.631863156937 
10.125                         0.166984393502599 97.5114616236287 0.580939432734094 76.5284520055261 0.476325409383993 -10.8987334189545 0.638545009022893 -79.7152753698611 
                               0.580939432734102 76.528452005526  0.165954163554584 97.657986946868  0.476873870156931 -10.8798257013014 0.63840421706797 100.297476502831 
                               0.47632540938399 -10.8987334189541 0.476873870156927 -10.8798257013019 0.738718358476207 77.04903472518   0.00090066635268319 11.0828857077018 
                               0.638545009022896 -79.7152753698613 0.638404217067968 100.297476502832 0.000900666352679086 11.0828857075337 0.429766861179108 132.053366153409 
10.15                          0.167724483748846 95.1664085831695 0.583084309086564 73.8870689441432 0.474281369452386 -13.8348464994894 0.637917236626776 -82.3785236896467 
                               0.583084309086571 73.8870689441432 0.166738234594513 95.3092159025969 0.474834228747818 -13.8169384479044 0.637764487324266 97.6337817946537 
                               0.474281369452383 -13.834846499489 0.474834228747815 -13.8169384479049 0.741342720922557 73.7502973057131 0.000889757527938573 8.27992002332702 
                               0.637917236626778 -82.3785236896469 0.637764487324265 97.6337817946539 0.000889757527934081 8.27992002316551 0.43164487759897 129.476904550709 
10.175                         0.168467678453736 92.8161837101983 0.585237045171928 71.2478860417823 0.472212013554812 -16.7683373685832 0.637284930457813 -85.0383335814978 
                               0.585237045171935 71.2478860417823 0.167525786446837 92.9553476628346 0.472769177436262 -16.7514849089171 0.637120119124709 94.973572901221  
                               0.472212013554809 -16.7683373685828 0.472769177436258 -16.7514849089176 0.743978827185928 70.4561007349739 0.000878877772609991 5.51201746565138 
                               0.637284930457814 -85.038333581498 0.637120119124708 94.9735729012212 0.000878877772605188 5.51201746549989 0.43352638448087 126.902438248935 
10.2                           0.169213187217416 90.4608454743223 0.587397226424712 68.6108263794939 0.470117745295484 -19.6991873462663 0.636648034334144 -87.6947744671692 
                               0.587397226424719 68.6108263794939 0.168315970718406 90.5964529220842 0.470679105025048 -19.683447648944 0.636471078105637 92.316781458021  
                               0.470117745295479 -19.6991873462659 0.470679105025045 -19.6834476489445 0.746625633601829 67.1665435127913 0.000868049729674249 2.78022083181948 
                               0.636648034334145 -87.6947744671694 0.636471078105635 92.3167814580213 0.000868049729669216 2.78022083168108 0.43541142905779 124.329927389762 
10.225                         0.169960232239773 88.1004666443423 0.589564426760272 65.9758167032072 0.467998995470649 -22.6273795880914 0.636006490502055 -90.3479150505913 
                               0.589564426760278 65.9758167032072 0.169107949695392 88.2326165396966 0.468564427527394 -22.6128110352234 0.635817329178584 89.6633397514796 
                               0.467998995470644 -22.627379588091 0.46856442752739 -22.6128110352238 0.749282080859433 63.8817147549492 0.000857296742550357 0.0855361981793689 
                               0.636006490502056 -90.3479150505915 0.635817329178582 89.6633397514799 0.00085729674254518 0.0855361980567086 0.43730006024677 121.759332356974 
10.25                          0.170708050603135 85.7351334447735 0.591738210089186 63.342787365915  0.465856220367709 -25.5528992910589 0.635360239647112 -92.9978233421059 
                               0.591738210089192 63.3427873659151 0.169900898687225 85.8639366538423 0.466425586499161 -25.5395614433425 0.635158836516216 87.0131806892418 
                               0.465856220367704 -25.5528992910585 0.466425586499157 -25.539561443343 0.75194709747399 60.601693897459  0.000846642824406953 -2.57107833665526 
                               0.635360239647112 -92.9978233421062 0.635158836516214 87.0131806892421 0.000846642824401717 -2.57107833676006 0.439192328561032 119.190613777804 
10.275                         0.171455896416551 83.3649446994583 0.593918131824955 60.7116722617806 0.463689900005963 -28.4757338949764 0.634709220908751 -95.6445666821949 
                               0.593918131824961 60.7116722617807 0.17069400824028 83.4905237852744 0.464263047312461 -28.463687458565 0.634495563537607 84.36623777095   
                               0.463689900005959 -28.475733894976 0.464263047312458 -28.4636874585654 0.754619603199957 57.3265504243025 0.000836112619876734 -5.18872523569808 
                               0.634709220908751 -95.6445666821952 0.634495563537605 84.3662377709503 0.000836112619871524 -5.18872523578355 0.441088286018741 116.623732525097 
10.3                           0.172203042816054 80.9900109703052 0.596103740380901 58.0824087521358 0.46150053632322 -31.3958732794205 0.634053371898627 -98.2882117649652 
                               0.596103740380906 58.0824087521359 0.171486486216078 81.1124999390559 0.462077297374769 -31.3851800729584 0.633827472893158 81.7224450592734 
                               0.461500536323215 -31.39587327942  0.462077297374765 -31.3851800729589 0.757298512376612 54.0563436173154 0.00082573135792723 -7.76658145763821 
                               0.634053371898627 -98.2882117649654 0.633827472893157 81.7224450592737 0.000825731357922132 -7.76658145770369 0.44298798604847 114.058649720248 
10.325                         0.172948783817627 78.6104536988136 0.598294578652178 55.4549375833778 0.459288651312416 -34.3133099565029 0.633392628723021 -100.928824661658 
                               0.598294578652183 55.4549375833779 0.172277559730995 78.7299977120059 0.459868844297589 -34.3040328785503 0.633154526449488 79.0817371509442 
                               0.459288651312412 -34.3133099565025 0.459868844297585 -34.3040328785507 0.759982737198873 50.7911223267544 0.000815524794574825 -10.3039137274841 
                               0.63339262872302 -100.928824661659 0.633154526449486 79.0817371509445 0.000815524794569919 -10.3039137275297 0.444891483391414 111.495326736925 
10.35                          0.173692436021889 76.2264043575713 0.600490185478793 52.8292027968079 0.457054785112359 -37.2280392596773 0.632726926009606 -103.566470844447 
                               0.600490185478798 52.8292027968081 0.173066476956775 76.3431594130962 0.457638214018678 -37.2202422567722 0.632476685274617 76.4440491475589 
                               0.457054785112354 -37.2280392596769 0.457638214018676 -37.2202422567726 0.762671190906954 47.5309247609706 0.000805519144102397 -12.8000950836164 
                               0.632726926009605 -103.566470844448 0.632476685274615 76.4440491475592 0.000805519144097757 -12.800095083643 0.446798834000386 108.93372520555  
10.375                         0.174433340171772 73.8380036183304 0.602690097085535 50.2051516304962 0.454799494056608 -40.1400595288516 0.632056196938842 -106.201215210782 
                               0.602690097085539 50.2051516304964 0.173852508783296 73.9521362034088 0.455385948881747 -40.1338075644856 0.631793909623786 73.8093166259026 
                               0.454799494056604 -40.1400595288512 0.455385948881744 -40.1338075644859 0.765362790889355 44.2757782935226 0.000795740997460938 -15.2546225839871 
                               0.63205619693884 -106.201215210783 0.631793909623784 73.8093166259029 0.000795740997456634 -15.2546225839967 0.448710094935605 106.373807018531 
10.4                           0.175170862566561 71.4454005426191 0.604893848494738 47.5827344132962 0.452523348684458 -43.0493722920899 0.631380373280269 -108.833122108542 
                               0.604893848494742 47.5827344132964 0.174634950347152 71.5570872615745 0.453112605677467 -43.0447313169002 0.63110615892624 71.1774756075665 
                               0.452523348684454 -43.0493722920896 0.453112605677465 -43.0447313169005 0.768056461694451 41.0256992859927 0.000786217226613714 -17.6671359866129 
                               0.631380373280267 -108.833122108542 0.631106158926238 71.1774756075668 0.000786217226609805 -17.6671359866081 0.450625324257259 103.815534336234 
10.425                         0.175904396337663 69.0487518001218 0.607100974907792 44.9619044511779 0.450226931717882 -45.955982444208 0.630699385433935 -111.462255362231 
                               0.607100974907795 44.9619044511781 0.175413122431484 69.1581789798505 0.450818753649585 -45.9530193677179 0.63041339177331 68.5484625276338 
                               0.450226931717879 -45.9559824442077 0.450818753649583 -45.953019367718 0.770751137946676 37.7806929247187 0.000776974873729514 -20.0374371420675 
                               0.630699385433933 -111.462255362231 0.630413391773309 68.5484625276341 0.000776974873726048 -20.0374371420521 0.452544580914776 101.2588695937   
10.45                          0.176633362593212 66.6482209192903 0.609311013051344 42.3426179060898 0.447910836008261 -48.8598984225738 0.630013162477187 -114.088678300469 
                               0.609311013051347 42.34261790609   0.176186372744236 66.7555841951936 0.448504972469801 -48.8586810868446 0.62971556590814 65.922214202221  
                               0.447910836008258 -48.8598984225735 0.448504972469799 -48.8586810868448 0.773445767163933 34.5407530696284 0.000768041024360716 -22.365509749998 
                               0.630013162477185 -114.088678300469 0.629715565908138 65.9222142022212 0.000768041024357731 -22.3655097499765 0.454467924632745 98.7037755080859 
10.475                         0.177357211440106 64.2439775738446 0.611523502484159 39.7248336676057 0.445575662456576 -51.7611323804348 0.629321632217022 -116.712453784978 
                               0.611523502484161 39.7248336676059 0.176954077083403 64.349481458853  0.446171850185059 -51.7617295360231 0.629012638217363 63.2986677946757 
                               0.445575662456575 -51.7611323804345 0.446171850185059 -51.7617295360233 0.776139312473384 31.3058621133519 0.000759442664061635 -24.6515390405208 
                               0.62932163221702 -116.712453784978 0.629012638217361 63.298667794676  0.000759442664059151 -24.6515390404984 0.456395415793331 96.1502150868459 
10.5                           0.178075422893342 61.8361969080053 0.613737986860648 37.1085132176574 0.443222017910763 -54.6597003580913 0.628624721248183 -119.333644241293 
                               0.61373798686065 37.1085132176575 0.17771564039905 61.9400543471658 0.443819981140786 -54.6621816427363 0.628304564725077 60.6777607802463 
                               0.443222017910762 -54.6597003580911 0.443819981140786 -54.6621816427364 0.778830755223247 28.0759908487992 0.000751206518319519 -26.8959308488114 
                               0.628624721248181 -119.333644241293 0.628304564725075 60.6777607802464 0.000751206518317546 -26.8959308487937 0.458327115315046 93.5981516366471 
10.525                         0.178787507683406 59.4250589024784 0.615954015147125 34.4936204886984 0.440850513043768 -57.555622452234 0.627922355017148 -121.952311691367 
                               0.615954015147127 34.4936204886985 0.178470497762725 59.5274908153975 0.441449963883556 -57.5600583727328 0.627591300589406 58.0594309090544 
                               0.440850513043767 -57.5556224522338 0.441449963883556 -57.5600583727329 0.78151909748858 24.8510983434205 0.000743358876186646 -29.0993294627813 
                               0.627922355017147 -121.952311691367 0.627591300589404 58.0594309090545 0.000743358876185177 -29.0993294627746 0.460263084527635 91.0475487730248 
10.55                          0.179493007973129 57.0107477824151 0.618171142786923 31.8801217156917 0.438461760215861 -60.4489229837516 0.627214457892152 -124.56851778826 
                               0.618171142786924 31.8801217156917 0.179218115255455 57.1119825956597 0.439062399046634 -60.4553849015142 0.62687280010198 55.4436161672242 
                               0.438461760215861 -60.4489229837514 0.439062399046635 -60.4553849015142 0.784203364469276 21.6311318184096 0.000735925398612762 -31.2626335463259 
                               0.62721445789215 -124.56851778826 0.626872800101978 55.4436161672243 0.000735925398611775 -31.2626335463366 0.462203385042848 88.4983704307892 
10.575                         0.180191497995714 54.5934514677993 0.620388932810577 29.2679852823531 0.436056371324675 -63.3396306643071 0.626500953239337 -127.182323853046 
                               0.620388932810578 29.2679852823531 0.179957990785731 54.6937246391508 0.436657887221774 -63.3481907851149 0.626149016690603 52.8302547360355 
                               0.436056371324676 -63.339630664307 0.436657887221774 -63.3481907851149 0.786882606778692 18.4160265311746 0.000728930913170604 -33.3870093822248 
                               0.626500953239336 -127.182323853046 0.626149016690602 52.8302547360355 0.000728930913170061 -33.3870093822591 0.464148078620761 85.9505808751919 
10.6                           0.180882584625631 52.1733610659909 0.622606956887404 26.6571815621336 0.433634955646399 -66.2277787619589 0.625781763505127 -129.793790914081 
                               0.622606956887406 26.6571815621336 0.180689654848854 52.272914602243  0.434237026820617 -66.2385101304842 0.625419902925409 50.2192849489955 
                               0.4336349556464  -66.2277787619589 0.434237026820618 -66.2385101304842 0.789555902621362 15.2057056594767 0.000722399197621939 -35.4739006480643 
                               0.625781763505126 -129.79379091408 0.625419902925408 50.2192849489954 0.000722399197621789 -35.4739006481283 0.466097227031299 83.4041447138674 
10.625                         0.18156590789381 49.7506704054873 0.624824796314895 24.0476827544582 0.43119811767155 -69.1134052660827 0.625056810304865 -132.402979748726 
                               0.624824796314897 24.047682754458  0.181412671238606 49.8497523752638 0.431800411929043 -69.1263817657625 0.624685410528775 47.6106452467443 
                               0.431198117671552 -69.1134052660826 0.431800411929044 -69.1263817657624 0.79222235985828 12.0000801857279 0.000716352755556079 -37.5250339441783 
                               0.625056810304865 -132.402979748726 0.624685410528774 47.6106452467441 0.000716352755556257 -37.5250339442775 0.468050891910553 80.8590269095681 
10.65                          0.18224114145794 47.3255756093643 0.62704204294251 21.4394627167855 0.428746454938711 -71.9965530518265 0.624326014517768 -135.009950927616 
                               0.627042042942511 21.4394627167853 0.182126637721586 47.4244396522237 0.429348630157761 -72.011849410716 0.623945490389244 45.0042741297323 
                               0.428746454938714 -71.9965530518266 0.429348630157762 -72.0118494107159 0.794881117958069 8.7990487800442  0.000710812588106103 -39.542419342228 
                               0.624326014517768 -135.009950927616 0.623945490389242 45.004274129732  0.000710812588106533 -39.5424193423668 0.470009134611396 78.3151927937115 
10.675                         0.182907993037917 44.8982747063313 0.629258300026599 18.8324967930903 0.42628055586962 -74.8772700443012 0.623589296388187 -137.614764861521 
                               0.6292583000266  18.83249679309   0.18283118668365 44.9971795392215 0.426882260492498 -74.8949618475672 0.62320009257972 42.4001101086353 
                               0.426280555869623 -74.8772700443013 0.426882260492499 -74.8949618475671 0.797531349832215 5.60249768076511 0.000705797966460505 -41.5283453222832 
                               0.623589296388187 -137.614764861521 0.623200092579719 42.4001101086348 0.000705797966461102 -41.5283453224653 0.471972016047905 75.7726080807656 
10.7                           0.183566204825371 42.4689672768873 0.631473183013362 16.2267616394046 0.423800997609022 -77.7556093826758 0.622846575633173 -140.217481850835 
                               0.631473183013364 16.2267616394043 0.183525985756763 42.5681761988162 0.424401871147092 -77.7757730924259 0.622449166380158 39.7980916524947 
                               0.423800997609025 -77.7556093826759 0.424401871147093 -77.7757730924257 0.800172263552229 2.41030057127656 0.000701326210484412 -43.4853676174971 
                               0.622846575633174 -140.217481850834 0.622449166380157 39.7980916524943 0.000701326210485087 -43.4853676177246 0.473939596532978 73.2312388834957 
10.725                         0.184215553875051 40.0378541317069 0.633686320246946 13.6222350470951 0.421308343872694 -80.631629584312 0.622097771556318 -142.818162137689 
                               0.633686320246947 13.6222350470946 0.184210738433307 40.1376345273081 0.421908017422884 -80.6543425674868 0.621692660304982 37.198157134604  
                               0.421308343872697 -80.6316295843122 0.421908017422885 -80.6543425674866 0.802803103946279 -0.777681547884935 0.000697412479188254 -45.4162916868042 
                               0.622097771556318 -142.818162137689 0.62169266030498 37.1981571346034 0.000697412479188913 -45.4162916870779 0.475911935608541 70.6910517291076 
10.75                          0.184855852484401 37.6051370190993 0.635897353599998 11.0188957645783 0.418803142807127 -83.5053947090357 0.621342803167795 -145.416865960672 
                               0.635897353599999 11.0188957645778 0.184885184673393 37.7057598616011 0.41940123957781 -83.5307352741281 0.620930522135435 34.6002447761801 
                               0.418803142807129 -83.5053947090359 0.41940123957781 -83.5307352741278 0.805423154072412 -3.96160049252745 0.000694069578979816 -47.3241487806903 
                               0.621342803167796 -145.416865960671 0.620930522135434 34.6002447761794 0.000694069578980367 -47.3241487810093 0.477889091867616 68.1520135763144 
10.775                         0.18548694856625 35.1710183581987 0.638105939024226 8.41672331821402 0.416285924864349 -86.3769745235963 0.620581589310558 -148.013653612081 
                               0.638105939024229 8.41672331821337 0.185549101509252 35.2727577121488 0.416882060708675 -86.4050219669948 0.620162698957077 32.0042925878977 
                               0.416285924864352 -86.3769745235966 0.416882060708675 -86.4050219669945 0.808031736564992 -7.14162103461696 0.000691307795564917 -49.2121658409244 
                               0.620581589310559 -148.01365361208 0.620162698957076 32.0042925878969 0.000691307795565274 -49.2121658412861 0.479871122767549 65.6140918333678 
10.8                           0.18610872601794 32.735700994429  0.640311747018754 5.81569783313397 0.413757200695519 -89.2464446663289 0.619814048792581 -150.608585497644 
                               0.640311747018757 5.81569783313324 0.186202303649099 32.8388335183866 0.414350984650172 -89.2772793291149 0.619389137202611 29.4102383093816 
                               0.413757200695521 -89.2464446663292 0.414350984650172 -89.2772793291146 0.810628214850448 -10.3179210489698 0.000689134754995248 -51.0837297655046 
                               0.619814048792582 -150.608585497643 0.619389137202611 29.4102383093807 0.000689134754995333 -51.0837297659048 0.481858084433556 63.0772543770896 
10.825                         0.186721105088712 30.2993879737579 0.642514463014324 3.21579985479562 0.41121745906692 -92.11388681198  0.619040100525051 -153.201722198579 
                               0.642514463014327 3.21579985479481 0.186844644081322 30.4041924230457 0.411808493894284 -92.147590148045 0.618609782700222 26.8180193467892 
                               0.411217459066922 -92.1138868119804 0.411808493894284 -92.1475901480447 0.813211994227836 -13.4906916672083 0.000687555318692863 -52.9423468546524 
                               0.619040100525053 -153.201722198578 0.618609782700222 26.8180193467882 0.000687555318692609 -52.9423468550853 0.483850031451772 60.5414695729461 
10.85                          0.187324042745575 27.8622823322971 0.644713787671685 0.617010172065112 0.408667164802179 -94.9793888366145 0.618259663666404 -155.793124535858 
                               0.644713787671688 0.617010172064216 0.187476014678191 27.9690390618108 0.409255047533849 -95.0160434929936 0.617824580727611 24.2275727086401 
                               0.408667164802181 -94.9793888366149 0.409255047533848 -95.0160434929933 0.81578252280906 -16.6601374391854 0.000686571516327254 -54.7915985105964 
                               0.618259663666406 -155.793124535857 0.617824580727611 24.227572708639  0.000686571516326613 -54.7915985110549 0.485847016650891 58.0067062962109 
10.875                         0.187917533036434 25.4245868979192 0.646909437092776 -1.98069035734841 0.406106756754575 -97.8430449824686 0.617472657772055 -158.382853636489 
                               0.646909437092779 -1.98069035734936 0.188096346796787 25.5335773649099 0.406691079234173 -97.8827348928239 0.617033476071885 21.6388349400773 
                               0.406106756754577 -97.843044982469 0.406691079234171 -97.8827348928235 0.818339292312898 -19.8264765018985 0.000686182519225692 -56.6350944718587 
                               0.617472657772056 -158.382853636488 0.617033476071885 21.6388349400761 0.000686182519224635 -56.6350944723343 0.487849090871462 55.472933954261  
10.9                           0.188501607447817 22.9865041007341 0.649101142943619 -4.57732097826848 0.403536645813526 -100.704956022559 0.616679002949719 -160.970971001628 
                               0.649101142943623 -4.5773209782695 0.188705611873392 23.0980103674294 0.404116995236759 -100.747766514776 0.61623641309547 19.0517420557775 
                               0.403536645813527 -100.70495602256 0.404116995236758 -100.747766514776 0.820881838706278 -22.9899407557117 0.000686384655625776 -58.4764250036994 
                               0.616679002949721 -160.970971001627 0.61623641309547 19.0517420557763 0.000686384655624293 -58.4764250041831 0.489856302721851 52.9401225100591 
10.925                         0.189076335253291 20.5482357894926 0.651288652488136 -7.17290120539383 0.400957212949441 -103.56522942481 0.615878620020167 -163.557538576273 
                               0.651288652488139 -7.17290120539489 0.189303822006295 20.6625400253904 0.401533172399367 -103.611247343707 0.615433335808203 16.4662294717524 
                               0.400957212949441 -103.56522942481 0.401533172399365 -103.611247343707 0.823409742685415 -26.1507760475095 0.000687171467613682 -60.3191135276346 
                               0.615878620020168 -163.557538576272 0.615433335808204 16.4662294717511 0.000687171467611788 -60.3191135281168 0.491868698319867 50.4082425068707 
10.95                          0.189641823847492 18.1099830512582 0.653471728532416 -9.76745098575291 0.398368807301379 -106.423979515392 0.615071430683277 -166.142618820284 
                               0.65347172853242 -9.76745098575399 0.18989103052079 18.2273670349188 0.398939956276842 -106.473293361573 0.61462418794576 13.8822319363127 
                               0.398368807301378 -106.423979515393 0.39893995627684 -106.473293361572 0.825922629988668 -29.3092423601858 0.000688533808124644 -62.1665711488715 
                               0.615071430683279 -166.142618820283 0.614624187945761 13.8822319363114 0.000688533808122377 -62.1665711493425 0.493886321018987 47.8772650942738 
10.975                         0.190198219059745 15.6719460319922 0.65565014927929 -12.3609908554174 0.395771744312129 -109.281327640931 0.614257357689256 -168.726274780435 
                               0.655650149279293 -12.3609908554185 0.190467332509211 15.7926906521734 0.396337659247364 -109.334027726842 0.613808913054572 11.2996834604939 
                               0.395771744312128 -109.281327640932 0.396337659247361 -109.334027726842 0.828420171532061 -32.4656140076566 0.000690459975006721 -64.0220544333207 
                               0.614257357689257 -168.726274780433 0.613808913054573 11.2996834604926 0.000690459975004146 -64.0220544337711 0.495909211118105 45.3471620555147 
11                             0.190745705440441 13.2343237560348 0.657823708093345 -14.9535420896196 0.393166303915601 -112.137402329149 0.613436325014869 -171.308570163174 
                               0.657823708093349 -14.9535420896207 0.191032865338029 13.3587085120526 0.393726558689036 -112.19358095345 0.612987454583389 8.7185172482715  
                               0.3931663039156  -112.13740232915 0.393726558689033 -112.193580953449 0.830902083357583 -35.620179834351 0.00069293587794929 -65.8886276052093 
                               0.613436325014869 -171.308570163172 0.612987454583389 8.71851724827021 0.000692935877946489 -65.8886276056305 0.497937405553717 42.8179058362712 
11.025                         0.191284506512772 10.7973139428148 0.659992213176887 -17.5451268454243 0.390552728781688 -114.992339447489 0.612608258044578 -173.88956940775 
                               0.65999221317689 -17.5451268454253 0.191587809113521 10.9256164440752 0.391106895212009 -115.052091088847 0.612159755981638 6.13866562691736 
                               0.390552728781686 -114.992339447489 0.391106895212005 -115.052091088847 0.833368126383412 -38.7732434178928 0.000695945233121746 -67.7691300981937 
                               0.612608258044578 -173.889569407749 0.612159755981638 6.13866562691614 0.000695945233118829 -67.7691300985781 0.499970937573425 40.2894695748804 
11.05                          0.191814884982006 8.36111281948535 0.662155487157622 -20.1357682961139 0.387931222624073 -117.846282359161 0.611773083756436 -176.469337759326 
                               0.662155487157625 -20.1357682961148 0.192132387097135 8.49360828421646 0.388478870951655 -117.909703890656 0.611325760804751 3.56005997787803 
                               0.387931222624071 -117.846282359161 0.388478870951652 -117.909703890656 0.835818105944277 -41.9251232734349 0.00069946977970124 -69.6661501173872 
                               0.611773083756435 -176.469337759325 0.611325760804752 3.56005997787688 0.00069946977969833 -69.6661501177287 0.502009836389633 37.7618271340949 
11.075                         0.19233714289433 5.92591492854579 0.66431336658918 -22.7254907564564 0.38530194857682 -120.699382076028 0.610930730912645 -179.047941341665 
                               0.664313366589182 -22.7254907564573 0.192666866061567 6.06287568186513 0.385842647928692 -120.766573001346 0.610485412826608 0.982630668578239 
                               0.385301948576817 -120.699382076028 0.385842647928689 -120.766573001346 0.83825187110917 -45.0761530578389 0.000703489512111127 -71.5820045788278 
                               0.610930730912645 -179.047941341664 0.610485412826608 0.9826306685772  0.00070348951210836 -71.5820045791222 0.504054126812339 35.2349531344296 
11.1                           0.192851621737263 3.49191292987032 0.666465701365886 -25.3143197980417 0.382665027645952 -123.551797407668 0.610081130254665 178.374552771014 
                               0.666465701365888 -25.3143197980425 0.193191556578659 3.6336079014433  0.383198346482507 -123.622860120317 0.609638656159273 -1.59369301442113 
                               0.38266502764595 -123.551797407669 0.383198346482505 -123.622860120316 0.840669313762591 -48.2266817716126 0.000707982921739873 -73.5187255078772 
                               0.610081130254664 178.374552771014 0.609638656159274 -1.59369301442197 0.000707982921737395 -73.5187255081218 0.506103828859894 32.7088229891621 
11.125                         0.19335870247389 1.05929739690796 0.668612354053511 -27.9022823538871 0.380020537242701 -126.403695105877 0.609224214702797 175.798076483489 
                               0.668612354053511 -27.9022823538877 0.193706813230512 1.20599161859531 0.380546043784438 -126.478735172688 0.608785435380209 -4.16898293045813 
                               0.380020537242698 -126.403695105877 0.380546043784437 -126.478735172688 0.843070367434451 -51.3770739562217 0.000712927242136809 -75.4780527173739 
                               0.609224214702796 175.79807648349  0.608785435380209 -4.16898293045888 0.000712927242134768 -75.4780527175682 0.508158957346656 30.1834129410519 
11.15                          0.193858805503537 -1.37174339285393 0.670753199138006 -30.489406811538 0.377368509805538 -129.255250003835 0.608359919560168 173.222560610761 
                               0.670753199138005 -30.4894068115384 0.194213034735713 -1.21978928880807 0.377885772438196 -129.334376474047 0.607925695667135 -6.7433121475237 
                               0.377368509805535 -129.255250003835 0.377885772438196 -129.334376474047 0.845455005862656 -54.527709884074 0.000718298692142978 -77.4614323642976 
                               0.608359919560166 173.222560610762 0.607925695667135 -6.7433121475242 0.000718298692141515 -77.4614323644432 0.510219521446462 27.658700100843  
11.175                         0.194352390542057 -3.80102367276903 0.67288812219453 -33.0757230939092 0.374708931518694 -132.106645149096 0.607488182721066 170.647934811549 
                               0.672888122194528 -33.0757230939095 0.194710663983235 -3.64355395428921 0.375217519175207 -132.189970890334 0.607059382940749 -9.3167550022371 
                               0.374708931518692 -132.106645149097 0.375217519175207 -132.189970890334 0.84782324127127 -57.6789857381425 0.000724072712058148 -79.4700208093964 
                               0.607488182721064 170.64793481155  0.607059382940749 -9.31675500223738 0.000724072712057397 -79.4700208094967 0.512285524230916 25.134662487615  
11.2                           0.194839956415629 -6.22836040658988 0.67501701897936 -35.6612627271444 0.372041741135412 -134.958071929468 0.60660894488361 168.074127524589 
                               0.675017018979357 -35.6612627271445 0.19520018796743 -6.06512474016595 0.372541223653212 -135.04571399198 0.606186444015488 -11.8893871565283 
                               0.372041741135411 -134.958071929468 0.372541223653213 -135.04571399198 0.850175122346017 -60.831313777837 0.000730224188709979 -81.5046930817275 
                               0.606608944883607 168.074127524589 0.606186444015488 -11.8893871565284 0.000730224188710053 -81.5046930817877 0.514356962181496 22.6112790710466 
11.225                         0.195322040762791 -8.65357351179891 0.677139794447524 -38.2460588947951 0.369366828914838 -137.809730190834 0.605722149766723 165.501065908258 
                               0.67713979444752 -38.2460588947949 0.195682137618485 -8.48432745764834 0.369856777367142 -137.90181020138 0.605306826758572 -14.4612856504908 
                               0.369366828914837 -137.809730190834 0.369856777367145 -137.90181020138 0.852510731887668 -63.9851224873509 0.000736727666120363 -83.5660551787556 
                               0.605722149766719 165.501065908258 0.60530682675857 -14.4612856504905 0.000736727666121349 -83.5660551787822 0.51643382467459 20.0885298156563 
11.25                          0.19579921964036 -11.0764860856062 0.67925636169928 -40.8301464776575 0.366684035682168 -140.661828345888 0.604827744331444 162.928675784104 
                               0.679256361699274 -40.8301464776571 0.196157087523808 -10.9009915883363 0.367164022681981 -140.758472932673 0.60442048025753 -17.0325289508499 
                               0.366684035682169 -140.661828345887 0.367164022681985 -140.758472932673 0.854830184122721 -67.1408567023058 0.000743557539305109 -85.6544594082459 
                               0.604827744331439 162.928675784104 0.604420480257528 -17.0325289508494 0.00074355753930706 -85.6544594082469 0.518516093438602 17.5663957270826 
11.275                         0.196272107029965 -13.4969246323442 0.681366640858805 -43.4135620786398 0.363993152022406 -143.514583472694 0.60392567900661 160.356881584845 
                               0.681366640858797 -43.4135620786391 0.196625655537006 -13.3149505056621 0.364462751998105 -143.615924722811 0.60352735499647 -19.6031969944819 
                               0.363993152022409 -143.514583472693 0.36446275199811 -143.615924722811 0.857133621649548 -70.2989777100842 0.000750688229552463 -87.7700219937797 
                               0.603925679006605 160.356881584844 0.603527354996468 -19.6031969944811 0.000750688229555391 -87.7700219937635 0.520603741982391 15.0448589004648 
11.3                           0.196741354242937 -15.9147192908622 0.683470557888707 -45.9963440320644 0.361293917618925 -146.368221401956 0.603015907918959 157.785606307429 
                               0.683470557888698 -45.9963440320636 0.19708850227232 -15.7260416946961 0.361752707060445 -146.474397352793 0.602627403041322 -22.1733712263918 
                               0.361293917618929 -146.368221401956 0.361752707060451 -146.474397352793 0.859421211997045 -73.4599633187712 0.000758094340270114 -89.9126422129669 
                               0.603015907918954 157.785606307428 0.602627403041319 -22.1733712263908 0.000758094340273982 -89.9126422129424 0.52269673499437 12.5239025709847 
11.325                         0.197207649222472 -18.3297040604416 0.685568043344196 -48.578532396858 0.358586020748891 -149.222976791823 0.602098389127746 155.214771471778 
                               0.685568043344186 -48.5785323968569 0.1975463304837  -18.1341069686609 0.359033578423692 -149.334131957922 0.601720578234313 -24.743134631558 
                               0.358586020748896 -149.222976791822 0.359033578423699 -149.334131957923 0.861693143771664 -76.624307889138 0.000765750793146403 -92.0820224075801 
                               0.602098389127741 155.214771471777 0.601720578234311 -24.7431346315567 0.000765750793151119 -92.0820224075558 0.524795027711737 10.0035111666254 
11.35                          0.197671715743087 -20.7417170237048 0.687659031070985 -51.1601689331136 0.355869097948569 -152.07909318901 0.601173084863976 152.64429708582  
                               0.687659031070974 -51.1601689331124 0.197999884328949 -20.5389926804597 0.356305005086751 -152.195379125907 0.600806836397962 -27.3125717600278 
                               0.355869097948575 -152.079093189009 0.356305005086759 -152.195379125907 0.863949622367638 -79.7925223235639 0.000773632944926116 -94.2776882894831 
                               0.601173084863971 152.644297085819 0.600806836397959 -27.3125717600265 0.000773632944931526 -94.2776882894668 0.526898565259402 7.48367036320247 
11.375                         0.198134312508501 -23.150600564986 0.689743456851218 -53.7412970615625 0.353142733862489 -154.936823075028 0.600239961774365 150.074101617453 
                               0.689743456851207 -53.7412970615612 0.198449948520647 -22.9405499275337 0.353566574310656 -155.058398981575 0.59988613554883 -29.8817687446469 
                               0.353142733862496 -154.936823075027 0.353566574310665 -155.058398981575 0.866190865214264 -82.9651340052363 0.000781716685550041 -96.4990090579798 
                               0.60023996177436 150.074101617452 0.599886135548827 -29.8817687446453 0.000781716685555924 -96.4990090579777 0.529007281958351 4.96436714171597 
11.4                           0.198596232150153 -25.5562015826552 0.691821257001927 -56.32196180553  0.350406461291529 -157.796427896241 0.599298991170188 147.504101974074 
                               0.691821257001916 -56.3219618055287 0.198897347366787 -25.3386347484062 0.350817821635265 -157.923461256974 0.598958436121351 -32.4508133107865 
                               0.350406461291537 -157.796427896241 0.350817821635274 -157.923461256974 0.868417096533238 -86.1426866803636 0.000789978518752246 -98.7452169368941 
                               0.599298991170184 147.504101974073 0.598958436121348 -32.4508133107849 0.000789978518758308 -98.7452169369105 0.531121100603312 2.44558984807372 
11.425                         0.199058300129593 -27.9583716939574 0.693892366930729 -58.9022097150039 0.347659761456048 -160.658178076509 0.598350149281155 144.934213490335 
                               0.693892366930718 -58.9022097150026 0.199342943705201 -27.7331083093573 0.348058231111145 -160.790845345599 0.598023701201986 -35.0197947774368 
                               0.347659761456055 -160.658178076509 0.348058231111153 -160.7908453456  0.870628541578464 -89.3257402755063 0.000798395626456985 -101.015425828617 
                               0.598350149281151 144.934213490333 0.598023701201983 -35.0197947774352 0.000798395626462859 -101.015425828653 0.533239931709772 -0.0726717447753611 
11.45                          0.199521373548925 -30.3569674310126 0.695956719653697 -61.4820887724909 0.344902064491297 -163.52235301116 0.597393417514497 142.364349924769 
                               0.695956719653687 -61.4820887724898 0.199787637736933 -30.1238370797861 0.345287235764276 -163.660840339503 0.597081896774015 -37.5888040490173 
                               0.344902064491303 -163.522353011159 0.345287235764283 -163.660840339503 0.872825420330346 -92.5148706414578 0.000806945918478321 -103.308648864142 
                               0.597393417514495 142.364349924768 0.597081896774013 -37.588804049016 0.000806945918483557 -103.308648864197 0.535363672730592 -2.59042637225865 
11.475                         0.199986339874316 -32.7518504267482 0.698014244280531 -64.061648280387 0.342132750193532 -166.38924104107 0.596428782719433 139.794423465964 
                               0.698014244280524 -64.0616482803863 0.200232365764692 -32.5106929949653 0.342504218312362 -166.533745048054 0.596132991973231 -40.1579335972608 
                               0.342132750193536 -166.389241041069 0.342504218312366 -166.533745048054 0.875007940616582 -95.7106692144041 0.000815608069112102 -105.623814700691 
                               0.596428782719432 139.794423465963 0.59613299197323 -40.1579335972599 0.000815608069116173 -105.62381470076 0.537492207242639 -5.10768121111681 
11.5                           0.200454115578374 -35.142887589678 0.700064864472374 -66.6409387296443 0.339351149036346 -169.259139405671 0.595456237457198 137.224344748924 
                               0.70006486447237 -66.6409387296442 0.20067809884334 -34.8935536050659 0.339708512152786 -169.40986799717 0.595176959354814 -42.7272774325191 
                               0.339351149036346 -169.259139405671 0.339708512152786 -169.40986799717 0.877176290631877 -98.913742584359 0.000824361542234418 -107.959782480803 
                               0.595456237457198 137.224344748924 0.595176959354816 -42.7272774325188 0.000824361542236712 -107.959782480876 0.539625404104108 -7.62444180983624 
