! Touchstone file exported from HFSS 2025.2.4
!        File:           C:/Users/chaoy/Documents/single_magictee_v2_stageA/g2_4p60mm_lt_7p50mm/single_magictee_v2.aedt
!        Generated:      02:56:34 PM Sep 19, 2026
!        Design:         SingleMagicT_v2
!        Project:        single_magictee_v2
!
! Variables:
!        f_adapt = 10.2GHz
!        ridge_g1 = 7.672mm
!        ridge_g2 = 4.6mm
!        ridge_l1 = 9.872mm
!        ridge_l2 = 8.857mm
!        ridge_w = 4.572mm
!        terminal_ridge_len = 7.5mm
!        wg_a = 22.86mm
!        wg_b = 10.16mm
!
!Data is not renormalized
# GHz S MA
! Terminal data exported
! Port[1] = P1_CollinearMinusX
! Port[2] = P2_CollinearPlusX
! Port[3] = P3_HArm_Ridged
! Port[4] = P4_EArm
9                              0.183524456583304 -159.613207523749 0.533678238941602 -160.018371326493 0.492772129622496 90.927754673868  0.662330687333227 45.2676409365424 
                               0.5336782389416  -160.018371326494 0.182699280984569 -159.167892068103 0.493355540734614 90.9917654881189 0.662124475030463 -134.598279142151 
                               0.492772129622497 90.9277546738684 0.493355540734618 90.9917654881185 0.716781129797558 161.777519217969 0.000866406314063559 141.894658291554 
                               0.662330687333226 45.2676409365423 0.662124475030465 -134.598279142151 0.000866406314061731 141.894658291361 0.350583070786979 -108.984553089443 
9.025                          0.18338482448057 -162.11088870631 0.535214737016403 -162.913303519724 0.491761886376138 87.7987340726442 0.661881262647815 42.3591103895137 
                               0.535214737016436 -162.913303519726 0.182573674626548 -161.667021810747 0.492344724378966 87.8626619525588 0.66167218363198 -137.50732109642 
                               0.491761886376112 87.798734072641  0.492344724378991 87.8626619525618 0.718166885028581 158.313520182363 0.000862864938323771 138.544077539146 
                               0.661881262648021 42.3591103895177 0.661672183632197 -137.507321096423 0.000862864938311811 138.544077536755 0.352280687600108 -111.702988125466 
9.05                           0.183259513575705 -164.602300992559 0.53675687207799 -165.800001525686 0.490736703730571 84.6742267850763 0.661428516718235 39.4584988232578 
                               0.536756872078045 -165.800001525688 0.182462707008271 -164.159967927774 0.491319022176852 84.7380837563235 0.661216472990925 -140.408442200437 
                               0.49073670373053 84.6742267850711 0.49131902217689 84.7380837563285 0.71956815773003 154.851446873406 0.000859197044470077 135.197474627123 
                               0.661428516718568 39.4584988232643 0.661216472991274 -140.408442200442 0.000859197044449939 135.197474623273 0.353982012124273 -114.417107058808 
9.075                          0.183148563746093 -167.08780674146 0.538304861187441 -168.67866235999 0.489696357079165 81.5542251618514 0.660972420016247 36.5656705230415 
                               0.53830486118751 -168.678662359993 0.182366439584272 -166.647093536327 0.490278213965923 81.6180226303779 0.660757303651112 -143.301777943947 
                               0.489696357079115 81.5542251618452 0.490278213965967 81.6180226303839 0.720984882605959 151.391480754047 0.000855403104683915 131.855304658603 
                               0.660972420016644 36.5656705230492 0.660757303651527 -143.301777943953 0.000855403104657634 131.8553046539   0.355686991537499 -117.126978123947 
9.1                            0.183051950955053 -169.567760682257 0.539858891639532 -171.549480986444 0.488640645178417 78.4387191807757 0.660512945895946 33.6804904093432 
                               0.539858891639605 -171.549480986446 0.182284869380736 -169.128753827165 0.489222102679595 78.502467909572  0.660294639295718 -146.187463152991 
                               0.488640645178366 78.4387191807693 0.489222102679642 78.5024679095782 0.722416979814499 147.93379837753  0.000851483515733537 128.518019368157 
                               0.660512945896362 33.6804904093512 0.660294639296151 -146.187463152997 0.000851483515703132 128.518019363089 0.35739558055898 -119.832668456031 
9.125                          0.182969591745436 -172.042509034505 0.541419121326066 -174.412649891743 0.487569391690206 75.3276968629808 0.660050070052077 30.8028243137075 
                               0.54141912132614 -174.412649891746 0.182217933474088 -171.6052951856  0.488150515894794 75.3914069492291 0.659828446200484 -149.065631711523 
                               0.487569391690157 75.3276968629748 0.488150515894839 75.3914069492349 0.723864351417477 144.478571443043 0.000847438625936654 125.186069363681 
                               0.660050070052477 30.8028243137151 0.659828446200898 -149.065631711529 0.000847438625904043 125.186069358628 0.359107740916422 -122.534244092964 
9.15                           0.182901347549244 -174.512388725605 0.542985679213244 -177.268358706031 0.486482446554636 72.2211446388647 0.659583770026787 27.9325392204981 
                               0.542985679213313 -177.268358706034 0.182165513282309 -174.077054411234 0.487063307209599 72.2848254914484 0.659358692738528 -151.936416317347 
                               0.486482446554592 72.2211446388595 0.48706330720964 72.2848254914534 0.725326878176126 141.025966816603 0.000843268764411896 121.859906301149 
                               0.659583770027149 27.9325392205049 0.659358692738901 -151.936416317352 0.000843268764378826 121.859906296396 0.360823440849481 -125.231769981662 
9.175                          0.18284702881379 -176.977726698867 0.544558665923   179.883206133123 0.485379687189079 69.119047665082  0.659114024762653 25.0695034767413 
                               0.544558665923062 179.883206133121 0.182127438669504 -176.544358029389 0.485960357446351 69.1827079824469 0.658885348934469 -154.799948270185 
                               0.485379687189043 69.1190476650779 0.485960357446385 69.1827079824509 0.726804416707645 137.576146518098 0.000838974272216994 118.539984971765 
                               0.659114024762962 25.069503476747  0.658885348934785 -154.799948270189 0.000838974272184994 118.539984967511 0.362542654647831 -127.925309987992 
9.2                            0.182806398947287 -179.438839305589 0.546138154408771 177.041861675747 0.48426101951016 66.0213900941664 0.65864081419969 22.2135869722293 
                               0.546138154408826 177.041861675745 0.182103491866667 -179.007521687577 0.484841575676958 66.0850378425347 0.658408386065426 -157.656357289718 
                               0.484261019510132 66.0213900941635 0.484841575676986 66.0850378425375 0.728296797013427 134.12926767574  0.000834555534959853 115.226765282859 
                               0.658640814199939 22.2135869722338 0.658408386065678 -157.656357289721 0.000834555534930197 115.226765279233 0.364265362222342 -130.614926909947 
9.225                          0.18277917808865 178.103968224865 0.547724190716568 174.207428715905 0.483126378776605 62.9281552986039 0.658164118913948 19.3646612920143 
                               0.547724190716612 174.207428715903 0.182093411213476 178.533150369121 0.483706900068336 62.9917976905514 0.657927776306356 -160.505771361463 
                               0.483126378776586 62.9281552986022 0.483706900068358 62.991797690553  0.729803820385954 130.685482449468 0.000830013016462291 111.920714115772 
                               0.658164118914135 19.3646612920175 0.657927776306542 -160.505771361465 0.000830013016435975 111.920714112839 0.365991548707773 -133.30068249365 
9.25                           0.182765046707689 175.65040224252  0.549316794822721 171.379732011923 0.481975730252026 59.8393260513846 0.657683919795274 16.522599843383  
                               0.549316794822757 171.379732011921 0.182096894727445 176.077365749435 0.482556298547048 59.9029695248028 0.657443492417113 -163.348316608403 
                               0.481975730252015 59.839326051384  0.482556298547063 59.9029695248033 0.731325257697611 127.244937925085 0.000825347293055155 108.62230704594  
                               0.657683919795401 16.522599843385  0.657443492417236 -163.348316608404 0.000825347293032892 108.622307043717 0.367721204095354 -135.982637451792 
9.275                          0.182763649042906 173.200181066883 0.550915961540113 168.558600472721 0.480809069687843 56.7548846652339 0.65720019776177 13.6872779593418 
                               0.55091596154014 168.55860047272  0.182113603507769 173.624844299208 0.481389769283397 56.8185348627066 0.656955507468591 -166.18411718634 
                               0.48080906968784 56.7548846652343 0.481389769283406 56.8185348627061 0.732860848071059 123.807775981151 0.000820559088087847 105.332029912422 
                               0.657200197761842 13.6872779593427 0.656955507468656 -166.18411718634 0.000820559088070067 105.332029910883 0.369454322893567 -138.660851484166 
9.3                            0.182774596384804 170.753035314306 0.552521661485086 165.743867312512 0.479626423627672 53.6748130928782 0.656712933508462 10.8585729805869 
                               0.552521661485105 165.743867312512 0.182143164981954 171.175318421383 0.480207340996325 53.7384748415104 0.656463794605274 -169.013295200996 
                               0.479626423627675 53.6748130928795 0.480207340996328 53.738474841509  0.734410297927357 120.374133130853 0.000815649306244993 102.050380226113 
                               0.656712933508487 10.8585729805868 0.656463794605288 -169.013295200996 0.000815649306231859 102.050380225203 0.371190903815449 -141.335383299951 
9.325                          0.182797470212977 168.308708166863 0.554133842097692 162.935370176069 0.478427849535562 50.5990929908137 0.656222107287757 8.03636431785904 
                               0.554133842097704 162.935370176068 0.182185176003706 168.728533336959 0.47900907308156 50.6627702825598 0.655968326841546 -171.835970644968 
                               0.478427849535571 50.5990929908158 0.479009073081559 50.6627702825578 0.735973280404758 116.944140341214 0.000810619067278042 98.7778684079073 
                               0.656222107287743 8.03636431785818 0.655968326841518 -171.835970644968 0.00081061906726947 98.7778684075468 0.372930949490715 -144.006290641471 
9.35                           0.182831825195437 165.866955586582 0.555752428708271 160.132951236682 0.477213435751551 47.5277057491471 0.655727698719242 5.22053349651543 
                               0.555752428708277 160.132951236682 0.182239205810726 166.284247290864 0.477795055566524 47.5914017216904 0.655469076889145 -174.652261352696 
                               0.477213435751565 47.5277057491496 0.477795055566519 47.5914017216879 0.737549435138032 113.517922832157 0.000805469738779938 95.5150188499806 
                               0.655727698719197 5.22053349651397 0.655469076889084 -174.652261352695 0.000805469738775632 95.515018850077  0.374674466200989 -146.673630309129 
9.375                          0.18287719205851 163.427546478543 0.557377325643746 157.336457268874 0.475983301278959 44.4606324901389 0.655229686626479 2.41096418506966 
                               0.557377325643748 157.336457268874 0.182304798851017 163.842231706293 0.476565408896493 44.5243494083823 0.654966017013166 -177.462282971694 
                               0.475983301278976 44.4606324901417 0.476565408896485 44.5243494083795 0.73913836838532 110.095599858024 0.000800202967656507 92.262370795226  
                               0.655229686626411 2.41096418506778 0.654966017013083 -177.462282971692 0.00080020296765599 92.2623707956788 0.376421463636482 -149.337458187281 
9.4                            0.182933080335468 160.990262806023 0.559008417367356 154.545739697825 0.474737595408816 41.3978540381286 0.654728048898495 -0.392457790627973 
                               0.559008417367354 154.545739697825 0.182381477486077 161.402271290755 0.475320283557491 41.4615932763596 0.654459118914125 179.733851051629 
                               0.474737595408835 41.3978540381316 0.475320283557482 41.4615932763566 0.740739653486956 106.677284474218 0.000794820709978564 89.0204790315527 
                               0.654728048898414 -0.392457790630095 0.654459118914027 179.73385105163  0.000794820709981221 89.02047903226   0.378171954672438 -151.997829270811 
9.425                          0.182998981001612 158.554899660566 0.560645569645869 151.760654627422 0.473476497187721 38.3393508635366 0.654222762373746 -3.18984444598177 
                               0.560645569645865 151.760654627422 0.182468744578996 158.964164096765 0.474059859542246 38.403112888336  0.653948353633622 176.936029473142 
                               0.47347649718774 38.3393508635396 0.474059859542236 38.403112888333  0.742352831638323 103.263083291665 0.000789325258933688 85.7899143992744 
                               0.654222762373658 -3.18984444598397 0.653948353633518 176.936029473144 0.000789325258938805 85.7899144001378 0.379925955163721 -154.654797692205 
9.45                           0.183074369003099 156.121265289647 0.562288630738637 148.981062848725 0.472200214736193 35.2851030036378 0.653713802744422 -5.9813056475092 
                               0.562288630738632 148.981062848725 0.18256608597501 156.527721539882 0.472784345666389 35.3488873576031 0.65343369148128 174.144143240688 
                               0.472200214736212 35.2851030036407 0.472784345666379 35.3488873576002 0.743977412956775 99.8530962218062 0.000783719270635567 82.5712641110932 
                               0.653713802744335 -5.98130564751135 0.653433691481177 174.14414324069  0.000783719270642375 82.5712641120221 0.381683483755962 -157.308416748932 
9.475                          0.183158705686199 153.689181084329 0.563937432603137 146.206829830598 0.470908984425394 32.2350899627773 0.653201144479062 -8.76694913255   
                               0.563937432603131 146.206829830598 0.182672972881474 154.092768376544 0.471493978742825 32.2988952491362 0.652915101980694 171.358085473698 
                               0.470908984425413 32.2350899627799 0.471493978742816 32.2988952491336 0.745612877820874 96.4474162148028 0.000778005787591252 79.3651318851812 
                               0.65320114447898 -8.76694913255199 0.652915101980598 171.3580854737   0.000778005787598969 79.3651318860962 0.383444561711723 -159.958738930951 
9.5                            0.183251441133045 151.258481529158 0.565591792111914 143.437825694129 0.46960306992071 29.1892905946569 0.652684760761532 -11.5468805374944 
                               0.565591792111909 143.437825694129 0.182788864153634 151.659142643977 0.47018902262285 29.2531144628464 0.652392553832238 168.577751434076 
                               0.469603069920727 29.1892905946591 0.470189022622842 29.2531144628441 0.747258678458685 93.0461289935716 0.000772188259671714 76.1721378925449 
                               0.65268476076146 -11.5468805374962 0.652392553832153 168.577751434077 0.000772188259679582 76.1721378933798 0.385209212750178 -162.605815948212 
9.525                          0.183352016409286 148.829014116376 0.567251512276138 140.673925172416 0.468282761101277 26.1476829692606 0.652164623444565 -14.321203433286 
                               0.567251512276133 140.673925172416 0.182913208491901 149.226695564282 0.468869767113182 26.211522101549  0.651866014890712 165.803038489597 
                               0.468282761101292 26.1476829692624 0.468869767113176 26.2115221015472 0.748914240760693 89.6493127862146 0.000766270562478008 72.9929185201595 
                               0.652164623444506 -14.3212034332874 0.651866014890642 165.803038489598 0.000766270562485332 72.9929185208629 0.386977462898896 -165.249698757992 
9.55                           0.183459865728341 146.400639226394 0.568916383471193 137.915007557191 0.466948372865049 23.1102442269099 0.65164070301611 -17.090019367041 
                               0.56891638347119 137.915007557191 0.183045446555621 146.79529141469  0.467536526778559 23.1740943261387 0.651335452155886 163.033846070989 
                               0.466948372865061 23.1102442269113 0.467536526778555 23.1740943261373 0.750578966292019 86.257038059288  0.000760257013043 69.8281259512628 
                               0.651640703016065 -17.0900193670421 0.651335452155832 163.033846070989 0.000760257013049176 69.8281259517989 0.388749340356361 -167.890437591949 
9.575                          0.183574418536269 143.973229976377 0.570586184660005 135.16095663368  0.465600243829352 20.0769504218466 0.651112968576919 -19.8534279087124 
                               0.570586184660003 135.16095663368  0.183185012997696 144.364807365846 0.466189639639955 20.1408062003687 0.650800831774149 160.270075623763 
                               0.465600243829361 20.0769504218476 0.466189639639952 20.1408062003678 0.752252234477983 82.8693672542442 0.000754152382855943 66.6784275636434 
                               0.65111296857689 -19.8534279087131 0.650800831774113 160.270075623764 0.000754152382860486 66.6784275639913 0.390524875363918 -170.528081982797 
9.6                            0.183695101520607 141.546672038702 0.572260684610035 132.411660605024 0.464238734937219 17.0477763576388 0.650581387827865 -22.6115267018077 
                               0.572260684610035 132.411660605024 0.183331338423681 141.935133289926 0.464829465778737 17.1116315275286 0.650262119049575 157.511630555812 
                               0.464238734937225 17.0477763576393 0.464829465778736 17.1116315275282 0.753933404936755 79.4863545292422 0.000747961908243038 63.5445051457319 
                               0.650581387827852 -22.6115267018081 0.650262119049557 157.511630555812 0.000747961908245598 63.5445051458857 0.392304100085946 -173.162680790485 
9.625                          0.183821340545819 139.120863431018 0.573939643100085 129.667012007487 0.462864227979959 14.0226954165838 0.650045927065617 -25.3644115172563 
                               0.573939643100087 129.667012007487 0.183483851278358 139.506171540326 0.463456385857321 14.0865426811919 0.649719278462843 154.758416181657 
                               0.462864227979962 14.0226954165838 0.463456385857322 14.0865426811918 0.755621819932829 76.1080455083621 0.000741691298180133 60.4270539287753 
                               0.650045927065619 -25.3644115172564 0.649719278462842 154.758416181657 0.000741691298180511 60.4270539287418 0.394087048497084 -175.794282227824 
9.65                           0.18395256251745 136.695714279576 0.575622812113327 126.926907617632 0.461477124046538 11.0016793851572 0.649506551185412 -28.1121763096005 
                               0.57562281211333 126.926907617631 0.183641979662146 137.077836704624 0.462070799566936 11.0655104320807 0.649172273696563 152.01033966421  
                               0.461477124046539 11.0016793851568 0.462070799566939 11.065510432081  0.757316806925246 72.7344770400978 0.000735346739652818 57.3267814313296 
                               0.649506551185428 -28.1121763096002 0.649172273696578 152.01033966421  0.000735346739650968 57.3267814311271 0.395873756275458 -178.422933885457 
9.675                          0.184088197176427 134.271146557498 0.577309937013143 124.191248352539 0.460077841910343 7.98469827742332 0.648963223689785 -30.8549132747611 
                               0.577309937013148 124.191248352538 0.18380515307914 134.650055332496 0.460673124013137 8.04850377295879 0.648621067665703 149.267309954786 
                               0.460077841910341 7.9846982774226  0.460673124013141 8.04850377295949 0.759017681185017 69.3656769668215 0.000728934900712943 54.244406109765  
                               0.648963223689811 -30.8549132747605 0.648621067665731 149.267309954785 0.000728934900708971 54.2444061094211 0.397664260700912 178.951317243858 
9.7                            0.184227678824487 131.847093799643 0.579000757698644 121.459939164088 0.458666816363809 4.97172015816943 0.648415906702192 -33.5927129087118 
                               0.579000757698649 121.459939164088 0.18397280411802 132.222765640285 0.459263792049606 5.03548974331333 0.648065622551889 146.529237732041 
                               0.458666816363806 4.97172015816845 0.459263792049611 5.03548974331432 0.760723748456934 66.0016639067213 0.000722462931407953 51.1806558054258 
                               0.648415906702227 -33.592712908711 0.648065622551927 146.52923773204  0.000722462931402109 51.1806558049746 0.399458600557317 176.328424741722 
9.725                          0.184370447981206 129.423500795745 0.580695009736895 118.732888928251 0.457244496511213 1.96271096738944 0.647864560984631 -36.3256640664603 
                               0.580695009736901 118.732888928251 0.184144370066641 129.795917193891 0.457843250570561 2.02643325544529 0.647505899840517 143.796035340461 
                               0.457244496511207 1.96271096738826 0.457843250570567 2.02643325544648 0.7624343076419  62.6424470495292 0.000715938462779321 48.1362659755981 
                               0.647864560984673 -36.3256640664594 0.647505899840562 143.79603534046  0.000715938462771982 48.1362659750779 0.401256816038149 173.708342741365 
9.75                           0.18451595297275 127.000323263505 0.582392425469165 116.010010330264 0.45581134402964 -1.04236565242034 0.647309145958406 -39.0538540208145 
                               0.582392425469171 116.010010330264 0.184319294460668 127.369470571715 0.456411958771858 -0.978703076571436 0.646941860359685 141.067616728917 
                               0.455811344029633 -1.04236565242165 0.456411958771864 -0.978703076570089 0.764148653477083 59.2880259671512 0.000709369604137672 45.1119776915358 
                               0.647309145958451 -39.0538540208135 0.646941860359735 141.067616728916 0.000709369604129322 45.1119776909863 0.403058948654565 171.091025905746 
9.775                          0.184663651452096 124.577527503357 0.584092735088682 113.291219746504 0.454367831407806 -4.04354852484215 0.646749619727317 -41.7773685204746 
                               0.584092735088687 113.291219746504 0.184497028566316 124.943397009373 0.454970386390466 -3.97995910375644 0.646373464320101 138.34389738976  
                               0.454367831407799 -4.04354852484352 0.454970386390473 -3.97995910375505 0.765866079192553 55.9383904401166 0.000702764938824296 42.1085353825782 
                               0.646749619727363 -41.7773685204735 0.646373464320152 138.343897389759 0.000702764938815501 42.1085353820385 0.40486504114531 168.476429406501 
9.8                            0.184813011850274 122.155090036651 0.585795667687632 110.576437123792 0.452914440171961 -7.04087910284173 0.64618593910266 -44.4962918470597 
                               0.585795667687636 110.576437123791 0.184677032796981 122.517678027962 0.453519011931586 -6.97737730376634 0.645800671355192 135.624794298862 
                               0.452914440171953 -7.04087910284307 0.453519011931593 -6.97737730376496 0.767585879124556 52.5935203005628 0.000696133518660885 39.1266843009681 
                               0.646185939102703 -44.4962918470587 0.645800671355241 135.624794298861 0.00069613351865226 39.1266843004738 0.406675137387858 165.864508903781 
9.825                          0.184963514757951 119.732997229029 0.587500952271363 107.86558585683  0.451451659107583 -10.0344016258014 0.645618059629476 -47.2107068707395 
                               0.587500952271366 107.86558585683  0.184858778063356 120.092305047659 0.452058320892154 -9.9710029361242 0.645223440560779 132.910225856932 
                               0.451451659107575 -10.0344016258026 0.45205832089216 -9.97100293612289 0.769307351267221 49.2533852922764 0.000689484857271177 36.1671676774743 
                               0.645618059629514 -47.2107068707386 0.645223440560823 132.910225856932 0.000689484857263357 36.167167677056  0.408489282310279 163.255220526966 
9.85                           0.185114654236636 117.311244900791 0.589208318737971 105.158592664386 0.449979982485055 -13.0241632694423 0.645045935613631 -49.9206951041995 
                               0.589208318737973 105.158592664385 0.185041747056521 117.667278988488 0.450588803988907 -12.9608841903011 0.644641730533758 130.200111832404 
                               0.449979982485049 -13.0241632694434 0.450588803988912 -12.9608841902999 0.771029799746278 45.9179449481168 0.000682828922429556 33.2307235335309 
                               0.645045935613662 -49.9206951041987 0.644641730533795 130.200111832403 0.00068282892242316 33.2307235332122 0.410307521803368 160.648520856282 
9.875                          0.185265939058702 114.889837926094 0.590917498821667 102.455387464774 0.448499908296833 -16.0102142879509 0.64446952014933 -52.6263367547274 
                               0.590917498821667 102.455387464774 0.185225435463444 115.242609860107 0.449110955398562 -15.9470723259688 0.644055499409317 127.494373306095 
                               0.448499908296827 -16.0102142879518 0.449110955398567 -15.9470723259678 0.772752537200178 42.5871484849617 0.000676176127552629 30.3180811115182 
                               0.644469520149353 -52.6263367547268 0.644055499409345 127.494373306094 0.000676176127548224 30.3180811113148 0.412129902632676 158.044366905316 
9.9                            0.185416893875509 112.468789822824 0.592628226998572 99.7559032511797 0.447011936512975 -18.9926081477705 0.643888765146808 -55.327710774255 
                               0.59262822699857 99.7559032511797 0.185409353114364 112.818316342478 0.447625271016973 -18.9296218048909 0.64346470489633 124.792932617841 
                               0.447011936512971 -18.9926081477712 0.447625271016976 -18.9296218048901 0.774474887055937 39.2609347161353 0.000669537322400774 27.4299568813076 
                               0.643888765146821 -55.3277107742546 0.643464704896348 124.79293261784  0.000669537322398844 27.4299568812265 0.413956472350143 155.44271610443  
9.925                          0.185567060313019 110.048122335011 0.594340241353783 97.0600759672387 0.445516567361217 -21.9714016526723 0.643303621359947 -58.0248949072471 
                               0.594340241353779 97.0600759672388 0.185593025061628 110.394425359315 0.446132246743428 -21.9085904140689 0.642869304310628 122.095713315204 
                               0.445516567361214 -21.9714016526727 0.446132246743429 -21.9085904140684 0.776196185688964 35.9392319810997 0.000662923782998327 24.5670500785444 
                               0.64330362135995 -58.0248949072469 0.642869304310634 122.095713315204 0.000662923782999243 24.5670500785839 0.41578727920508 152.843526285066 
9.95                           0.185715997994441 107.627865009651 0.596053284408805 94.3678443833098 0.444014299636977 -24.9466550598515 0.642714038413705 -60.7179657363669 
                               0.596053284408799 94.3678443833099 0.185775992589706 107.970971646194 0.444632376795515 -24.8840393798964 0.642269254605932 119.402640104341 
                               0.444014299636976 -24.9466550598516 0.444632376795515 -24.8840393798961 0.777915784458116 32.6219580920356 0.000656347200714384 21.7300377287266 
                               0.642714038413697 -60.7179657363669 0.642269254605927 119.402640104341 0.000656347200718375 21.7300377288768 0.41762237205433 150.246755664923 
9.975                          0.185863285489734 105.208054769801 0.597767103908646 91.6791499737751 0.442505629047993 -27.9184321869343 0.642119964831241 -63.406998725896 
                               0.597767103908638 91.6791499737753 0.185957814156324 105.547997315201 0.443126152059199 -27.8560334732083 0.64166451240231 116.713638803073 
                               0.442505629047994 -27.9184321869342 0.443126152059198 -27.8560334732084 0.779633051609161 29.3090202967761 0.000649819670372602 18.9195691113277 
                               0.642119964831222 -63.4069987258962 0.641664512402294 116.713638803073 0.000649819670379731 18.9195691115715 0.419461800271489 147.652362834022 
10                             0.186008521192039 102.78873548577  0.5994814535681  88.9939367956829 0.440991046597459 -30.8868005099051 0.641521348060718 -66.0920682629221 
                               0.59948145356809 88.9939367956832 0.186138066264942 103.125551417988 0.441614058477997 -30.8246411052417 0.641055034012092 114.02863629614  
                               0.44099104659746 -30.8868005099048 0.441614058477995 -30.824641105242 0.781347374041779 26.0003152574182 0.000643353677179537 16.1362596204457 
                               0.64152134806069 -66.0920682629226 0.641055034012066 114.02863629614  0.000643353677189693 16.13625962076   0.421305613655118 145.060306741598 
10.025                         0.186151324121456 100.369957546232 0.601196093776965 86.3121513689905 0.439471037008788 -33.8518312520845 0.640918134501796 -68.7732476963474 
                               0.601196093776953 86.3121513689908 0.186316344269094 100.703689509049 0.440096575484362 -33.7899344146396 0.640440775463199 111.347560492613 
                               0.439471037008791 -33.8518312520838 0.440096575484359 -33.7899344146401 0.78305815893713 22.6957290438    0.00063696208217918 13.3806839832212 
                               0.640918134501759 -68.7732476963481 0.640440775463164 111.347560492613 0.000636962082192062 13.3806839835793 0.42315386233593 142.470546683848 
10.05                          0.18629133465696 97.9517774310069 0.602910792264133 83.6337425586269 0.437946077194362 -36.8135994643954 0.64031026953188 -71.4506093737979 
                               0.60291079226412 83.6337425586273 0.186492263109465 98.2824732110026 0.438574174475585 -36.7519893457421 0.639821692519958 108.670340285381 
                               0.437946077194366 -36.8135994643946 0.438574174475582 -36.7519893457428 0.784764835244818 19.3951371409172 0.000630658105858924 10.653368805044  
                               0.640310269531838 -71.4506093737987 0.639821692519917 108.670340285382 0.000630658105874042 10.6533688054181 0.425006596682966 139.883042292481 
10.075                         0.186428215197635 95.534257287201  0.604625324720729 80.9586614585502 0.43641663476983 -39.7721840972658 0.63969769753222 -74.124224676548 
                               0.604625324720717 80.9586614585507 0.18666545798496 95.8619697835891 0.437047317335806 -39.7108857185127 0.639197740701474 105.996905512626 
                               0.436416634769835 -39.7721840972648 0.437047317335801 -39.7108857185136 0.78646685502984 16.0984044692328 0.000624455309452375 7.95478442185166 
                               0.639697697532173 -74.1242246765489 0.639197740701427 105.996905512626 0.00062445530946906 7.95478442221482 0.426863867208844 137.297753524064 
10.1                           0.186561650754813 93.1174645103391 0.606339475382632 78.2868612779372 0.434883166614815 -42.7276680645986 0.639080361914   -76.7941640525988 
                               0.606339475382619 78.2868612779377 0.186835584959412 93.4422516980231 0.435516455004921 -42.6667072905376 0.638568875297692 103.327186921133 
                               0.43488316661482 -42.7276680645976 0.435516455004916 -42.6667072905385 0.788163694681759 12.8053854167481 0.00061836757341063 5.28533605510116 
                               0.639080361913951 -76.7941640525998 0.638568875297643 103.327186921134 0.000618367573428043 5.28533605543089 0.42872572447416 134.714640650139 
10.125                         0.186691349477132 90.7014713320042 0.608053037572937 75.618297229605  0.433346117480147 -45.680138300334 0.638458205144582 -79.4604970480685 
                               0.608053037572924 75.6182972296055 0.187002321505979 91.0233962182376 0.43398202609451 -45.6195418116214 0.637935051383333 100.661116131324 
                               0.433346117480153 -45.6801383003329 0.433982026094505 -45.6195418116224 0.789854855989874 9.51592388160862 0.000612409072449839 2.64535428466966 
                               0.638458205144535 -79.4604970480695 0.637935051383285 100.661116131325 0.000612409072467001 2.64535428495034 0.430592218991175 132.133664248087 
10.15                          0.186817043110962 88.2863544154095 0.609765814205079 72.9529264207293 0.431805918641047 -48.6296858081976 0.637831168774096 -82.1232923370783 
                               0.609765814205067 72.9529264207298 0.187165366991688 88.6054849904592 0.432444455550165 -48.5694810715797 0.637296223829886 97.998625603804  
                               0.431805918641053 -48.6296858081966 0.432444455550162 -48.5694810715807 0.791539867089572 6.22985332395091 0.000606594246533587 0.0350848793009665 
                               0.637831168774052 -82.1232923370792 0.637296223829843 97.9986256038048 0.000606594246549406 0.0350848795265765 0.432463401126942 129.554785192713 
10.175                         0.186938487399033 85.8721944602071 0.611477618247523 70.2907077458911 0.430262986595048 -51.5764057052975 0.637199193462565 -84.7826177503277 
                               0.611477618247513 70.2907077458915 0.187324443104972 86.1886036424272 0.430904153358981 -51.5166209418891 0.636652347315921 95.3396486072698 
                               0.430262986595053 -51.5764057052966 0.430904153358979 -51.5166209418899 0.793218283286354 2.94699682563382 0.000600937767118425 -2.54532194659666 
                               0.637199193462528 -84.7826177503286 0.636652347315885 95.3396486072705 0.000600937767131734 -2.54532194642012 0.434339321006018 126.977964648534 
10.2                           0.18705546242051 83.4590758177007 0.613188273151063 67.6316017824526 0.428717721802795 -54.5203972602851 0.636562219007816 -87.4385403025715 
                               0.613188273151055 67.631601782453  0.187479294229456 83.7728413934361 0.429361513300319 -54.4610614119153 0.63600337633594 92.6841191875564 
                               0.428717721802799 -54.5203972602845 0.429361513300318 -54.4610614119159 0.794889687765173 -0.332832843551665 0.000595454497984969 -5.09582274711327 
                               0.636562219007789 -87.4385403025722 0.636003376335915 92.684119187557  0.000595454497994571 -5.09582274696599 0.436220028412971 124.403164062744 
10.225                         0.187167772876138 81.0470861174925 0.61489761323995 64.975570688235  0.427170507469316 -57.4617639268462 0.635920184374377 -90.0911262192162 
                               0.614897613239945 64.9755706882353 0.187629687767555 81.3582906762383 0.427816911737408 -57.4029066204831 0.635349265208086 90.0319721376275 
                               0.427170507469319 -57.4617639268459 0.427816911737409 -57.4029066204834 0.79655369219372 -3.60983315463543 0.000590159450000236 -7.61649238911277 
                               0.635920184374362 -90.0911262192167 0.635349265208074 90.0319721376279 0.00059015945000495 -7.61649238895989 0.438105572694824 121.830345158824 
10.25                          0.187275248322398 78.636315906438  0.616605484068187 62.3225781014423 0.425621708362816 -60.4006133733192 0.635273027723622 -92.7404409622671 
                               0.616605484068186 62.3225781014426 0.187775414417811 78.9450467716843 0.426270706446793 -60.3422648835896 0.634689968080955 87.3831429682845 
                               0.425621708362816 -60.4006133733192 0.426270706446796 -60.3422648835896 0.798209937229186 -6.88421174465227 0.000585067729214238 -10.1075357441721 
                               0.635273027723623 -92.7404409622673 0.634689968080959 87.3831429682847 0.000585067729212947 -10.1075357439633 0.439996002663667 119.259469930798 
10.275                         0.187377743358918 76.2268583006239 0.618311742742454 59.6725890427542 0.424071669667544 -63.3370575092695 0.634620686445387 -95.3865492558547 
                               0.618311742742457 59.6725890427543 0.187916288410173 76.533207456819  0.424723235482169 -63.2792487190887 0.634025438939852 84.7375678793757 
                               0.424071669667542 -63.3370575092699 0.424723235482175 -63.2792487190883 0.799858092938692 -10.1561863397372 0.000580194477789501 -12.5692993019648 
                               0.634620686445406 -95.3865492558545 0.634025438939875 84.7375678793756 0.000580194477781208 -12.569299301635 0.441891366499565 116.690500638082 
10.3                           0.187475137773642 73.8188086509138 0.620016258213222 57.0255698194842 0.422520715866905 -66.271212509865 0.633963097191298 -98.0295151115785 
                               0.620016258213229 57.0255698194842 0.188052147703633 74.1228726669762 0.423174816068707 -66.213974869191 0.633355631612763 82.0951837312794 
                               0.422520715866899 -66.2712125098659 0.423174816068716 -66.2139748691901 0.801497859144199 -13.4259846776161 0.000575554807399456 -15.0022824347374 
                               0.633963097191336 -98.0295151115779 0.633355631612808 82.0951837312789 0.000575554807383327 -15.0022824342081 0.443791711653971 114.123399800938 
10.325                         0.187567336650435 71.412264222438  0.621718911535747 54.3814879316842 0.420969149652527 -69.2031988389051 0.633300195910053 -100.6694018539  
                               0.62171891153576 54.381487931684  0.188182854150861 71.7141441722438 0.4216257435236  -69.146564321634 0.632680499776381 79.4559280164377 
                               0.420969149652519 -69.2031988389066 0.421625743523612 -69.1465643216325 0.803128965703057 -16.6938444309663 0.000571163724912268 -17.4071480003418 
                               0.633300195910113 -100.669401853899 0.632680499776448 79.4559280164368 0.000571163724887678 -17.4071479995237 0.445697084753769 111.55813019649  
10.35                          0.187654270443993 69.0073238882247 0.623419596102662 51.7403119800541 0.419417250854761 -72.1331412713562 0.632631917884868 -103.306272145815 
                               0.62341959610268 51.7403119800537 0.188308293634581 69.3071252684892 0.420076290198218 -72.0771423303724 0.63199999696247 76.8197388307203 
                               0.419417250854749 -72.1331412713583 0.420076290198234 -72.0771423303703 0.804751172735638 -19.9600131330995 0.000567036050400551 -19.7847319339009 
                               0.632631917884951 -103.306272145814 0.631999996962562 76.8197388307189 0.000567036050367124 -19.7847319326979 0.44760753150609 108.994654855306 
10.375                         0.187735895026955 66.6040878369981 0.62511821784998 49.1020115755023 0.417865275389724 -75.061168916237 0.63195819777331 -105.940188015038 
                               0.625118217850003 49.1020115755018 0.188428376180533 66.9019204829578 0.418526704437009 -75.0058384366337 0.631314076564896 74.1865548444007 
                               0.417865275389709 -75.0611689162397 0.418526704437028 -75.005838436631 0.806364270811592 -23.2247481073937 0.000563186327781664 -22.136051448829 
                               0.631958197773416 -105.940188015036 0.631314076565012 74.1865548443989 0.000563186327739306 -22.1360514471424 0.449523096603989 106.432937058513 
10.4                           0.187812191714202 64.2026572949905 0.626814695438359 46.4665572501876 0.41631345421785 -77.9874152406779 0.631278969649715 -108.571210880901 
                               0.626814695438387 46.4665572501869 0.188543036051865 64.498635294279  0.416977209548034 -77.9327864911598 0.630622691847599 71.5563152725381 
                               0.41631345421783 -77.9874152406812 0.416977209548057 -77.9327864911565 0.807968081106196 -26.4883164018531 0.000559628728692285 -24.462311450125 
                               0.631278969649844 -108.571210880899 0.630622691847741 71.5563152725358 0.000559628728641197 -24.4623114478594 0.451443823633074 103.872940335447 
10.425                         0.187883167269263 61.8031342614479 0.628508960411518 43.8339203698622 0.41476199230869 -80.9120180959513 0.630594167050375 -111.199401582195 
                               0.628508960411552 43.8339203698612 0.188652231829768 62.0973758665391 0.41542800277989 -80.8581246784314 0.629925795953821 68.9289598445635 
                               0.414761992308667 -80.9120180959552 0.415428002779917 -80.8581246784275 0.809562455538102 -29.7509947301253 0.000556376950525421 -26.7649087601592 
                               0.630594167050526 -111.199401582192 0.629925795953988 68.9289598445607 0.000556376950466114 -26.7649087572283 0.45336975497909 101.314628461827 
10.45                          0.187948853897686 59.4056212573419 0.630200957333681 41.2040730473268 0.413211067606637 -83.8351197462343 0.629903723021663 -113.824820406132 
                               0.630200957333721 41.2040730473257 0.18875594648508 59.6982487969118 0.41387925429964 -83.7819955436345 0.62922334191685 66.3044287728857 
                               0.413211067606611 -83.8351197462389 0.41387925429967 -83.78199554363  0.811147276899382 -33.0130694202398 0.000553444109895601 -29.0454337728256 
                               0.629903723021836 -113.824820406129 0.629223341917039 66.3044287728824 0.000553444109828885 -29.0454337691585 0.455300931736485 98.757965458437  
10.475                         0.188009309232061 57.0102210866383 0.631890643907965 38.5769880568002 0.411660829992137 -86.7568669008226 0.629207570171251 -116.447527118624 
                               0.63189064390801 38.5769880567988 0.1888541874454  57.3013608761729 0.412331106166312 -86.7045460230851 0.628515282672549 63.6826627203386 
                               0.411660829992107 -86.7568669008277 0.412331106166344 -86.7045460230801 0.812722458988362 -36.2748363722595 0.000550842633132462 -31.3056691885796 
                               0.629207570171443 -116.447527118621 0.62851528267276 63.6826627203349 0.000550842633059433 -31.3056691841275 0.457237393617864 96.202915590325  
10.5                           0.18806461631324 54.6170366093293 0.633577991077577 35.9526387490004 0.410111400232996 -89.6774107504586 0.628505640722537 -119.067580996034 
                               0.633577991077627 35.9526387489988 0.18894698666208 54.9068188612756 0.410783671294536 -89.6259274787736 0.62780157107394 61.0636027663149 
                               0.410111400232963 -89.6774107504641 0.410783671294571 -89.6259274787681 0.814287946755018 -39.5366010259444 0.000548584145715933 -33.5475855420852 
                               0.628505640722746 -119.06758099603 0.627801571074169 61.0636027663108 0.000548584145637936 -33.547585536827 0.459179178864261 93.6494433665092 
10.525                         0.188114883571997 52.2261705252895 0.635262983111667 33.3309989667344 0.408562868920393 -92.5969070083804 0.627797866572409 -121.685040858558 
                               0.63526298311172 33.3309989667327 0.189034400681181 52.5147292590162 0.409237032402939 -92.5462957376315 0.627082159908045 58.4471903714403 
                               0.408562868920357 -92.5969070083865 0.409237032402976 -92.5462957376254 0.81584371646799 -42.7986783394362 0.00054667936283686 -35.7733333161307 
                               0.627797866572632 -121.685040858554 0.627082159908289 58.4471903714359 0.000546679362755444 -35.7733333100784 0.461126324156041 91.0975135401977 
10.55                          0.18816024481513 49.8377251678944 0.636945617677645 30.7120429607887 0.407015295384335 -95.5155159566267 0.627084179352415 -124.299965105368 
                               0.636945617677701 30.7120429607868 0.18911651072219 50.1251981196929 0.40769124094198 -95.4658111360523 0.626357001915238 55.8333673406677 
                               0.407015295384298 -95.5155159566332 0.40769124094202 -95.4658111360459 0.817389775911351 -46.061392779854 0.000545137983474275 -37.9852315385698 
                               0.627084179352649 -124.299965105363 0.626357001915494 55.833367340663  0.000545137983391138 -37.985231531772 0.463078864524236 88.5470911095285 
10.575                         0.18820085921968 47.4518023062187 0.638625905901681 28.0957453059151 0.405468706583429 -98.4334024980588 0.626364510493425 -126.912411751613 
                               0.63862590590174 28.0957453059131 0.189193422767948 47.73833083954   0.406146315996131 -98.3846385701256 0.62562604981129 53.2220757846827 
                               0.405468706583391 -98.4334024980654 0.406146315996172 -98.384638570119 0.818926164618201 -49.3250783265755 0.000543968590504424 -40.1857528798157 
                               0.626364510493665 -126.912411751608 0.625626049811553 53.2220757846778 0.000543968590421341 -40.1857528723603 0.465036833262014 85.9981413188363 
10.6                           0.188236911338549 45.0685029545372 0.640303872419073 25.4820808167114 0.403923095964046 -101.350736214474 0.625638791293812 -129.522438467398 
                               0.640303872419133 25.4820808167092 0.189265267668867 45.3542319706179 0.404602243155443 -101.302947551953 0.624889256312289 50.6132580795409 
                               0.403923095964007 -101.350736214481 0.404602243155484 -101.302947551946 0.820452954147011 -52.5900784878362 0.000543178559379961 -42.3775054014686 
                               0.625638791294055 -129.522438467392 0.624889256312555 50.6132580795358 0.000543178559298714 -42.3775053934829 0.467000261835954 83.4506296604617 
10.625                         0.18826861112048 42.6879271877597 0.641979555416024 22.8710244631971 0.402378422284234 -104.267691431098 0.624906952991196 -132.130102618765 
                               0.641979555416084 22.8710244631949 0.189332201264118 42.9730050367536 0.403058973351862 -104.220912272329 0.624146574162621 48.0068568244726 
                               0.402378422284195 -104.267691431104 0.403058973351902 -104.220912272322 0.821970248405285 -55.8567463311299 0.000542773977828093 -44.5632112448957 
                               0.624906952991437 -132.13010261876 0.624146574162884 48.0068568244674 0.00054277397775039 -44.5632112365448 0.468969179796713 80.9045218771197 
10.65                          0.188296193946919 40.310173961365  0.643653006664333 20.262551285895  0.400834608398017 -107.184447287632 0.624168926837735 -134.735461310764 
                               0.643653006664393 20.2625512858927 0.189394404522041 40.5947523540506 0.401516421655938 -107.13871166996 0.623397956166132 45.4028147978179 
                               0.400834608397978 -107.184447287639 0.401516421655978 -107.138711669954 0.823478184023717 -59.1254445277299 0.000542759578807797 -46.7456826836567 
                               0.624168926837969 -134.735461310759 0.623397956166388 45.4028147978127 0.000542759578735198 -46.7456826751393 0.470943614688602 78.3597839648463 
10.675                         0.188319920687888 37.9353409343404 0.645324291550327 17.6566363102353 0.399291539996116 -110.101187815946 0.623424644178966 -137.338571432599 
                               0.645324291550385 17.6566363102331 0.189452083701629 38.2195748544356 0.399974466029968 -110.056529507305 0.622643355220633 42.8010749110767 
                               0.39929153999608 -110.101187815953 0.399974466030006 -110.056529507299 0.824976930782364 -62.3965454114663 0.00054313868864026 -48.927796086646 
                               0.623424644179188 -137.338571432594 0.622643355220876 42.8010749110716 0.000543138688574101 -48.9277960781883 0.472923591957517 75.816382176551  
10.7                           0.188340077778587 35.5635242935971 0.646993489099285 15.0532544601097 0.397749064299552 -113.018102024363 0.622674036536156 -139.93948970486 
                               0.646993489099339 15.0532544601074 0.189505470536465 35.8475719106677 0.398432946034037 -112.974554452979 0.621882724355826 40.2015801610834 
                               0.397749064299518 -113.018102024369 0.398432946034072 -112.974554452973 0.826466692088719 -65.6704310516975 0.00054391319179317 -51.1124644409651 
                               0.622674036536361 -139.939489704856 0.621882724356051 40.2015801610786 0.0005439131917345 -51.1124644328121 0.474909134856616 73.2742830262008 
10.725                         0.188356977318058 33.1948185783069 0.648660691996442 12.4523804704141 0.396206988703061 -115.935383988383 0.621917035692105 -142.538272728803 
                               0.648660691996492 12.452380470412  0.189554822442098 33.4788411612155 0.396891661481934 -115.892980170565 0.621116016774794 37.6042735803423 
                               0.39620698870303 -115.935383988388 0.396891661481966 -115.89298017056 0.827947705505614 -68.9474933401949 0.000545083513276203 -53.3026091571817 
                               0.621917035692291 -142.538272728799 0.621116016774996 37.6042735803377 0.000545083513225732 -53.3026091495871 0.47690026434904 70.7334532936716 
10.75                          0.188370957190809 30.8293165025978 0.65032600660554 9.85398879843334 0.394665079365853 -118.853232947554 0.621153573780356 -145.134977037624 
                               0.650326006605584 9.85398879843133 0.189600422747424 31.113478333398  0.395350371044469 -118.81200541353 0.620343185899088 35.0090981855816 
                               0.394665079365826 -118.853232947559 0.395350371044498 -118.812005413525 0.829420243324972 -72.2281340914272 0.000546648619016782 -55.5011319189788 
                               0.621153573780516 -145.13497703762 0.620343185899264 35.0090981855775 0.000546648618974846 -55.5011319121936 0.478896999006901 68.1938600303023 
10.775                         0.188382381211968 28.467108775054  0.651989552985708 7.25805353393304 0.393123059747832 -121.771853408057 0.620383583377709 -147.729659149635 
                               0.651989552985746 7.25805353393117 0.189642580950222 28.7515770631986 0.393808790798371 -121.731834125808 0.619564185417521 32.4159969246174 
                               0.393123059747809 -121.771853408061 0.393808790798396 -121.731834125804 0.830884613181202 -75.5127651554646 0.000548606033961734 -57.7108873409312 
                               0.620383583377842 -147.729659149631 0.619564185417666 32.4159969246137 0.000548606033928278 -57.710887335191 0.480899354905711 65.6554705651948 
10.8                           0.188391639296163 26.1082839134848 0.653651464907333 4.66454830784227 0.391580609090112 -124.691455250428 0.619606997599971 -150.322375623236 
                               0.653651464907364 4.66454830784058 0.189681632996659 26.3932287101799 0.392266592719632 -124.652675547473 0.618778969338705 29.8249126216346 
                               0.391580609090095 -124.691455250432 0.392266592719652 -124.65267554747 0.832341158695759 -78.8018085424513 0.000550951877024591 -59.934657161853 
                               0.619606997600071 -150.322375623233 0.618778969338816 29.8249126216314 0.000550951876999175 -59.9346571573655 0.482907345513336 63.1182525123034 
10.825                         0.188399147650029 23.7529280534606 0.655311889867395 2.07344619942569 0.39003736083947 -127.612253841689 0.618823750200822 -152.913183113548 
                               0.655311889867418 2.07344619942424 0.189717941584229 24.0385221659686 0.390723403120989 -127.574744324758 0.617987492047372 27.2357879210287 
                               0.390037360839458 -127.612253841691 0.390723403121003 -127.574744324755 0.833790260141929 -82.0956965572819 0.000553680911402809 -62.1751266293192 
                               0.61882375020089 -152.913183113545 0.617987492047447 27.2357879210261 0.000553680911384632 -62.1751266262518 0.48492098157248 60.5821737783657 
10.85                          0.188405348987939 21.4011247491616 0.656970989104556 -0.515280358135988 0.388492901017206 -130.534470150989 0.618033775673717 -155.502138430522 
                               0.656970989104571 -0.515280358137169 0.189751896487297 21.687543654827  0.389178801034081 -130.498260623522 0.617189708364542 24.6485652299719 
                               0.3884929010172  -130.53447015099 0.389178801034089 -130.498260623521 0.835232335116244 -85.3948719427861 0.000556786608254385 -64.4348636287268 
                               0.618033775673751 -155.50213843052 0.617189708364578 24.64856522997   0.000556786608242338 -64.4348636271957 0.486940270975656 58.0472025717294 
10.875                         0.188410712770353 19.0529547651365 0.658628937614158 -3.10165967382227 0.386946766533883 -133.458330867708 0.617237009356685 -158.089298598361 
                               0.658628937614164 -3.10165967382319 0.189783914904174 19.3403765248883 0.387632316537825 -133.423450245111 0.616385573611523 22.0631866598933 
                               0.386946766533883 -133.458330867709 0.387632316537828 -133.42345024511 0.836667839200154 -88.6997880293675 0.000560261221274923 -66.7163009848775 
                               0.617237009356683 -158.08929859836 0.616385573611522 22.063186659892  0.000560261221267659 -66.7163009849381 0.488965218631525 55.5133074121316 
10.9                           0.188415735463969 16.7084958576357 0.660285924163052 -5.68572089654627 0.385398443452475 -136.384068520773 0.616433387539924 -160.674720916006 
                               0.660285924163049 -5.6857208965469 0.189814441824465 16.9971010287049 0.386083429035611 -136.35054474334 0.615575043677819 19.4795939670949 
                               0.385398443452482 -136.384068520773 0.386083429035608 -136.350544743341 0.838097266592562 -92.0109088886461 0.000564095869372951 -69.0217222240999 
                               0.616433387539889 -160.674720916005 0.615575043677781 19.4795939670943 0.00056409586936897 -69.0217222257398 0.490995826321406 52.9804571414967 
10.925                         0.188420940822736 14.3678225442522 0.661942151304053 -8.26749411464987 0.383847365203645 -139.311921597765 0.615622847576095 -163.258463018463 
                               0.661942151304041 -8.2674941146502 0.189843950415261 14.6577940918343 0.384531565485128 -139.27978154121 0.614758075092907 16.8977284927424 
                               0.383847365203656 -139.311921597763 0.384531565485119 -139.279781541212 0.839521150690677 -95.3287094882326 0.000568280624414925 -71.3532509394721 
                               0.615622847576027 -163.258463018463 0.614758075092834 16.8977284927425 0.000568280624412682 -71.353250942607 0.493032092544729 50.4486209358169 
10.95                          0.188426880188683 12.0310058606818 0.663597835389569 -10.8470104571194 0.382292910758154 -142.24213466222 0.614805327993169 -165.840582938685 
                               0.66359783538955 -10.8470104571195 0.189872942424682 12.3225290682708 0.382976098585944 -142.211404045704 0.613934625101954 14.317531102501  
                               0.38229291075817 -142.242134662217 0.38297609858593 -142.211404045706 0.840940064593241 -98.6536758442995 0.000572804600905481 -73.712843759439 
                               0.614805327993073 -165.840582938685 0.613934625101849 14.3175311025017 0.000572804600903501 -73.7128437639116 0.495074012352122 47.9177683181904 
10.975                         0.188434132811508 9.69811310349077 0.665253206583838 -13.4243021965017 0.380734402762906 -145.174958467303 0.613980768609764 -168.421139169718 
                               0.665253206583812 -13.4243021965015 0.189901948601244 9.9913754816201  0.381416344931421 -145.145661758875 0.613104651745448 11.7389421261083 
                               0.380734402762927 -145.1749584673  0.381416344931402 -145.145661758878 0.842354621496599 -101.986305168118 0.000577656044479856 -76.1022867887098 
                               0.613980768609644 -168.421139169719 0.613104651745317 11.7389421261096 0.000577656044476852 -76.1022867942921 0.497121577164776 45.3878691730888 
11                             0.188443306185872 7.36920755786237 0.666908508872939 -15.9994028534753 0.379171105648658 -148.110650063853 0.613149110652838 -171.000190726796 
                               0.666908508872907 -15.9994028534748 0.189931529127543 7.66439875100137 0.379851563133138 -148.082810383214 0.612268113942787 9.16190129720087 
                               0.379171105648682 -148.110650063849 0.379851563133116 -148.082810383217 0.843765474950273 -105.327106002193 0.000582822416204627 -78.5231952757964 
                               0.6131491106527  -171.000190726798 0.612268113942636 9.16190129720262 0.000582822416199618 -78.5231952821952 0.499174774578705 42.8588937619365 
11.025                         0.18845503640543 5.04434820937194 0.668564000071633 -18.5723473030105 0.377602223719207 -151.04947290058 0.612310296877683 -173.577797209025 
                               0.668564000071597 -18.5723473030098 0.189962274066839 5.34165990074946 0.378280951927766 -151.023111919056 0.611424971579838 6.58634769373416 
                               0.377602223719233 -151.049472900576 0.378280951927742 -151.02311191906 0.84517331893469 -108.676598341041 0.00058829046989628 -80.9770161680875 
                               0.612310296877534 -173.577797209026 0.611424971579675 6.58634769373626 0.000588290469888703 -80.977016174954 0.501233588152452 40.3308127400845 
11.05                          0.188469988532729 2.72358943891764 0.670219951825846 -21.1431718820273 0.376026899233801 -153.991696913997 0.611464271690128 -176.154018860299 
                               0.670219951825809 -21.1431718820265 0.1899948038213  3.02321525307735 0.37670364827826 -153.966834751635 0.610575185600495 4.01221967935821 
                               0.376026899233829 -153.991696913993 0.376703648278234 -153.96683475164 0.846578887719424 -112.035313731047 0.000594046319958278 -83.4650331451371 
                               0.611464271689976 -176.154018860301 0.610575185600328 4.01221967936054 0.00059404631994808 -83.465033152079 0.503297997176772 37.8035971752643 
11.075                         0.188488856984319 0.406980700006445 0.671876649609451 -23.7119144984376 0.374444210496594 -156.93759860544 0.610610981270898 -178.72891662906 
                               0.671876649609414 -23.7119144984368 0.190029769600801 0.709116102939168 0.375118725483347 -156.914253725114 0.609718718102273 1.43945484613203 
                               0.37444421049662 -156.937598605436 0.375118725483322 -156.914253725118 0.847982955455862 -115.403795343151 0.000600075497588926 -85.9883736742622 
                               0.610610981270752 -178.728916629062 0.609718718102113 1.43945484613446 0.000600075497576639 -85.9883736808592 0.505367976424815 35.2772185676154 
11.1                           0.188512365930589 -1.90543382234096 0.673534392713802 -26.2786147414352 0.372853169969276 -159.887461102335 0.609750373702092 178.697447773516 
                               0.673534392713768 -26.2786147414344 0.190067853901511 -1.60059162559255 0.373525191311611 -159.865650200767 0.608855532435981 -1.13201004101969 
                               0.372853169969299 -159.887461102331 0.373525191311587 -159.865650200771 0.84938633545349 -118.78259801141 0.000606362993607867 -88.5480176084263 
                               0.609750373701962 178.697447773514 0.608855532435837 -1.13201004101739 0.000606362993594646 -88.5480176142471 0.507443495881271 32.7516488713783 
11.125                         0.188541269710136 -4.21361557174503 0.675193494228319 -28.8433139928717 0.371252722425556 -162.841574200647 0.608882399095757 176.125011817338 
                               0.675193494228291 -28.8433139928709 0.190109770993723 -3.90586774205438 0.371921986178966 -162.821312096256 0.607985593309522 -3.70223909768407 
                               0.371252722425575 -162.841574200644 0.371921986178946 -162.82131209626 0.850789879084053 -122.172288229706 0.000612893286573676 -91.1448068423993 
                               0.608882399095652 176.125011817336 0.607985593309406 -3.70223909768204 0.000612893286561306 -91.1448068470216 0.509524520448987 30.2268605183503 
11.15                          0.188576353258746 -6.51753200031596 0.676854281010198 -31.4060555395351 0.369641743168845 -165.800234385254 0.608007009724555 173.553712099666 
                               0.67685428101018 -31.4060555395344 0.190156267418794 -6.20667817199123 0.370307981391072 -165.781533902728 0.607108866895908 -6.27129737073037 
                               0.369641743168857 -165.800234385252 0.370307981391056 -165.78153390273 0.852194474252753 -125.573444098057 0.000619650355306792 -93.7794555562316 
                               0.608007009724487 173.553712099665 0.607108866895832 -6.27129737072882 0.000619650355297643 -93.7794555592628 0.511611009631518 27.7028264432065 
11.175                         0.188618432553406 -8.81715696879689 0.67851709364119 -33.9668846861233 0.368019036337496 -168.763744824764 0.607124160154553 170.983484294299 
                               0.678517093641184 -33.9668846861229 0.190208122495381 -8.50299535955147 0.368681977475179 -168.746616676288 0.606225320945536 -8.83925088601519 
                               0.3680190363375  -168.763744824763 0.368681977475171 -168.746616676289 0.853601043370347 -128.986655209136 0.000626617675382177 -96.4525606016896 
                               0.607124160154531 170.983484294299 0.606225320945509 -8.83925088601432 0.000626617675379111 -96.4525606027878 0.513702917190127 25.1795201107858 
11.2                           0.188668355072091 -11.112471167585 0.680182286369168 -36.5258488686834 0.366383333325118 -171.732415337135 0.606233807380166 168.414263104158 
                               0.680182286369177 -36.5258488686833 0.190266148835636 -10.7947986907782 0.367042702629086 -171.71686800021 0.605334924902846 -11.406166692549 
                               0.366383333325112 -171.732415337136 0.367042702629086 -171.71686800021 0.855010540754571 -132.412522464669 0.000633778199609097 -99.1646116239738 
                               0.606233807380199 168.414263104158 0.605334924902879 -11.4061666925491 0.000633778199615323 -99.1646116228693 0.515800190773736 22.6569155454496 
11.225                         0.188727000270441 -13.4034625592096 0.681850227032071 -39.082997768262 0.364733291346921 -174.706562322266 0.605335910961349 165.845982217774 
                               0.681850227032099 -39.0829977682623 0.190331192872389 -13.0820749380853 0.365388811318306 -174.69260191406 0.60443765002746 -13.9721129026356 
                               0.364733291346903 -174.706562322269 0.365388811318316 -174.692601914057 0.856423949383848 -135.851657810449 0.000641114322969137 -101.916000554519 
                               0.605335910961446 165.845982217775 0.60443765002756 -13.9721129026366 0.000641114322987992 -101.916000551035 0.517902771520399 20.1349873626183 
11.25                          0.188795280076824 -15.6901268428633 0.683521296961608 -41.6383834244925 0.363067492186688 -177.686508657565 0.60443043316311 163.278574270184 
                               0.683521296961657 -41.6383834244932 0.190404135398856 -15.364818726417 0.363718883056192 -177.674138805775 0.603533469519916 -16.5371587274818 
                               0.363067492186657 -177.68650865757 0.363718883056212 -177.67413880577 0.8578422769207  -139.304683877666 0.000648607832938056 -104.707030158132 
                               0.604430433163276 163.278574270186 0.603533469520089 -16.5371587274841 0.00064860783297273 -104.707030152203 0.520010593628889 17.6137108025972 
11.275                         0.188874139407607 -17.9724679416154 0.685195890863943 -44.1920603488234 0.361384441162881 179.327416447599 0.603517339097477 160.711970808754 
                               0.685195890864016 -44.1920603488247 0.190485892122823 -17.6430330216207 0.362031421405615 179.338194737376 0.602622358652148 -19.1013745077695 
                               0.361384441162837 179.327416447592 0.362031421405646 179.338194737383 0.859266550916889 -142.772233517274 0.000656239846574968 -107.537921366883 
                               0.603517339097716 160.711970808757 0.602622358652398 -19.101374507773 0.000656239846628156 -107.53792135857 0.522123583899083 15.093061766798  
11.3                           0.188964556704855 -20.2504985129892 0.686874416674426 -46.7440856370658 0.359682566356441 176.334877642797 0.60259659686807 158.146102264477 
                               0.686874416674524 -46.7440856370676 0.19057741423773 -19.9167296416067 0.360324853244876 176.344066123161 0.601704294902859 -21.6648317386608 
                               0.359682566356383 176.334877642788 0.360324853244918 176.344066123171 0.860697813107106 -146.254949212975 0.000663990736226567 -110.408819182347 
                               0.602596596868382 158.146102264481 0.601704294903182 -21.6648317386656 0.000663990736300049 -110.408819171855 0.524241661239855 12.5730168564706 
11.325                         0.189067544498984 -22.5242404836641 0.688557295383244 -49.294519080923 0.357960218147131 173.335533677036 0.601668177717441 155.580897929264 
                               0.688557295383368 -49.2945190809253 0.190679689013493 -22.1859297909512 0.358597528344739 173.34313699828  0.600779258097944 -24.2276030887115 
                               0.357960218147061 173.335533677024 0.358597528344791 173.343136998292 0.862137112693192 -149.753482357379 0.000671840046168446 -113.319796975922 
                               0.60166817771782 155.580897929269 0.600779258098334 -24.2276030887175 0.000671840046262595 -113.319796963606 0.526364736143343 10.0535534140548 
11.35                          0.189184149999195 -24.7937256091546 0.690244960828714 -51.8434232781405 0.356215669109698 170.329037693159 0.600732056177383 153.016285939798 
                               0.690244960828862 -51.8434232781432 0.190793740410339 -24.4506646196842 0.356847719307888 170.33506354606  0.599847230556169 -26.7897624121517 
                               0.356215669109618 170.329037693146 0.356847719307947 170.335063546073 0.863585498516607 -153.268492374772 0.000679766402991988 -116.27085906346 
                               0.600732056177819 153.016285939804 0.599847230556614 -26.7897624121588 0.000679766403105216 -116.270859049833 0.528492710124498 7.53464956726251 
11.375                         0.18931545571479 -27.0589960594443 0.691937859454773 -54.3908637408969 0.354447114325614 167.315037580374 0.599788210222429 150.452193268495 
                               0.691937859454944 -54.3908637408999 0.190920629719287 -26.7109758071331 0.355073621926532 167.319496842114 0.59890819724027 -29.3513847539934 
                               0.354447114325528 167.315037580359 0.355073621926594 167.319496842128 0.865044010013372 -156.800645672833 0.000687747423044233 -119.261941475283 
                               0.599788210222905 150.452193268501 0.598908197240748 -29.3513847540013 0.000687747423172361 -119.261941461015 0.530625475124996 5.01628427600153 
11.4                           0.189462580110654 -29.3201050316896 0.693636450029039 -56.936909002033 0.352652672170741 164.293176389048 0.598836621426782 147.888545722119 
                               0.693636450029229 -56.9369090020361 0.191061456233237 -28.9669161718343 0.353273356018414 164.296083272066 0.597962145913689 -31.9125463474164 
                               0.352652672170655 164.293176389033 0.353273356018476 164.296083272081 0.866513666843352 -160.350614404631 0.000695759620735736 -122.292910886108 
                               0.598836621427272 147.888545722125 0.597962145914172 -31.9125463474245 0.000695759620871314 -122.292910872021 0.532762912880686 2.49843738225113 
11.425                         0.189626678300334 -31.5771173912823 0.695341203317669 -59.4816307187018 0.350830385643749 161.263092811715 0.597877275124927 145.325267948633 
                               0.695341203317871 -59.4816307187048 0.1912173579529  -31.2185503086969 0.351444966805886 161.264465015204 0.59700906730317 -34.4733246028878 
                               0.35083038564367 161.2630928117   0.351444966805939 161.264465015219 0.867995457084743 -163.919075021187 0.000703778322039808 -125.363561712032 
                               0.597877275125396 145.325267948639 0.597009067303615 -34.4733246028955 0.000703778322171381 -125.363561699091 0.534904894251952 -0.0189103370056054 
11.45                          0.18980894278019 -33.8301103427436 0.697052601713056 -62.0251037729993 0.348978224304484 158.224421733973 0.596910160576209 142.762283452813 
                               0.697052601713261 -62.0251037730016 0.191389512332004 -33.4659552548037 0.34958642690699 158.224280597678 0.596048955267403 -37.0337980884671 
                               0.348978224304423 158.22442173396  0.349586426907026 158.224280597691 0.869490323885532 -167.506706594019 0.000711777588001075 -128.473611424219 
                               0.596910160576612 142.762283452818 0.596048955267757 -37.0337980884735 0.000711777588112405 -128.47361141351 0.537051278516491 -2.53577711368621 
11.475                         0.190010604208045 -36.0791741321431 0.698771138810242 -64.5674063691183 0.34709408689559 155.176794858574 0.595935271133667 140.199514621209 
                               0.698771138810438 -64.5674063691193 0.191579137066298 -35.7092211854539 0.347695639011517 155.175165518468 0.59508180697197 -39.5940465007522 
                               0.347094086895559 155.176794858564 0.347695639011523 155.175165518479 0.87099915046684 -171.114188886276 0.000719730153530873 -131.62269417205 
                               0.595935271133947 140.199514621212 0.595081806972164 -39.5940465007563 0.000719730153600147 -131.622694164759 0.539201912624238 -5.05218012924897 
11.5                           0.190232932229617 -38.3244127829742 0.700497318927762 -67.1086201265508 0.345175804724367 152.119841405519 0.594952604417403 137.636882756976 
                               0.700497318927932 -67.1086201265499 0.191787490930895 -37.9484521423104 0.345770439318559 152.116752950854 0.594107623070791 -42.154150625927 
                               0.345175804724383 152.119841405515 0.34577043931852 152.116752950859 0.872522743379125 -174.742200150473 0.000727607387162209 -134.810352852886 
                               0.594952604417485 137.636882756976 0.594107623070741 -42.1541506259272 0.000727607387161233 -134.810352850265 0.541356630414364 -7.56813545197234 
