! Touchstone file exported from HFSS 2025.2.4
!        File:           C:/Users/chaoy/Documents/single_magictee_v2_stageA/g2_5p40mm_lt_4p50mm/single_magictee_v2.aedt
!        Generated:      03:00:29 PM Sep 19, 2026
!        Design:         SingleMagicT_v2
!        Project:        single_magictee_v2
!
! Variables:
!        f_adapt = 10.2GHz
!        ridge_g1 = 7.672mm
!        ridge_g2 = 5.4mm
!        ridge_l1 = 9.872mm
!        ridge_l2 = 8.857mm
!        ridge_w = 4.572mm
!        terminal_ridge_len = 4.5mm
!        wg_a = 22.86mm
!        wg_b = 10.16mm
!
!Data is not renormalized
# GHz S MA
! Terminal data exported
! Port[1] = P1_CollinearMinusX
! Port[2] = P2_CollinearPlusX
! Port[3] = P3_HArm_Ridged
! Port[4] = P4_EArm
9                              0.16062795099806 -155.076440900572 0.509833433761825 -158.447365919179 0.525152719336022 119.019996387865 0.662180604178951 45.2247050004811 
                               0.509833433761796 -158.447365919179 0.16244675019057 -155.14955962594 0.523216581400697 118.840433092638 0.66326867264972 -134.894282644402 
                               0.525152719336016 119.019996387866 0.523216581400704 118.840433092636 0.671158780700381 -144.494269529385 0.00221842514531481 -46.8012129515037 
                               0.662180604178936 45.2247050004804 0.663268672649731 -134.894282644402 0.00221842514530083 -46.8012129512603 0.348692692668711 -109.67771104879 
9.025                          0.160908707175585 -157.539144311224 0.511692415614074 -161.354517945313 0.523816301654044 115.982267597755 0.661736919740716 42.3147645867832 
                               0.511692415614063 -161.354517945314 0.16273432542478 -157.610902623423 0.521880185759485 115.800662338457 0.662819385719319 -137.803898604276 
                               0.523816301654039 115.982267597758 0.521880185759484 115.800662338454 0.673239258112953 -147.770323297269 0.00222521729711424 -50.1232715688424 
                               0.66173691974071 42.3147645867824 0.662819385719323 -137.803898604275 0.0022252172970517 -50.1232715686946 0.350384264635961 -112.389625358404 
9.05                           0.161195580290068 -159.995663563072 0.513549587762237 -164.252718258369 0.522473888590759 112.948641821667 0.661289564160227 39.4127496659377 
                               0.513549587762237 -164.252718258371 0.163027800526577 -160.06599939463 0.520537723941448 112.764937817963 0.662366480002613 -140.70558842933 
                               0.522473888590756 112.948641821671 0.520537723941442 112.764937817959 0.675317793575367 -151.046242185105 0.00223171621276838 -53.443593703469 
                               0.661289564160228 39.4127496659367 0.662366480002611 -140.705588429329 0.00223171621267766 -53.4435937030934 0.352080652079304 -115.097125218451 
9.075                          0.161489241224189 -162.446293040993 0.515405549338621 -167.142165577994 0.521124666450844 109.919041932666 0.660838496335716 36.5185267147297 
                               0.51540554933863 -167.142165577996 0.163327797907837 -162.515146048894 0.519188377965413 109.733182807925 0.661909929172396 -143.599485785124 
                               0.521124666450841 109.91904193267  0.519188377965403 109.733182807921 0.677395482954334 -154.321971602925 0.00223796791888596 -56.7618755693479 
                               0.660838496335721 36.5185267147288 0.661909929172391 -143.599485785123 0.00223796791878465 -56.7618755686398 0.353781790431894 -117.80028655143 
9.1                            0.161790299028988 -164.891336241973 0.51726088994926 -170.023058560819 0.519767832638435 106.893392522118 0.660383679110248 33.6319627863405 
                               0.517260889949275 -170.023058560821 0.163634879586793 -164.958647485596 0.517831341341103 106.705322281869 0.661449709706177 -146.485723809879 
                               0.519767832638433 106.893392522122 0.517831341341091 106.705322281865 0.679473394487147 -157.597452376948 0.00224400904479695 -60.0781130858953 
                               0.660383679110255 33.6319627863396 0.661449709706169 -146.485723809878 0.00224400904469816 -60.078113084891 0.355487619865449 -120.499184195258 
9.125                          0.16209930181056 -167.331104031977 0.519116186658195 -172.895595376644 0.518402597887775 103.87162029577  0.659925078744578 30.7529257989423 
                               0.519116186658213 -172.895595376646 0.163949548127076 -167.396815706643 0.516465821296996 103.681283310286 0.660985800467424 -149.36443482529 
                               0.518402597887774 103.871620295774 0.516465821296983 103.681283310282 0.681552564171153 -160.87262048541 0.00224986565298517 -63.3924812723587 
                               0.659925078744586 30.7529257989414 0.660985800467415 -149.364434825288 0.00224986565289731 -63.3924812711662 0.357198084778023 -123.193891906098 
9.15                           0.162416737792324 -169.765912993295 0.520972001251943 -175.759973320347 0.517028188402938 100.853654423594 0.659462664439154 27.8812847890451 
                               0.520972001251961 -175.759973320349 0.16427224774348 -169.829968216552 0.515091040918014 100.660995414315 0.660518182326094 -152.235750082737 
                               0.517028188402937 100.853654423598 0.515091040918001 100.660995414311 0.683633991480683 -164.147406848811 0.00225555369552099 -66.7052328364777 
                               0.659462664439162 27.8812847890443 0.660518182326085 -152.235750082736 0.00225555369544835 -66.7052328352255 0.358913133320795 -125.884482364367 
9.175                          0.162743036523058 -172.196083861567 0.522828877775108 -178.616388457614 0.515643847903568 97.8394268447569 0.65899640790323 25.0169101317809 
                               0.522828877775125 -178.616388457616 0.164603365546609 -172.258426509264 0.513706241189949 97.644390874208  0.660046837816473 -155.099799542713 
                               0.515643847903567 97.8394268447604 0.513706241189937 97.6443908742047 0.68571863541661 -167.421737174296 0.00226108044927476 -70.0166240655378 
                               0.658996407903237 25.0169101317802 0.660046837816465 -155.099799542712 0.00226108044921851 -70.0166240643425 0.360632716962436 -128.571027183483 
9.2                            0.163078570204214 -174.621940051123 0.524687340327296 178.534964697372 0.514248839573688 94.8288725291763 0.658526282968873 22.1596737303005 
                               0.524687340327311 178.534964697371 0.164943232901775 -174.682514640257 0.512310682947674 94.6314049940292 0.659571750830238 -157.956711685255 
                               0.514248839573687 94.8288725291792 0.512310682947664 94.6314049940264 0.687807410892167 -170.695531853581 0.00226644636482053 -73.326867886693 
                               0.658526282968879 22.1596737302999 0.659571750830231 -157.956711685254 0.00226644636477976 -73.3268678856437 0.362356790089587 -131.253596920951 
9.225                          0.163423655113283 -177.043806266695 0.526547891110924 175.693893474138 0.512842447910757 91.8219296972473 0.658052265247552 19.309449176424  
                               0.526547891110936 175.693893474137 0.165292126880564 -177.102557882008 0.510903648724263 91.6219763241627 0.659092906342589 -160.806613349236 
                               0.512842447910756 91.8219296972497 0.510903648724255 91.6219763241605 0.689901185457234 -173.968705913536 0.00227164693188429 -76.6361094215853 
                               0.658052265247556 19.3094491764236 0.659092906342583 -160.806613349235 0.00227164693185688 -76.6361094207389 0.36408530964188 -133.932261091417 
9.25                           0.163778553103126 -179.462007199203 0.528411008719082 172.860207309843 0.511423980472306 88.8185399994323 0.657574331826872 16.466111884651  
                               0.528411008719091 172.860207309842 0.165650271786473 -179.518881460566 0.509484444498299 88.6160468433083 0.658610290169277 -163.649629598382 
                               0.511423980472304 88.8185399994341 0.509484444498293 88.6160468433066 0.692000776361872 -177.241169018239 0.00227667433399769 -79.9444178567234 
                               0.657574331826874 16.4661118846507 0.658610290169273 -163.649629598382 0.00227667433398101 -79.9444178561069 0.365818234779953 -136.607088181357 
9.275                          0.164143473160146 178.123133696976 0.53027714665233 170.033717986704 0.509992769517613 85.8186486574784 0.657092461004975 13.6295392015825 
                               0.530277146652334 170.033717986704 0.16601784073877 178.068190629319 0.508052401336774 85.6135621017202 0.658123888752314 -166.485883611951 
                               0.509992769517611 85.8186486574796 0.50805240133677 85.6135621017191 0.694106947958602 179.487174478953 0.00228151879630887 -83.251788809963 
                               0.657092461004975 13.6295392015823 0.658123888752312 -166.485883611951 0.00228151879630024 -83.2517888095794 0.367555526584845 -139.278145665091 
9.3                            0.164518573006917 175.71129534804  0.532146732053137 167.214239844639 0.50854817354208 82.8222045691071 0.656606632060081 10.7996104927542 
                               0.532146732053137 167.214239844639 0.166394957301323 175.658336733196 0.506606876931145 82.6144713275322 0.657633688972169 -169.315496598037 
                               0.508548173542078 82.8222045691077 0.506606876931144 82.6144713275317 0.696220409441621 176.216425435048 0.00228616961482323 -86.5581525622995 
                               0.656606632060079 10.7996104927541 0.657633688972169 -169.315496598037 0.00228616961482022 -86.5581525621342 0.369297147787165 -141.945500021837 
9.325                          0.164903960737485 173.302160128988 0.534020164646624 164.401589970823 0.507089578702124 79.829160378076  0.656116825052633 7.97620720881124 
                               0.534020164646621 164.401589970823 0.166781697145544 173.251238572828 0.505147257024296 79.6187274980621 0.65713967798428 -172.138587727567 
                               0.507089578702122 79.8291603780761 0.505147257024296 79.618727498062  0.698341812919907 172.946689770741 0.00229061590035582 -89.8633848741519 
                               0.65611682505263 7.97620720881123 0.657139677984282 -172.138587727567 0.00229061590035635 -89.863384874179 0.37104306252442 -144.609216753567 
9.35                           0.165299696475828 170.895414858963 0.535897815876302 161.595588367762 0.505616400128647 76.8394725115582 0.655623020657534 5.15921293289055 
                               0.535897815876295 161.595588367762 0.167178089738729 170.84658221184  0.503672956726348 76.6262873780453 0.656641843077738 -174.955274087091 
                               0.505616400128644 76.8394725115577 0.50367295672635 76.6262873780457 0.700471751819982 169.678078279606 0.00229484708848854 -93.1673182818669 
                               0.655623020657529 5.15921293289063 0.656641843077742 -174.955274087091 0.00229484708849096 -93.1673182820546 0.372793236124895 -147.269360403421 
9.375                          0.165705794050124 168.490751726624 0.537780028223589 158.796058101435 0.504128083127363 73.8531011868207 0.655125200023954 2.34851341099617 
                               0.537780028223579 158.796058101436 0.167584120051025 168.444058953887 0.502183421717535 73.63711152678   0.656140171554081 -177.765670648563 
                               0.504128083127359 73.8531011868199 0.502183421717538 73.6371115267808 0.702610759612897 166.410706395572 0.00229885326896058 -96.469752661917 
                               0.655125200023949 2.34851341099633 0.656140171554086 -177.765670648563 0.00229885326896364 -96.4697526622312 0.374547634916497 -149.925994574488 
9.4                            0.166122222677284 166.087869148391 0.539667114700114 156.002825430996 0.502624104264561 70.8700103892071 0.65462334466029 -0.456003432919736 
                               0.539667114700101 156.002825430996 0.167999730275973 166.043366176065 0.50067812933656 70.6511642761921 0.655634650624159 179.430109745623 
                               0.502624104264557 70.8700103892059 0.500678129336565 70.6511642761932 0.704759308858907 163.144693921266 0.00230262538219069 -99.7704644638869 
                               0.654623344660284 -0.456003432919497 0.655634650624166 179.430109745623 0.00230262538219352 -99.7704644642945 0.376306226058987 -152.579181948763 
9.425                          0.16654890865388 163.686472562304 0.541559358501971 153.215719921435 0.501103972337137 67.8901678234388 0.654117436341847 -3.25444749554304 
                               0.541559358501955 153.215719921435 0.168424821561071 163.644208100173 0.499156589553217 67.6684136818448 0.655125267321157 176.631956383985 
                               0.501103972337133 67.8901678234373 0.499156589553223 67.6684136818462 0.706917810562137 159.880164719978 0.00230615532200862 -103.06921440266 
                               0.65411743634184 -3.25444749554274 0.655125267321165 176.631956383985 0.00230615532201067 -103.069214403131 0.37806897739807 -155.228984306117 
9.45                           0.166985737050992 161.286275160096 0.543457012815421 150.434574540548 0.499567229226083 64.9135448402584 0.653607457038946 -6.04692650490427 
                               0.543457012815403 150.434574540549 0.168859255746064 161.246296504328 0.497618345824311 64.6888314489217 0.654612008427904 173.839760675269 
                               0.499567229226079 64.9135448402567 0.497618345824317 64.6888314489232 0.70908661382651 156.617246374149 0.00230943597486234 -106.365753627441 
                               0.653607457038939 -6.04692650490392 0.654612008427914 173.839760675268 0.00230943597486328 -106.365753627948 0.379835857339836 -157.875462543146 
9.475                          0.167432553411704 158.88699855994  0.545360300763795 147.659225741468 0.49801345063295 61.9401163404232 0.653093388863207 -8.83354604174565 
                               0.545360300763776 147.659225741469 0.169302857107766 158.84935137726  0.496062975832299 61.7123928352044 0.654094860416711 171.053416127193 
                               0.498013450632946 61.9401163404213 0.496062975832306 61.7123928352061 0.71126600580314 153.356069813384 0.00231246121800753 -109.659828504181 
                               0.6530933888632  -8.83354604174525 0.654094860416722 171.053416127193 0.00231246121800723 -109.659828504701 0.381606834744107 -160.518676691768 
9.5                            0.167889165450941 156.48837342215  0.547269415485709 144.889513531951 0.49644224669916 58.9698606580488 0.652575214029853 -11.6144095701734 
                               0.547269415485689 144.889513531952 0.169755414111052 156.453101517464 0.494490092106417 58.7390765330557 0.653573809400076 168.272818316034 
                               0.496442246699156 58.9698606580467 0.494490092106425 58.7390765330575 0.713456211918396 150.096768915106 0.00231522589288096 -112.951184199224 
                               0.652575214029846 -11.6144095701729 0.653573809400087 168.272818316033 0.00231522589287942 -112.95118419974 0.383381878835261 -163.158685937452 
9.525                          0.168355344758135 154.090140009954 0.549184520335017 142.125281531519 0.494853262508431 56.0027594252709 0.652052914833981 -14.3896184763057 
                               0.549184520334996 142.12528153152  0.170216681166377 154.057285079243 0.492899342526442 55.7688645323899 0.653048841090678 165.497864848338 
                               0.494853262508427 56.0027594252688 0.492899342526449 55.7688645323917 0.715657396370897 146.839480081017 0.0023177257649903 -116.239567263642 
                               0.652052914833975 -14.3896184763053 0.653048841090691 165.497864848338 0.00231772576498762 -116.23956726414 0.385160959129187 -165.795548637002 
9.55                           0.168830828503802 151.692048697265 0.55110574919332 139.366377017511 0.493246178472971 53.0387974201632 0.651526473638853 -17.1592721137148 
                               0.551105749193299 139.366377017512 0.170686380394626 151.661650067467 0.491290410709639 52.801741966584  0.65251994076922 162.728455316005 
                               0.493246178472967 53.0387974201611 0.491290410709646 52.8017419665859 0.71786966288481 143.584341792563 0.00231995747802285 -119.524727408122 
                               0.651526473638847 -17.1592721137144 0.652519940769232 162.728455316004 0.0023199574780192 -119.524727408591 0.386944045375065 -168.4293223358  
9.575                          0.169315321151509 149.293860425232 0.553033206886179 136.612650960981 0.491620710604482 50.0779623998046 0.650995872874351 -19.9234678545438 
                               0.553033206886158 136.612650960982 0.171164203400493 149.265954782751 0.48966301628185 49.8376969432391 0.65198709325873 159.964491245844 
                               0.491620710604478 50.0779623998026 0.489663016281856 49.8376969432409 0.720093055705973 140.331494148662 0.0023219185072365 -122.806418638646 
                               0.650995872874346 -19.9234678545434 0.651987093258742 159.964491245843 0.00232191850723205 -122.806418639079 0.388731107510727 -171.060063784454 
9.6                            0.16980849617699 146.895347109156 0.55496696969457 133.863958053351 0.489976610671443 47.1202449203422 0.650461095043873 -22.6823011452657 
                               0.554966969694549 133.863958053352 0.17164981305569 146.869968218583 0.488016915034071 46.8767203616538 0.651450282904103 157.205876044685 
                               0.489976610671439 47.1202449203403 0.488016915034077 46.8767203616556 0.722327560826635 137.081078388869 0.00232360711531637 -126.084399900165 
                               0.650461095043868 -22.6823011452653 0.651450282904115 157.205876044684 0.00232360711531132 -126.084399900558 0.390522115630416 -173.68782895479 
9.625                          0.170309997796221 144.496291997236 0.556907085953477 131.120156724613 0.488313666244518 44.1656381458359 0.649922122738032 -25.4358655661343 
                               0.556907085953457 131.120156724614 0.172142845293383 144.473470411797 0.486351898966318 43.9188057188161 0.650909493555719 154.452514940979 
                               0.488313666244514 44.1656381458341 0.486351898966323 43.9188057188178 0.724573107423909 133.833236405198 0.00232502231256212 -129.358435352512 
                               0.649922122738029 -25.4358655661339 0.650909493555731 154.452514940978 0.00232502231255667 -129.358435352862 0.392317039963812 -176.312673055145 
9.65                           0.170819442704259 142.096489982452 0.558853576729877 128.381109153845 0.486631700632356 41.2141376476083 0.649378938653668 -28.1842528934582 
                               0.558853576729859 128.381109153846 0.172642910915089 142.076252747654 0.484667796220914 40.9639489056531 0.6503647085561  151.704314923788 
                               0.486631700632353 41.2141376476066 0.484667796220919 40.9639489056547 0.726829569496456 130.588110245696 0.00232616382235985 -132.628294381746 
                               0.649378938653665 -28.1842528934578 0.650364708556112 151.704314923787 0.00232616382235417 -132.628294382054 0.394115850865292 -178.934650544932 
9.675                          0.171336421826459 139.695747868797 0.560806436572738 125.646681272701 0.484930572710406 38.2657411957559 0.648831525616747 -30.9275531639055 
                               0.560806436572721 125.646681272702 0.173149597411102 139.678118220712 0.48296447090781 38.0121479952152 0.649815910728676 148.961184679954 
                               0.484930572710402 38.2657411957543 0.482964470907814 38.0121479952166 0.72909676768345 127.345841612826 0.00232703205227162 -135.893751431594 
                               0.648831525616745 -30.9275531639051 0.649815910728687 148.961184679954 0.00232703205226588 -135.893751431862 0.3959185188124  178.446184851558 
9.7                            0.171860502083394 137.293884592946 0.562765634327981 122.916742762494 0.483210176645757 35.3204485443937 0.648279866607901 -33.6658547401326 
                               0.562765634327965 122.916742762494 0.173662470795146 137.278881652533 0.481241822824848 35.0634030243846 0.649263082367818 146.223034530176 
                               0.483210176645754 35.3204485443923 0.481241822824851 35.0634030243859 0.731374471249451 124.106571359585 0.00232762807065993 -139.154585723818 
                               0.6482798666079  -33.6658547401323 0.649263082367828 146.223034530175 0.00232762807065427 -139.154585724048 0.397725014412633 175.829780132112 
9.725                          0.172391228170416 134.890731402411 0.564731114011715 120.191167045419 0.481470441521368 32.3782612121335 0.647723944789409 -36.3992443770933 
                               0.564731114011702 120.19116704542  0.174181077453561 134.878369867256 0.479499787076281 32.1177157706287 0.648706205229413 143.489776364626 
                               0.481470441521365 32.3782612121322 0.479499787076284 32.1177157706299 0.733662400218588 120.870438986179 0.00232795358849075 -142.410580922945 
                               0.647723944789408 -36.399244377093 0.648706205229422 143.489776364626 0.00232795358848526 -142.41058092314 0.399535308417653 173.216083004343 
9.75                           0.172928124352339 132.486131991145 0.56670279573537 117.469831270414 0.479711330863329 29.4391822592023 0.647163743532567 -39.1278072884674 
                               0.566702795735357 117.469831270415 0.174704946008837 132.476421825996 0.47773833359319 29.175089525223  0.648145260521332 140.7613235787   
                               0.479711330863326 29.4391822592012 0.477738333593192 29.175089525224  0.735960227641262 117.63758213992  0.0023280109457857 -145.661524789658 
                               0.647163743532568 -39.1278072884671 0.648145260521341 140.761323578699 0.00232801094578049 -145.661524789821 0.40134937174415 170.605041874214 
9.775                          0.173470696273171 130.079942593556 0.568680576676647 114.752616294069 0.477932842075153 26.5032160625218 0.646599246444506 -41.851627212712 
                               0.568680576676636 114.752616294069 0.175233589196751 130.072888720997 0.475957466559707 26.2355288642823 0.647580228893253 138.037591009376 
                               0.477932842075151 26.5032160625209 0.475957466559709 26.2355288642832 0.738267581976553 114.408136120856 0.00232780310208959 -148.907208857764 
                               0.646599246444506 -41.8516272127116 0.647580228893262 138.037591009375 0.00232780310208471 -148.9072088579  0.403167175500603 167.996605835339 
9.8                            0.174018432780223 127.672032037884 0.570664332090565 112.039406656987 0.476135005783298 23.5703680899731 0.646030437393588 -44.5707864783061 
                               0.570664332090555 112.039406656987 0.175766505755751 127.667634030512 0.474157223749273 23.2990394188444 0.647011090425375 135.318494872633 
                               0.476135005783296 23.5703680899723 0.474157223749274 23.2990394188451 0.740584049573607 111.182233395477 0.0023273336302634 -152.147428161942 
                               0.64603043739359 -44.5707864783058 0.647011090425382 135.318494872632 0.00232733363025889 -152.147428162054 0.404988691019282 165.390724659049 
9.825                          0.174570807761291 125.262281759915 0.572653916355094 109.330090555915 0.474317885098379 20.6406446749762 0.645457300532666 -47.2853660678253 
                               0.572653916355086 109.330090555915 0.176303182326632 125.260533535349 0.472337675775354 20.3656276451517 0.646437824615653 132.603952702285 
                               0.474317885098378 20.6406446749756 0.472337675775355 20.3656276451523 0.742909177235434 107.960003120631 0.00232660671289164 -155.381981036886 
                               0.645457300532668 -47.2853660678251 0.64643782461566 132.603952702285 0.00232660671288755 -155.381981036977 0.406813889892863 162.78734878522  
9.85                           0.175127281992953 122.850585778054 0.574649164046213 106.624559811923 0.472481574796702 17.7140527924148 0.644879820319521 -49.9954456805401 
                               0.574649164046207 106.624559811923 0.176843095359864 122.851475298126 0.470498925261257 17.4353005961781 0.645860410365264 129.893883290543 
                               0.472481574796701 17.7140527924143 0.470498925261257 17.4353005961786 0.745242474848924 104.741570679622 0.00232562714059522 -158.610669003041 
                               0.644879820319523 -49.9954456805399 0.64586041036527 129.893883290542 0.00232562714059155 -158.610669003115 0.408642744015116 160.186429313825 
9.875                          0.175687304997345 120.436850630842 0.576649891037446 103.922709834881 0.470626200426899 14.7905998368339 0.644297981533961 -52.7011037932932 
                               0.576649891037441 103.922709834881 0.177385713027315 120.440359606309 0.468641105933829 14.5080656953453 0.645278825962077 127.188206630537 
                               0.470626200426898 14.7905998368335 0.468641105933829 14.5080656953457 0.747583418065259 101.527057232214 0.00232440031156175 -161.833296749461 
                               0.644297981533964 -52.7011037932929 0.645278825962082 127.188206630537 0.0023244003115585 -161.833296749522 0.410475225625147 157.587917997208 
9.9                            0.176250316904123 118.020995278114 0.578655895619209 101.224439584419 0.468751917346562 11.8702934037417 0.643711769291099 -55.4024177194609 
                               0.578655895619205 101.224439584419 0.177930497134471 118.027098880211 0.46676438164596 11.583930513274  0.644693049061991 124.486843861014 
                               0.468751917346561 11.8702934037414 0.466764381645959 11.5839305132743 0.749931451015466 98.3165792800761 0.00232293223163899 -165.049672220394 
                               0.643711769291101 -55.4024177194608 0.644693049061995 124.486843861014 0.00232293223163616 -165.049672220444 0.412311307354764 154.991767233043 
9.925                          0.176815750313683 115.602950967077 0.580666959633519 98.5296515275518 0.466858909693822 8.9531410747418  0.643121169050426 -58.0994636658599 
                               0.580666959633517 98.5296515275518 0.17847690502864 115.611617547225 0.464868945332859 8.66290254830834 0.644103056668051 121.789717213318 
                               0.466858909693822 8.95314107474159 0.464868945332859 8.66290254830854 0.752285989046478 95.110248248991  0.0023212295143811 -168.259606808834 
                               0.643121169050428 -58.0994636658598 0.644103056668055 121.789717213318 0.00232122951437866 -168.259606808876 0.414150962278547 152.397930057952 
9.95                           0.177383032157116 113.182661064729 0.582682849619869 95.838251593077  0.464947389298859 6.03915020712117 0.642526166620405 -60.7923167875018 
                               0.582682849619868 95.838251593077  0.179024391498096 113.19385188371  0.462955017907135 5.74498901145422 0.643508825107327 119.096749960761 
                               0.464947389298859 6.03915020712102 0.462955017907134 5.74498901145436 0.754646421463792 91.9081700888991 0.00231929938048909 -171.462915657434 
                               0.642526166620407 -60.7923167875016 0.64350882510733 119.096749960761 0.00231929938048703 -171.46291565747 0.415994163966285 149.806360141763 
9.975                          0.177951585547827 110.760080858187 0.584703317968256 93.150149122865  0.463017594540311 3.12832772842356 0.641926748158342 -63.4810512401479 
                               0.584703317968255 93.150149122865  0.179572410656602 110.773749826047 0.46102284709767 2.83019661626826 0.642910330005581 116.407866370433 
                               0.463017594540311 3.12832772842347 0.461022847097669 2.83019661626834 0.75701211426764 88.7104448926665 0.00231714965614485 -174.659418064689 
                               0.641926748158344 -63.4810512401479 0.642910330005583 116.407866370433 0.00231714965614315 -174.65941806472 0.417840886537454 147.217011782366 
10                             0.178520831619283 108.335177324631 0.586728104075584 90.4652568201033 0.461069789151492 0.220679936435329 0.641322900165402 -66.165740230655 
                               0.586728104075583 90.4652568201033 0.180120417807351 108.351270752554 0.459072706237283 -0.0814686258638292 0.642307546259821 113.722991657425 
                               0.461069789151492 0.220679936435276 0.459072706237283 -0.0814686258638056 0.759382412870446 85.5171665342181 0.00231478876980072 -177.848937992251 
                               0.641322900165403 -66.1657402306549 0.642307546259823 113.722991657425 0.00231478876979935 -177.848937992279 0.419691104717456 144.629839901138 
10.025                         0.179090191342953 105.907928872736 0.588756935501844 87.7834906945526 0.459104260981259 -2.68378769508195 0.640714609476667 -68.8464560651388 
                               0.588756935501844 87.7834906945526 0.180667871279983 105.926385238089 0.457104893004033 -2.99000160471875 0.641700448008864 111.042051941463 
                               0.459104260981259 -2.68378769508198 0.457104893004033 -2.99000160471875 0.761756644784283 82.3284223264781 0.00231222574705222 178.968695332526 
                               0.640714609476669 -68.8464560651387 0.641700448008866 111.042051941463 0.00231222574705116 178.9686953325   0.42154479389539 142.044800038916 
10.05                          0.179659087320212 103.47832505763  0.590789529122661 85.1047700048442 0.45712132071421 -5.58507070466935 0.64010186324624 -71.5232701950189 
                               0.590789529122661 85.1047700048443 0.181214234234148 103.499074783322 0.45511972812095 -5.89539830424767 0.64108900860208 108.364974205848 
                               0.45712132071421 -5.58507070466937 0.45511972812095 -5.89539830424767 0.764134122268065 79.1442926993444 0.00230947020329015 175.793646726184 
                               0.640101863246241 -71.5232701950188 0.641089008602081 108.364974205848 0.00230947020328937 175.793646726159 0.423401930183132 139.461848352467 
10.075                         0.180226945541782 101.046366271586 0.592825592274968 82.4290171978356 0.455121300554789 -8.48316582530862 0.639484648927403 -74.1962532610379 
                               0.592825592274969 82.4290171978356 0.181758976422902 101.069331520811 0.453117554018796 -8.7976559894546 0.640473200566522 105.691686258622 
                               0.45512130055479 -8.48316582530866 0.453117554018796 -8.79765598945461 0.766514144925167 75.9648508977229 0.00230653233389685 172.626074279424 
                               0.639484648927404 -74.1962532610378 0.640473200566522 105.691686258622 0.00230653233389633 172.6260742794   0.425262490475528 136.880941611439 
10.1                           0.180793197108203 98.6120634127991 0.594864823892757 79.7561578450251 0.453104552879653 -11.3780711603513 0.63886295424793 -76.8654751353746 
                               0.594864823892758 79.7561578450251 0.182301575909214 98.6371579001773 0.451098733466306 -11.696773387069 0.63985299557269 103.022116695806 
                               0.453104552879653 -11.3780711603513 0.451098733466306 -11.696773387069 0.76889600224327 72.7901626994526 0.00230342290182107 169.466128517517 
                               0.63886295424793 -76.8654751353746 0.63985299557269 103.022116695806 0.00230342290182078 169.466128517493 0.427126452511541 134.30203719576  
10.125                         0.181357279904869 96.1754375347717 0.596906915629988 77.0861205760197 0.45107144886246 -14.2697863532515 0.638236767180686 -79.5310049619966 
                               0.596906915629989 77.0861205760198 0.182841520728952 96.2025663547849 0.449063648172127 -14.5927508600249 0.639228364399182 100.356194866572 
                               0.451071448862461 -14.2697863532515 0.449063648172128 -14.5927508600249 0.771278976069249 69.6202861527719 0.00230015322243316 166.313951500985 
                               0.638236767180685 -79.5310049619966 0.639228364399182 100.356194866572 0.00230015322243309 166.313951500961 0.428993794936192 131.725093093439 
10.15                          0.181918640225308 93.7365194789626 0.59895155296791 74.4188370090387 0.449022377075038 -17.158312751193 0.637606075909681 -82.1929111954168 
                               0.598951552967911 74.4188370090388 0.183378310493929 93.7655789524998 0.447012697362489 -17.4855905758375 0.638599276896522 97.6938508401513 
                               0.449022377075038 -17.1583127511931 0.44701269736249 -17.4855905758375 0.773662343012954 66.4552713327981 0.00229673514562828 163.169675877191 
                               0.637606075909681 -82.1929111954167 0.638599276896522 97.6938508401513 0.0022967351456284 163.169675877167 0.43086449736315 129.150067898761 
10.175                         0.182476734336692 91.2953494934788 0.600998416304195 71.7542416784346 0.446957742068597 -20.0436535627668 0.636970868791797 -84.8512616380371 
                               0.600998416304196 71.7542416784346 0.183911457928899 91.3262270331812 0.444946296338344 -20.375296669036 0.637965701950473 95.035015374285  
                               0.446957742068597 -20.0436535627669 0.444946296338346 -20.375296669036 0.776045376774807 63.2951601163378 0.0022931810352072 160.033423893666 
                               0.636970868791796 -84.8512616380371 0.637965701950472 95.035015374285  0.0022931810352075 160.033423893643 0.432738540437834 126.576920810832 
10.2                           0.183031029981945 88.851976840701  0.603047182021415 69.0922719592085 0.44487796293845 -22.9258140099255 0.636331134314426 -87.5061234762788 
                               0.603047182021416 69.0922719592085 0.184440490336884 88.8845508356722 0.442864875015512 -23.2618753978842 0.637327607445143 92.3796198850097 
                               0.44487796293845 -22.9258140099256 0.442864875015513 -23.2618753978842 0.778427350393097 60.1399859741915 0.0022895037456222 156.905306384106 
                               0.636331134314425 -87.5061234762788 0.637327607445143 92.3796198850098 0.00228950374562266 156.905306384083 0.434615905900889 124.005611632455 
10.225                         0.183581007813364 86.4064593968097 0.605097523532543 66.432867988499  0.442783471875396 -25.8048014744962 0.635686861049299 -90.1575633157053 
                               0.605097523532542 66.4328679884991 0.18496495098773 86.4405991171214 0.440768876451059 -26.1453352956751 0.636684960226229 89.7275964175406 
                               0.442783471875396 -25.8048014744963 0.440768876451061 -26.145335295675 0.780807538407838 56.9897737799868 0.00228571659622809 153.785421737796 
                               0.635686861049297 -90.1575633157053 0.636684960226229 89.7275964175406 0.0022857165962287 153.785421737774 0.436496576651901 121.436100769309 
10.25                          0.184126162753297 83.9588632462401 0.607149112301272 63.7759725840257 0.440674712706671 -28.6806256395891 0.635038037602803 -92.8056472153593 
                               0.607149112301271 63.7759725840258 0.185484400425496 83.9944287675133 0.438658755358892 -29.0256873169461 0.636037726064703 87.0788776180198 
                               0.440674712706671 -28.6806256395893 0.438658755358894 -29.025687316946 0.783185218938964 53.8445396344479 0.00228183334322495 150.67385486297  
                               0.635038037602801 -92.8056472153593 0.636037726064703 87.0788776180198 0.00228183334322569 150.673854862948 0.438380536813186 118.86834922941  
10.275                         0.184666005278188 81.509262274117  0.6092016188351  61.1215311594735 0.438552139429097 -31.5532986262856 0.634384652563103 -95.4504407215355 
                               0.609201618835099 61.1215311594736 0.185998417691034 81.5461044223059 0.436534976617259 -31.9029449790064 0.635385869621308 84.4333967058872 
                               0.438552139429097 -31.5532986262858 0.436534976617261 -31.9029449790063 0.785559675677498 50.7042907039094 0.00227786814951901 147.57067615413  
                               0.634384652563102 -95.4504407215355 0.635385869621308 84.4333967058872 0.00227786814951987 147.57067615411  0.440267771793508 116.302318622835 
10.3                           0.185200062623103 79.0577377597155 0.611254713649227 58.4694916368115 0.436416214736788 -34.4228351260308 0.633726694444409 -98.0920089012169 
                               0.611254713649225 58.4694916368116 0.186506601456979 79.0956980760585 0.43439801377058 -34.777124499213 0.634729354412173 81.7910874466258 
                               0.436416214736787 -34.422835126031 0.434398013770581 -34.7771244992128 0.787930199789086 47.5690250717826 0.002273835552761 144.475940472813 
                               0.633726694444407 -98.0920089012169 0.634729354412173 81.7910874466258 0.00227383555276196 144.475940472794 0.442158268351541 113.737971161687 
10.325                         0.185727879904809 76.6043779739557 0.61330806819943 55.8198043555494 0.434267408545499 -37.2892525291895 0.633064151628732 -100.730416375402 
                               0.613308068199429 55.8198043555495 0.187008571073297 76.6432886998919 0.432248347527777 -37.6482449284675 0.634068142775892 79.1518841246323 
                               0.434267408545498 -37.2892525291897 0.432248347527779 -37.6482449284673 0.790296091730043 44.4387316016108 0.00226975043184612 141.389686150582 
                               0.63306415162873 -100.730416375402 0.634068142775893 79.1518841246323 0.00226975043184717 141.389686150565 0.444052014658862 111.175269660289 
10.35                          0.186249021162452 74.1492777838622 0.615361355782239 53.1724219789445 0.43210619651547 -40.1525710502565 0.632397012305496 -103.365727352548 
                               0.615361355782238 53.1724219789446 0.187503967522528 74.188961865544  0.430086464258993 -40.5163282814361 0.633402195842393 76.515721515969  
                               0.432106196515469 -40.1525710502567 0.430086464258995 -40.5163282814359 0.792656662976674 41.3133898102837 0.00226562797217784 138.311934022263 
                               0.632397012305494 -103.365727352548 0.633402195842394 76.515721515969  0.00226562797217896 138.311934022248 0.445949000362264 108.614177535598 
10.375                         0.186763070315891 71.6925382668086 0.617414252400789 50.5272993971848 0.429933058574349 -43.0128138502303 0.631725264409379 -105.99800566235 
                               0.617414252400787 50.5272993971849 0.187992454284888 71.7328093786722 0.427912854492343 -43.3813996640196 0.632731473503898 73.8825348607524 
                               0.429933058574348 -43.0128138502305 0.427912854492345 -43.3813996640195 0.795011237669177 38.1929697499304 0.00226148363000711 135.242686496602 
                               0.631725264409377 -105.99800566235 0.632731473503899 73.8825348607524 0.00226148363000829 135.242686496588 0.447849216645123 106.054658807822 
10.4                           0.187269632042836 69.2342663372207 0.619466437594883 47.8843936275892 0.427748477441562 -45.8700071566802 0.631048895556733 -108.627314790072 
                               0.619466437594881 47.8843936275893 0.188473718114449 69.2749289239102 0.425728011412137 -46.2434873986189 0.632055934388301 71.2522598349431 
                               0.42774847744156 -45.8700071566804 0.425728011412139 -46.2434873986186 0.797359154171903 35.0774318969779 0.00225733309616105 132.181926670608 
                               0.631048895556731 -108.627314790072 0.632055934388302 71.2522598349431 0.00225733309616226 132.181926670596 0.449752656287516 103.496678101239 
10.425                         0.187768332576989 66.7745743882263 0.621517595233907 45.2436637118783 0.425552937155289 -48.7241803820449 0.630367892980994 -111.253717911631 
                               0.621517595233904 45.2436637118784 0.188947469728659 66.8154237240064 0.423532429359751 -49.1026231477499 0.63137553583524 68.6248325213112 
                               0.425552937155288 -48.7241803820451 0.423532429359753 -49.1026231477497 0.79969976655214 31.9667270468357 0.0022531922594702 129.129617492944 
                               0.630367892980993 -111.253717911631 0.631375535835241 68.6248325213112 0.00225319225947143 129.129617492934 0.451659313724784 100.94020064522  
10.45                          0.188258820430443 64.3135799505226 0.623567414271309 42.6050706105895 0.423346921603001 -51.5753662407069 0.629682243467425 -113.877277929634 
                               0.623567414271306 42.6050706105896 0.189413444414528 64.3544022151643 0.421326602338158 -51.9588420365744 0.630690233875147 66.0001893793595 
                               0.423346921602999 -51.5753662407071 0.42132660233816 -51.9588420365742 0.802032445979862 28.8607962126617 0.00224907717019136 126.08570098077  
                               0.629682243467424 -113.877277929634 0.630690233875149 66.0001893793596 0.00224907717019258 126.085700980761 0.453569185104139 98.3851922754446 
10.475                         0.188740767044621 61.851405370479  0.625615589459519 39.9685770947224 0.421130913056335 -54.4236008653866 0.628991933287582 -116.498057510537 
                               0.625615589459516 39.9685770947224 0.189871402555767 61.8919777404559 0.41911102252094 -54.8121827749075 0.629999983211544 63.3782672140025 
                               0.421130913056334 -54.4236008653868 0.419111022520941 -54.8121827749073 0.804356582051065 25.7595705266623 0.00224500400370495 123.050097493512 
                               0.628991933287582 -116.498057510537 0.629999983211546 63.3782672140025 0.00224500400370615 123.050097493505 0.455482268338925 95.8316194353265 
10.5                           0.189213867374997 59.3881775092112 0.627661822024232 37.3341476347239 0.418905390710967 -57.2689239233942 0.628296948133871 -119.116119123107 
                               0.627661822024229 37.3341476347239 0.190321130086167 59.4282682629188 0.416886178766436 -57.6626877792617 0.629304737206819 60.7590031428119 
                               0.418905390710965 -57.2689239233943 0.416886178766437 -57.6626877792615 0.806671584037468 22.6629711423996 0.00224098902474161 120.022705066143 
                               0.628296948133871 -119.116119123107 0.62930473720682 60.7590031428119 0.00224098902474276 120.022705066137 0.457398563160052 93.2794491776471 
10.525                         0.18967784041574 56.9240274640516 0.629705820297132 34.7017482869377 0.416670829231948 -60.1113787332666 0.627597273054558 -121.731525078317 
                               0.629705820297129 34.7017482869377 0.190762438875337 56.9633960996446 0.414652555137568 -60.5104032954761 0.628604447871718 58.1423345616589 
                               0.416670829231946 -60.1113787332667 0.414652555137569 -60.510403295476 0.808976882065317 19.5709091365985 0.00223704855236367 117.003398803645 
                               0.627597273054558 -121.731525078318 0.62860444787172 58.1423345616589 0.00223704855236476 117.00339880364  0.45931807116409 90.7286491664147 
10.55                          0.190132429671211 54.4590903135066 0.6317473003062  32.071346577664  0.414427697304937 -62.9510123822998 0.62689289238959 -124.344337570829 
                               0.631747300306197 32.071346577664  0.191195167053714 54.4974876778534 0.41241062942774 -63.3553795224641 0.627899065858771 55.5281991085994 
                               0.414427697304935 -62.9510123822998 0.41241062942774 -63.355379522464 0.811271928226027 16.4832854089897 0.00223319892589352 113.99203033756  
                               0.62689289238959 -124.344337570829 0.627899065858772 55.5281991085995 0.00223319892589452 113.992030337555 0.461240795857473 88.1791876789629 
10.575                         0.190577403581946 51.9935048864336 0.633785986322872 29.442911384995  0.412176456193625 -65.7878758454704 0.626183789707577 -126.954618722141 
                               0.633785986322868 29.4429113849949 0.191619179284461 52.030673313609  0.410160871693153 -66.1976707375941 0.627188540459819 52.916534625869  
                               0.412176456193623 -65.7878758454704 0.410160871693153 -66.197670737594 0.813556197621211 13.3999905787627 0.00222945647194345 110.98842734472  
                               0.626183789707578 -126.954618722141 0.627188540459822 52.9165346258691 0.00222945647194433 110.988427344716 0.463166742696169 85.6310336083061 
10.6                           0.191012555913288 49.5274135558034 0.635821611365395 26.8164128186093 0.409917558303608 -68.6220241062113 0.625469947744277 -129.562430625528 
                               0.635821611365391 26.8164128186093 0.19203436699039 49.5630870134828 0.40790374279179 -69.0373354241934 0.626472819607849 50.3072791198763 
                               0.409917558303606 -68.6220241062113 0.40790374279179 -69.0373354241933 0.815829189344463 10.3209048762663 0.00222583747266127 107.992393127619 
                               0.625469947744279 -129.562430625528 0.626472819607851 50.3072791198764 0.00222583747266202 107.992393127615 0.465095919120162 83.0841564657776 
10.625                         0.191437706115287 47.0609620570259 0.637853917657852 24.1918220977345 0.407651445752939 -71.4535162794801 0.624751348342921 -132.167835392809 
                               0.637853917657848 24.1918220977345 0.192440648544493 47.0948662991106 0.405639692929286 -71.8744364016373 0.625751849883252 47.7003707191064 
                               0.407651445752937 -71.45351627948  0.405639692929286 -71.8744364016372 0.818090427401926 7.24589802865211 0.00222235813526313 105.003706255239 
                               0.624751348342922 -132.16783539281 0.625751849883254 47.7003707191065 0.00222235813526372 105.003706255234 0.467028334581996 80.538526383975  
10.65                          0.191852699662721 44.5942993304321 0.639882657044387 21.5691114274989 0.405378548949556 -74.2824157375272 0.624027972396686 -134.770895203007 
                               0.639882657044383 21.5691114274989 0.192837969432945 44.6261520542215 0.403369160211895 -74.7090409584531 0.625025576524683 45.0957476298686 
                               0.405378548949554 -74.2824157375271 0.403369160211894 -74.7090409584531 0.820339461573369 4.17482913823503 0.00221903456288051 102.022120262674 
                               0.624027972396687 -134.770895203007 0.625025576524686 45.0957476298687 0.00221903456288091 102.022120262668 0.46896400056861 77.9941141200452 
10.675                         0.192257408384218 42.127577387113  0.641907591358292 18.9482538739219 0.403099285175817 -77.1087902387327 0.623299799793651 -137.371672352904 
                               0.641907591358288 18.9482538739218 0.193226302399575 42.1570883933521 0.401092569206745 -77.541220988833 0.624293943444609 42.4933480898494 
                               0.403099285175815 -77.1087902387326 0.401092569206743 -77.541220988833 0.822575868215031 1.10754655241974 0.00221588272670252 99.0473634074546 
                               0.623299799793653 -137.371672352904 0.624293943444612 42.4933480898495 0.00221588272670273 99.0473634074474 0.470902930615594 75.4508910593432 
10.7                           0.192651730789392 39.6609511969324 0.643928492745682 16.3292232378045 0.400814057180391 -79.9327120598443 0.622566809364519 -139.970229309508 
                               0.643928492745679 16.3292232378045 0.193605647580786 39.6878225510952 0.398810329509634 -80.3710531329118 0.623556893249663 39.8931103194538 
                               0.400814057180389 -79.9327120598441 0.398810329509633 -80.3710531329118 0.824799251005037 -1.95611227586684 0.0022129184393483 96.0791384801523 
                               0.622566809364521 -139.970229309509 0.623556893249667 39.8931103194539 0.00221291843934829 96.0791384801435 0.472845140312978 72.9088292195024 
10.725                         0.193035592402695 37.1945785971527 0.645945143943592 13.7119939278077 0.398523251777814 -82.7542581319038 0.62182897883341 -142.566628764373 
                               0.645945143943589 13.7119939278076 0.193976032639741 37.2185047903813 0.396522834320638 -83.1986189211212 0.622814367265897 37.2949724709511 
                               0.398523251777812 -82.7542581319036 0.396522834320637 -83.1986189211212 0.827009241631621 -5.01632093820191 0.0022101573293574 93.1171226666469 
                               0.621828978833413 -142.566628764373 0.622814367265901 37.2949724709512 0.00221015732935716 93.117122666636  0.474790647301588 70.3679012549604 
10.75                          0.193408946112263 34.728620219756  0.647957338512403 11.0965408330175 0.39622723845611 -85.5735101801089 0.621086284772003 -145.160933689734 
                               0.6479573385124  11.0965408330175 0.194337512908293 34.7492883279504 0.394230459027892 -86.02400492289  0.622066305568986 34.6988725754598 
                               0.396227238456108 -85.5735101801087 0.394230459027891 -86.0240049228901 0.829205500423857 -8.07326423201916 0.00220761481663924 90.1609674593023 
                               0.621086284772006 -145.160933689734 0.622066305568989 34.69887257546   0.00220761481663876 90.1609674592891 0.476739471258945 67.8280804619839 
10.775                         0.193771772541541 32.2632394351995 0.6499648810226  8.48283919532269 0.393926367992947 -88.3905548678038 0.620338702557306 -147.753207396367 
                               0.649964881022597 8.48283919532265 0.19469017154469 32.2803292748544 0.391933559799994 -88.8473028999078 0.62131264701947 32.1047484878432 
                               0.393926367992945 -88.3905548678036 0.391933559799993 -88.8473028999079 0.831387716923907 -11.1271383340405 0.00220530608867648 87.2102986142983 
                               0.62033870255731 -147.753207396367 0.621312647019474 32.1047484878433 0.00220530608867575 87.2102986142824 0.478691633873641 65.2893407842456 
10.8                           0.194124080450695 29.7986023100329 0.651967587195938 5.87086448193825 0.391620971080951 -91.2054839447489 0.619586206333322 -150.343513593059 
                               0.651967587195936 5.87086448193826 0.195034119714466 29.811786589531  0.389632472187602 -91.668609964123 0.620553329303078 29.5125378296065 
                               0.39162097108095 -91.2054839447487 0.389632472187601 -91.6686099641231 0.833555610399168 -14.1781509864329 0.00220324607723046 84.2647161524481 
                               0.619586206333324 -150.34351359306 0.620553329303082 29.5125378296066 0.00220324607722948 84.2647161524295 0.480647158807066 62.751656819003  
10.825                         0.194465907174042 27.3348775755194 0.653965284001179 3.26059225843346 0.38931135696292 -94.0183943997628 0.618828768976857 -152.931916447555 
                               0.653965284001176 3.2605922584335  0.195369496801188 27.3438220407231 0.387327509734918 -94.4880287405926 0.619788288976149 26.9221779299221 
                               0.389311356962918 -94.0183943997626 0.387327509734917 -94.4880287405927 0.835708930291951 -17.2265216962093 0.00220144943525177 81.3237944010369 
                               0.618828768976861 -152.931916447555 0.619788288976153 26.9221779299223 0.00220144943525054 81.3237944010154 0.482606071641307 60.2150038239385 
10.85                          0.19479731909869 24.872236604156  0.65595780970462 0.651998062632834 0.386997812077828 -96.8293886177779 0.618066362067753 -155.518480648799 
                               0.655957809704618 0.65199806263288 0.195696470652888 24.8766001772822 0.385018962601911 -97.3056675352422 0.619017461516225 24.3336057649336 
                               0.386997812077826 -96.8293886177777 0.38501896260191 -97.3056675352422 0.837847456603613 -20.2724819482703 0.00219993051365355 78.3870820745115 
                               0.618066362067756 -155.518480648799 0.619017461516229 24.3336057649337 0.00219993051365207 78.3870820744872 0.484568399812006 57.6793577247199 
10.875                         0.195118412188544 22.4108533907732 0.657945013875737 -1.95494272022568 0.384680598718729 -99.6385745412976 0.617298955863752 -158.103271470305 
                               0.657945013875734 -1.95494272022561 0.196015237869029 22.4102883016891 0.382707096198323 -100.121640507546 0.618240781377815 21.7467578955172 
                               0.384680598718728 -99.6385745412975 0.382707096198322 -100.121640507546 0.839971000209223 -23.3162754323459 0.00219870333756053 75.4541023922635 
                               0.617298955863755 -158.103271470306 0.618240781377819 21.7467578955174 0.00219870333755882 75.4541023922363 0.48653417252491 55.1446951233439 
10.9                           0.195429312556605 19.9509045347333 0.659926757348286 -4.56025498067446 0.382359953703821 -102.44606583618 0.61652651928027 -160.686354834404 
                               0.659926757348282 -4.56025498067435 0.196326024131845 19.9450564439664 0.380392149830667 -102.936067848065 0.617458182053366 19.1615704037134 
                               0.382359953703819 -102.44606583618 0.380392149830667 -102.936067848065 0.842079403098084 -26.3581582839567 0.00219778158160265 72.5243532322659 
                               0.616526519280273 -160.686354834404 0.617458182053369 19.1615704037136 0.00219778158160071 72.5243532322361 0.488503420654803 52.6109933073315 
10.925                         0.195730177087269 17.4925692196163 0.661902912137322 -7.16396400613406 0.380036087062182 -105.251982061617 0.615749019875304 -163.267797377134 
                               0.661902912137319 -7.16396400613391 0.196629084584747 17.4810773325306 0.37807433536368 -105.749075960739 0.616669596139458 16.5779788280613 
                               0.38003608706218 -105.251982061617 0.37807433536368 -105.749075960739 0.844172538534552 -29.398399339367 0.00219717854377805 69.5973073199446 
                               0.615749019875306 -163.267797377135 0.616669596139462 16.5779788280614 0.00219717854377591 69.5973073199123 0.490476176625493 50.0782302598419 
10.95                          0.196021194109011 15.0360291867113 0.663873361312617 -9.76609559954066 0.377709180735914 -108.056448844127 0.614966423839707 -165.847666513508 
                               0.663873361312613 -9.7660955995405 0.196924704259365 15.0185263584551 0.375753835897904 -108.560797649745 0.615874955408271 13.995918098104  
                               0.377709180735912 -108.056448844127 0.375753835897904 -108.560797649745 0.846250311132693 -32.4372804043407 0.00219690711736691 66.6724124524106 
                               0.614966423839709 -165.847666513509 0.615874955408276 13.9959180981041 0.0021969071173646 66.6724124523763 0.49245247426949 47.5463846707787 
10.975                         0.196302584116509 12.5814686986011 0.665837998829013 -12.3666761950531 0.375379387300698 -110.859598055288 0.614178695993087 -168.42603050283 
                               0.66583799882901 -12.3666761950529 0.197213198551601 12.5575815295797 0.373430804465344 -111.37137231068 0.615074190884318 11.4153224683551 
                               0.375379387300697 -110.859598055288 0.373430804465344 -111.37137231068 0.848312656837455 -35.4750965363509 0.00219697976033374 63.7490917590338 
                               0.614178695993088 -168.42603050283 0.615074190884323 11.4153224683552 0.00219697976033128 63.7490917589977 0.494432348665967 45.0154359489619 
11                             0.196574600539943 10.1290744891536 0.667796729314333 -14.9657329703969 0.373046828707046 -113.661567992919 0.613385799785539 -171.002958513756 
                               0.667796729314329 -14.9657329703967 0.197494913745881 10.0984234109103 0.371105362745448 -114.180946125775 0.614267232926508 8.83612545204711 
                               0.373046828707045 -113.661567992919 0.371105362745448 -114.180946125775 0.850359542804035 -38.5121563397107 0.00219740846161304 60.8267440003193 
                               0.613385799785541 -171.002958513756 0.614267232926513 8.83612545204712 0.00219740846161047 60.826744000282  0.496415835955622 42.4853642354443 
11.025                         0.196837530557911 7.67903569630335 0.669749467815467 -17.5632939553982 0.370711595044841 -116.46250356531 0.612587697305487 -173.578520688746 
                               0.669749467815463 -17.563293955398 0.197770227585648 7.64123504781008 0.368777599803946 -116.989672262745 0.61345401131558 6.25825975500637 
                               0.37071159504484 -116.46250356531 0.368777599803946 -116.989672262745 0.852390967166157 -41.5487822729108 0.00219820470363004 57.9047439081593 
                               0.612587697305488 -173.578520688746 0.613454011315584 6.25825975500641 0.00219820470362739 57.9047439081214 0.498402973131005 39.9561504180487 
11.05                          0.197091695949121 5.23154377412982 0.671696139503334 -20.159388136252 0.368373743334093 -119.262556478067 0.611784349293848 -176.152788207505 
                               0.671696139503329 -20.1593881362518 0.198039549886999 5.18620186858252 0.366447570857442 -119.797711076846 0.612634455346944 3.68165721002732 
                               0.368373743334092 -119.262556478067 0.366447570857443 -119.797711076846 0.854406958682956 -44.585310967245 0.00219937942036611 54.9824425717788 
                               0.611784349293848 -176.152788207505 0.612634455346949 3.68165721002731 0.00219937942036342 54.9824425717409 0.500393797800903 37.4277761472086 
11.075                         0.19733745397691 2.7867923809091  0.673636679337432 -22.7540455550654 0.366033296345204 -122.06188542305 0.61097571516479 -178.725833349049 
                               0.673636679337427 -22.7540455550652 0.19830332319132 2.73351156318805 0.364115296067035 -122.605230315617 0.611808493929029 1.10624871214088 
                               0.366033296345203 -122.06188542305 0.364115296067036 -122.605230315617 0.856407576253097 -47.622093555592 0.00220094295023707 52.0591678750894 
                               0.610975715164791 -178.725833349049 0.611808493929034 1.10624871214088 0.00220094295023439 52.0591678750522 0.50238834792736 34.9002238531938 
11.1                           0.197575198299518 0.344977240028856 0.675571031690744 -25.3472974042134 0.363690241452424 -124.860656268831 0.610161753033338 178.702270448062 
                               0.675571031690739 -25.3472974042133 0.198562023451809 0.283353935023541 0.361780759364618 -125.412405325727 0.610976055687178 -1.4680358448019 
                               0.363690241452422 -124.860656268831 0.361780759364619 -125.412405325727 0.858392908283641 -50.659496009989 0.00220290498301282 49.1342249927147 
                               0.610161753033338 178.702270448062 0.610976055687183 -1.46803584480188 0.0022029049830102 49.134224992679  0.504386661533936 32.3734767648037 
11.125                         0.197805359898161 -2.0937040290829 0.677499149935759 -27.9391761150404 0.361344529524598 -127.659042252023 0.609342419750081 176.131448527742 
                               0.677499149935754 -27.9391761150403 0.198816160747896 -2.16407927708369 0.359443907315992 -128.219419261264 0.610137069073245 -4.04126762978765 
                               0.361344529524597 -127.659042252023 0.359443907315993 -128.219419261264 0.860363071900031 -53.6978994863858 0.00220527449996927 46.2068969536675 
                               0.609342419750082 176.131448527742 0.61013706907325 -4.04126762978764 0.00220527449996677 46.2068969536339 0.50638877638382 29.8475189296127 
11.15                          0.198028408014133 -4.52905211257058 0.679420995992444 -30.5297154404409 0.358996073857798 -130.457224168759 0.608517670943273 173.561624961143 
                               0.679420995992439 -30.5297154404408 0.199066280020839 -4.60859460925626 0.357104648025373 -131.026463292731 0.609291462480956 -6.61351893407461 
                               0.358996073857798 -130.457224168759 0.357104648025374 -131.026463292731 0.862318211982352 -56.7377006746948 0.00220805970643003 43.2764452835519 
                               0.608517670943274 173.561624961143 0.609291462480961 -6.61351893407465 0.00220805970642768 43.2764452835212 0.508394729626461 27.3223352358535 
11.175                         0.198244851085562 -6.96086623852738 0.681336539838978 -33.118950530854 0.356644749154886 -133.255390565537 0.607687461068607 170.992722494621 
                               0.681336539838973 -33.118950530854 0.199312961823161 -7.04999711761821 0.354762850086429 -133.833736815948 0.608439164367231 -9.18486322791588 
                               0.356644749154886 -133.255390565537 0.354762850086429 -133.833736815948 0.864258500011771 -59.7793121519633 0.00221126795582644 40.3421107382436 
                               0.607687461068606 170.992722494621 0.608439164367236 -9.18486322791588 0.00221126795582429 40.3421107382166 0.510404557411399 24.7979114360216 
11.2                           0.198455237674033 -9.38894444999901 0.683245758986106 -35.7069180032055 0.354290390557644 -136.053737928573 0.606851743466949 168.424662501434 
                               0.683245758986101 -35.7069180032055 0.199556823074153 -9.48809065999671 0.352418341585531 -136.641447659966 0.607580103379577 -11.7553752140663 
                               0.354290390557643 -136.053737928573 0.352418341585531 -136.641447659966 0.866184132709736 -62.8231627361758 0.00221490566438366 37.403114144272  
                               0.606851743466949 168.424662501434 0.607580103379583 -11.7553752140663 0.00221490566438177 37.4031141442494 0.512418294468048 22.2742341722858 
11.225                         0.198660157371024 -11.8130839160921 0.685148637915974 -38.2936560023365 0.351932792737667 -138.852470870742 0.606010470430368 165.857364937686 
                               0.68514863791597 -38.2936560023366 0.199798517813368 -11.9226782159101 0.350070909163554 -139.449812293041 0.606714208489794 -14.3251308775483 
                               0.351932792737666 -138.852470870742 0.350070909163554 -139.449812293041 0.868095330451157 -65.8696978378451 0.002218978215529 34.4586573636029 
                               0.606010470430369 165.857364937686 0.6067142084898  -14.3251308775483 0.0022189782155274 34.4586573635852 0.514435973650243 19.7512910037897 
11.25                          0.198860241674132 -14.2330812822641 0.687045167486334 -40.8792042544589 0.349571709052876 -141.651802315096 0.60516359327677 163.290748303054 
                               0.68704516748633 -40.879204254459 0.200038737943935 -14.35356224612  0.347720297143218 -142.259056025616 0.605841409134158 -16.8942075311332 
                               0.349571709052876 -141.651802315095 0.347720297143218 -142.259056025616 0.869992335431348 -68.9193798061758 0.00222348985312039 31.5079244031935 
                               0.605163593276771 163.290748303054 0.605841409134163 -16.8942075311332 0.00222348985311912 31.5079244031811 0.516457625444436 17.2290704359271 
11.275                         0.199056164823202 -16.6487330604594 0.688935344300994 -43.4636041121872 0.347206850777177 -144.451953673908 0.60431106243347 160.724729606856 
                               0.68893534430099 -43.4636041121875 0.200278213957545 -16.7805450926573 0.345366206729714 -145.069413209208 0.604961635360354 -19.4626838559824 
                               0.347206850777177 -144.451953673908 0.345366206729713 -145.069413209207 0.871875409565027 -71.9726882661719 0.00222844356261228 28.55008269256   
                               0.604311062433472 160.724729606856 0.604961635360359 -19.4626838559824 0.00222844356261137 28.5500826925535 0.518483277440504 14.7075619516706 
11.3                           0.199248644586927 -19.0598360593374 0.690819170047445 -46.0468985906979 0.344837886411548 -147.253155022107 0.603452827530083 158.159224340032 
                               0.690819170047443 -46.0468985906983 0.200517715633247 -19.2034294198512 0.343008295293153 -147.881127429995 0.604074817981415 -22.0306399368733 
                               0.344837886411549 -147.253155022106 0.343008295293151 -147.881127429995 0.87374483209416 -75.0301204426037 0.00223384093931698 25.5842845556571 
                               0.603452827530084 158.159224340032 0.60407481798142 -22.0306399368732 0.00223384093931644 25.5842845556566 0.520512953764251 12.1867560450379 
11.325                         0.199438442991058 -21.4661878544283 0.692696650802562 -48.629132394579 0.342464441085659 -150.055645263886 0.602588837501076 155.59414645361  
                               0.692696650802561 -48.6291323945795 0.200758052702555 -21.6220186965209 0.34064617574225 -150.694451695841 0.603180888736956 -24.5981572914261 
                               0.342464441085659 -150.055645263886 0.340646175742248 -150.694451695841 0.875600896879811 -78.0921914662625 0.00223968204298818 22.6096689065774 
                               0.602588837501079 155.59414645361  0.603180888736961 -24.5981572914261 0.00223968204298802 22.6096689065829 0.522546674470777 9.66664425676736 
11.35                          0.19962636698023 -23.8675872976432 0.694567796307315 -51.2103519349399 0.340086096059951 -152.859672291248 0.601719040698393 153.029408344256 
                               0.694567796307315 -51.2103519349405 0.201000075473974 -24.0361177191181 0.33827941599959 -153.509648615402 0.602279780462023 -27.1653188927338 
                               0.340086096059951 -152.859672291247 0.338279415999587 -153.509648615402 0.877443909351601 -81.1594346573878 0.00224596523805713 19.6253632019287 
                               0.601719040698396 153.029408344256 0.602279780462026 -27.1653188927338 0.00224596523805732 19.62536320194   0.524584454898028 7.14721921228262 
11.375                         0.199813269006362 -26.2638350651866 0.696432619211455 -53.7906053363628 0.337702388339082 -155.665493133131 0.600843385014529 150.464920847506 
                               0.696432619211456 -53.7906053363634 0.201244675410769 -26.4455331752543 0.335907538589807 -156.326990567908 0.601371427263907 -29.7322091847887 
                               0.337702388339083 -155.66549313313 0.335907538589803 -156.326990567908 0.879274183086736 -84.2324017805666 0.0022526870189969 16.6304856861516 
                               0.600843385014532 150.464920847506 0.60137142726391 -29.7322091847886 0.00225268701899742 16.6304856861681 0.526626304979959 4.62847466201363 
11.4                           0.200000047537817 -28.6547342425459 0.698291134289116 -56.369942433285 0.335312810408588 -158.473374093766 0.599961818016493 147.900593239295 
                               0.698291134289118 -56.3699424332857 0.201492785656683 -28.8500742467103 0.333530020353128 -159.146759862129 0.600455764707301 -32.2989140900887 
                               0.33531281040859 -158.473374093765 0.333530020353124 -159.146759862129 0.881092035988927 -87.3116632647567 0.00225984182048758 13.6241479694542 
                               0.599961818016496 147.900593239295 0.600455764707304 -32.2989140900886 0.00225984182048837 13.624147969475  0.528672228518934 2.11040552414485 
11.425                         0.200187647484831 -31.0400909449124 0.700143357626345 -58.9484147554199 0.332916810107682 -161.283590878791 0.599074287091069 145.336333246382 
                               0.700143357626348 -58.9484147554206 0.201745381505321 -31.2495532507169 0.331146292297847 -161.969248882966 0.59953273000817 -34.8655210088039 
                               0.332916810107684 -161.28359087879 0.331146292297843 -161.969248882966 0.882897786036023 -90.3978083813932 0.00226742181231243 10.6054579813391 
                               0.599074287091072 145.336333246382 0.599532730008172 -34.8655210088039 0.0022674218123134 10.6054579813632 0.530722222417093 -0.406992070148879 
11.45                          0.200377060538153 -33.4197149710813 0.701989305781565 -61.5260755018324 0.330513790652229 -164.096428707685 0.598180739601833 142.77204706631  
                               0.701989305781569 -61.5260755018329 0.202003480810005 -33.6437863180117 0.328755739606524 -164.794760224065 0.598602262236774 -37.4321188088755 
                               0.330513790652231 -164.096428707684 0.32875573960652 -164.794760224065 0.884691746563598 -93.491445372771 0.00227541667924503 7.57352334576539 
                               0.598180739601836 142.77204706631  0.598602262236774 -37.4321188088754 0.00227541667924607 7.57352334579096 0.532776275866665 -2.92372072891881 
11.475                         0.200569325419461 -35.7934204886317 0.703828994920023 -64.1029795033028 0.328103110823091 -166.912182410962 0.597281123058367 140.207639397509 
                               0.703828994920028 -64.1029795033032 0.202268144332131 -36.0325941059329 0.326357701812007 -167.623606804791 0.597664302530265 -39.9987978064163 
                               0.328103110823093 -166.912182410961 0.326357701812005 -167.623606804791 0.886474221050465 -96.5932015220752 0.00228381338659978 4.52745522664023 
                               0.597281123058369 140.207639397509 0.597664302530264 -39.9987978064164 0.00228381338660072 4.52745522666528 0.534834369499346 -5.4397817490584 
11.5                           0.200765528043701 -38.1610267479751 0.705662439923318 -66.6791831726311 0.325684085336248 -169.731156510617 0.596375385298128 137.643013480169 
                               0.705662439923323 -66.6791831726312 0.202540476027264 -38.4158025446075 0.323951473160707 -170.456111969848 0.596718794315316 -42.5656497357875 
                               0.32568408533625 -169.731156510617 0.323951473160708 -170.456111969848 0.88824549737085 -99.7037231555395 0.00229259593262569 1.46637269437547 
                               0.596375385298129 137.643013480169 0.596718794315313 -42.5656497357876 0.00229259593262634 1.46637269439744 0.536896474495108 -7.95517506327293 
