! Generated from PyAEDT SolutionData; AEDT ExportNetworkData workaround
# GHz S MA R 50
9 0.313420565726 -11.5163033753 0.30898344485 -93.3272924218 0.625051780511 -26.5068129311 0.644675927477 45.4950373944 0.30898344485 -93.3272924218 0.310936711747 -11.1959948538 0.624045014705 -26.589718586 0.646850378155 -134.676576586 0.625051780511 -26.5068129311 0.624045014705 -26.589718586 0.468909543094 178.989960265 0.00138985503134 -114.448707631 0.644675927477 45.4950373944 0.646850378155 -134.676576586 0.00138985503134 -114.448707631 0.407401037205 -126.501164374
9.025 0.312172738979 -14.4828629971 0.308794637424 -96.8134593133 0.626151197047 -31.0214970222 0.644303364481 42.6152859234 0.308794637424 -96.8134593133 0.309680110293 -14.1604378153 0.625141217017 -31.1041256077 0.646483306286 -137.557647051 0.626151197046 -31.0214970222 0.625141217017 -31.1041256077 0.465962667547 173.274195832 0.00139887458684 -119.150014233 0.644303364481 42.6152859234 0.646483306286 -137.557647051 0.00139887458657 -119.150014239 0.408571131087 -129.149384399
9.05 0.31098061988 -17.4394179758 0.308637328084 -100.280859833 0.627206836857 -35.5228102381 0.643927573987 39.743436863 0.308637328084 -100.280859833 0.308478847303 -17.115019504 0.62619372661 -35.6051703838 0.646113240714 -140.430814857 0.627206836857 -35.5228102381 0.62619372661 -35.6051703838 0.463114281126 167.569135853 0.00140790234372 -123.843909188 0.643927573987 39.743436863 0.646113240714 -140.430814857 0.0014079023433 -123.843909199 0.409747110702 -131.79260169
9.075 0.309840738852 -20.3864860478 0.308512210811 -103.730093342 0.628220405833 -40.0108150394 0.643548567761 36.8793514653 0.308512210811 -103.730093342 0.307329454039 -20.0602561791 0.627204247134 -40.0929157444 0.645740183757 -143.296222686 0.628220405833 -40.0108150394 0.627204247134 -40.0929157444 0.460361312282 161.87584302 0.00141693561833 -128.530354516 0.643548567761 36.8793514653 0.645740183757 -143.296222686 0.00141693561783 -128.530354529 0.410928857022 -134.430913233
9.1 0.308749673841 -23.3245393682 0.308419760836 -107.16176784 0.629193673021 -44.4855991663 0.643166358497 34.0228931422 0.308419760836 -107.16176784 0.306228512606 -22.9966182808 0.628174544674 -44.5674498012 0.645364138379 -146.15401047 0.629193673021 -44.4855991663 0.628174544674 -44.5674498012 0.457700425184 156.195246395 0.00142597218308 -133.209322471 0.643166358497 34.0228931422 0.645364138379 -146.15401047 0.00142597218257 -133.209322485 0.412116255952 -137.06441421
9.125 0.307704057021 -26.2540056193 0.308360249966 -110.576496121 0.63012845752 -48.9472726966 0.642780959531 31.1739275394 0.308360249966 -110.576496121 0.305172662341 -25.9245315337 0.629106434695 -49.0288830053 0.644985107917 -149.004315382 0.63012845752 -48.9472726966 0.629106434695 -49.0288830053 0.455128056981 150.528149401 0.00143501024019 -137.880793833 0.642780959531 31.1739275394 0.644985107917 -149.004315382 0.00143501023969 -137.880793846 0.413309198091 -139.693198029
9.15 0.306700580851 -29.1752691195 0.30833376128 -113.974892318 0.631026616477 -53.3959653389 0.642392384585 28.3323225913 0.30833376128 -113.974892318 0.304158605586 -28.8443780504 0.630001770076 -53.4773454384 0.644603095861 -151.847271843 0.631026616477 -53.3959653388 0.630001770076 -53.4773454384 0.452640452023 144.875238118 0.00144404839642 -142.544756386 0.642392384585 28.3323225912 0.644603095861 -151.847271843 0.00144404839597 -142.544756398 0.414507578504 -142.317356354
9.175 0.305736003606 -32.0886719339 0.308340203132 -117.357568823 0.631890034138 -57.8318239585 0.642000647545 25.4979485612 0.308340203131 -117.357568823 0.303183112959 -31.7564974361 0.630862430211 -57.9129843388 0.644218105664 -154.68301154 0.631890034138 -57.8318239585 0.630862430211 -57.9129843388 0.45023369293 139.237089659 0.00145308563937 -147.20120361 0.642000647545 25.4979485612 0.644218105664 -154.68301154 0.00145308563899 -147.20120362 0.41571129651 -144.936979139
9.2 0.304807154499 -34.994514987 0.308379322401 -120.725133534 0.632720611926 -62.255010335 0.641605762271 22.6706780675 0.308379322401 -120.725133534 0.302243028231 -34.6611878952 0.631690311121 -62.3359618566 0.643830140588 -157.511663447 0.632720611926 -62.255010335 0.631690311121 -62.3359618567 0.447903728509 133.614180487 0.00146212131535 -151.85013354 0.641605762271 22.6706780675 0.643830140588 -157.511663447 0.00146212131505 -151.850133548 0.416920255483 -147.55215466
9.225 0.303910938471 -37.8930591783 0.30845071697 -124.078187425 0.633520259501 -66.6656991424 0.641207742432 19.8503860964 0.30845071697 -124.078187425 0.3013352729 -37.5587073409 0.632487316555 -66.7464530337 0.643439203582 -160.333353856 0.633520259501 -66.6656991424 0.632487316555 -66.7464530338 0.445646398634 128.006894511 0.00147115510898 -156.491547804 0.641207742432 19.8503860964 0.643439203582 -160.333353856 0.00147115510875 -156.49154781 0.418134362662 -150.162969558
9.25 0.303044340722 -40.7845265034 0.308553847408 -127.417322409 0.634290886735 -71.0640761464 0.640806601365 17.0369500037 0.308553847408 -127.417322409 0.300456850515 -40.4492745102 0.633255350004 -71.144643999 0.643045297182 -163.148206415 0.634290886735 -71.0640761464 0.633255350004 -71.144643999 0.443457456239 122.415530845 0.00148018702471 -161.125450819 0.640806601365 17.0369500037 0.643045297182 -163.148206415 0.00148018702456 -161.125450823 0.419353528982 -152.76950887
9.275 0.302204431045 -43.6691011805 0.308688047876 -130.743119458 0.635034396549 -75.4503366065 0.640402351953 14.2302495066 0.308688047876 -130.743119458 0.29960485082 -43.3330700858 0.633996307569 -75.5307303695 0.642648423444 -165.95634217 0.635034396549 -75.4503366065 0.633996307569 -75.5307303695 0.441332586678 116.840311144 0.00148921737025 -165.751849132 0.640402351953 14.2302495066 0.642648423444 -165.95634217 0.00148921737017 -165.751849134 0.420577668905 -155.371856081
9.3 0.30138836799 -46.5469307856 0.308852536269 -134.056146982 0.635752678553 -79.8246838729 0.639995006527 11.4301666664 0.308852536269 -134.056146982 0.298776453744 -46.2102378261 0.634712071633 -79.9049158463 0.642248583887 -168.757879614 0.635752678553 -79.8246838729 0.634712071633 -79.9049158463 0.439267424678 111.281386434 0.00149824674189 -170.370750892 0.639995006527 11.4301666664 0.642248583887 -168.757879614 0.00149824674186 -170.370750893 0.421806700267 -157.970093154
9.325 0.300593402906 -49.4181273963 0.309046423614 -137.356959423 0.63644760341 -84.1873281659 0.639584576776 8.63658586381 0.309046423614 -137.356959423 0.297968933276 -49.0808857056 0.635404505256 -84.2674109919 0.641845779464 -171.552934732 0.63644760341 -84.1873281659 0.635404505256 -84.2674109919 0.437257569189 105.738843394 0.0015072760118 -174.982165453 0.639584576776 8.63658586381 0.641845779464 -171.552934732 0.00150727601182 -174.982165452 0.423040544139 -160.564300582
9.35 0.299816883871 -52.2827687459 0.309268722776 -140.646096053 0.637121017868 -88.5384855234 0.639171073675 5.84939376723 0.309268722776 -140.646096053 0.297179661236 -51.9450870663 0.636075447235 -88.6184321768 0.641440010544 -174.341621064 0.637121017868 -88.5384855234 0.636075447235 -88.6184321768 0.435298596404 100.212710053 0.00151630631721 -179.586103069 0.639171073675 5.84939376723 0.641440010544 -174.341621064 0.00151630631726 -179.586103067 0.424279124684 -163.154557427
9.375 0.299056259516 -55.1408993892 0.309518356489 -143.924079963 0.637774740403 -92.8783769042 0.638754507426 3.06847929543 0.309518356489 -143.924079963 0.296406110957 -54.8028817805 0.636726707766 -92.9582006821 0.641031276914 -177.124049754 0.637774740403 -92.8783769042 0.636726707766 -92.9582006821 0.433386071218 94.7029609004 0.00152533905134 175.817425296 0.638754507426 3.06847929543 0.641031276914 -177.124049754 0.00152533905143 175.817425299 0.425522369033 -165.740941362
9.4 0.298309082769 -57.9925318786 0.30979416477 -147.191417216 0.638410557392 -97.2072274338 0.638334887409 0.293733575562 0.30979416477 -147.191417216 0.295645860883 -57.6542774274 0.637360064649 -97.2869419427 0.640619577784 -179.900329611 0.638410557393 -97.2072274338 0.637360064649 -97.2869419427 0.431515557393 89.2095213988 0.00153437585619 171.228408083 0.638334887409 0.293733575564 0.640619577784 -179.900329611 0.00153437585629 171.228408086 0.426770207166 -168.323528719
9.425 0.297573014496 -60.8376479521 0.310094911753 -150.448596147 0.639030219777 -101.525265777 0.637912222135 -2.4749501029 0.310094911753 -150.448596147 0.294896598083 -60.4992504802 0.637977259966 -101.60488492 0.64020491181 177.329432828 0.639030219777 -101.525265777 0.637977259966 -101.60488492 0.429682626669 83.7322719255 0.00154341861683 166.646833179 0.637912222135 -2.4749501029 0.64020491181 177.329432828 0.00154341861693 166.646833182 0.428022571798 -170.902394529
9.45 0.296845827051 -63.6761997317 0.310419291986 -153.696086809 0.639635440151 -105.832723626 0.637486519216 -5.23767633745 0.310419291986 -153.696086809 0.294156121666 -63.3377475064 0.63857999719 -105.912261588 0.639787277123 174.56513324 0.639635440151 -105.832723626 0.63857999719 -105.912261588 0.427882867021 78.2710511625 0.00155246945733 162.072687886 0.637486519216 -5.23767633745 0.639787277123 174.56513324 0.00155246945743 162.072687889 0.429279398271 -173.477612567
9.475 0.296125407717 -66.5081109325 0.310765936237 -156.934340532 0.640227890227 -110.129835289 0.637057785335 -7.99454766428 0.310765936237 -156.934340532 0.29342234611 -66.1696863786 0.639169938669 -110.209306521 0.639366671364 171.806669455 0.640227890227 -110.129835289 0.639169938669 -110.209306521 0.426111890259 72.8256589703 0.00156153073806 157.505958846 0.637057785335 -7.99454766428 0.639366671364 171.806669455 0.00156153073815 157.505958849 0.430540624453 -176.049255392
9.5 0.295409762041 -69.3332780788 0.311133416845 -160.163789597 0.640809198627 -114.416837372 0.636626026223 -10.745664612 0.311133416845 -160.163789597 0.292693304465 -68.994957495 0.639748703433 -114.496256574 0.638943091721 169.053941389 0.640809198628 -114.416837372 0.639748703433 -114.496256574 0.424365339113 67.3958587852 0.00157060505429 152.946631909 0.636626026223 -10.745664612 0.638943091721 169.053941389 0.00157060505437 152.946631912 0.431806190642 -178.617394393
9.525 0.294697017037 -72.1515717292 0.311520252672 -163.384847 0.641380948963 -118.693968529 0.636191246635 -13.4911257565 0.311520252672 -163.384847 0.291967151455 -71.8134250086 0.640317865286 -118.773350633 0.638516534982 166.306850986 0.641380948963 -118.693968529 0.640317865286 -118.773350633 0.422638893929 61.9813795819 0.00157969523602 148.394691976 0.636191246635 -13.4911257565 0.638516534982 166.306850986 0.00157969523608 148.394691978 0.433076039475 178.81790017
9.55 0.293985424259 -74.9628377056 0.31192491367 -166.597906314 0.641944678155 -122.961469289 0.635753450337 -16.2310277769 0.31192491367 -166.597906314 0.291242166436 -74.6249280624 0.640878951141 -123.04082944 0.638086997575 163.565302156 0.641944678155 -122.961469289 0.640878951141 -123.04082944 0.420928279075 56.5819174486 0.0015888043488 143.850122799 0.635753450337 -16.2310277769 0.638086997575 163.565302156 0.00158880434884 143.8501228 0.434350115844 176.256559131
9.575 0.293273362734 -77.7668983255 0.312345825123 -169.803341612 0.642501874963 -127.219581927 0.635312640091 -18.9654655116 0.312345825123 -169.803341612 0.290516756224 -77.4292820285 0.641433439564 -127.298935464 0.637654475622 160.829200711 0.642501874963 -127.219581927 0.641433439564 -127.298935464 0.419229269122 51.1971368187 0.00159793569557 139.312906768 0.635312640091 -18.9654655116 0.637654475622 160.829200711 0.0015979356956 139.312906769 0.435628366805 173.69851437
9.6 0.292559341741 -80.5635536365 0.312781371583 -173.001507468 0.643053978694 -131.468550395 0.63486881764 -21.6945320145 0.312781371583 -173.001507468 0.289789457776 -80.2262797506 0.641982759489 -131.547912828 0.637218964988 158.098454306 0.643053978694 -131.468550395 0.641982759489 -131.547912828 0.417537694852 45.8266714051 0.00160709281933 134.783024677 0.63486881764 -21.6945320145 0.637218964988 158.098454306 0.00160709281934 134.783024678 0.436910741509 171.14369878
9.625 0.291842003439 -83.3525826489 0.313229900534 -176.192739013 0.643602378056 -135.708620271 0.6344219837 -24.4183186106 0.313229900534 -176.192739013 0.289058940715 -83.0156927862 0.64252828908 -135.788007265 0.636780461333 155.372972383 0.643602378056 -135.708620271 0.64252828908 -135.788007265 0.41584944912 40.4701248794 0.00161627950656 130.260455473 0.6344219837 -24.4183186106 0.636780461333 155.372972383 0.00161627950656 130.260455473 0.438197191118 168.592046228
9.65 0.29112012533 -86.133744566 0.313689725816 -179.377352034 0.644148410129 -139.940038758 0.633972137945 -27.136914951 0.313689725816 -179.377352034 0.288324009705 -85.7972726468 0.643071354722 -140.019466104 0.636338960164 152.652666103 0.644148410129 -139.940038758 0.643071354722 -140.019466104 0.414160492577 35.1270713373 0.00162549979129 125.745176003 0.633972137945 -27.136914951 0.636338960164 152.652666103 0.00162549979128 125.745176002 0.439487668735 166.043491517
9.675 0.290392622575 -88.9067800103 0.314159130828 177.444356876 0.644693359442 -144.163054689 0.633519279002 -29.8504090674 0.314159130828 177.444356876 0.287583606677 -88.570752036 0.643613230094 -144.242538289 0.635894456883 149.937448299 0.644693359442 -144.163054689 0.643613230094 -144.242538289 0.41246685927 29.797055585 0.0016347579598 121.237160754 0.633519279002 -29.8504090674 0.635894456883 149.937448299 0.00163475795977 121.237160753 0.440782129336 163.497970352
9.7 0.289658550153 -91.6714122445 0.314636371545 174.27211014 0.645238457125 -148.377918555 0.633063404441 -32.5588874247 0.314636371545 174.27211014 0.286836812899 -91.3358460829 0.644155135333 -148.457474393 0.635446946835 147.227233414 0.645238457125 -148.377918555 0.644155135333 -148.457474393 0.410764662097 24.4795932813 0.00164405855575 116.73638159 0.633063404441 -32.5588874247 0.635446946835 147.227233414 0.00164405855572 116.736381588 0.442080529698 160.955419305
9.725 0.288917104873 -94.4273483865 0.315119679349 171.105648985 0.645784880117 -152.584882543 0.632604510764 -35.2624349728 0.315119679349 171.105648985 0.286082850914 -94.0922535707 0.644698236257 -152.664526667 0.634996425358 144.521937448 0.645784880117 -152.584882543 0.644698236257 -152.664526667 0.409050098111 19.1741709627 0.00165340638588 112.242807489 0.632604510764 -35.2624349728 0.634996425358 144.521937448 0.00165340638585 112.242807487 0.443382828336 158.415775782
9.75 0.288167627258 -97.174280619 0.315607263722 167.944733214 0.64633375043 -156.784200578 0.632142593397 -37.9611351967 0.315607263722 167.944733214 0.285321086342 -96.8396581613 0.645243643624 -156.863949072 0.634542887824 141.821477903 0.64633375043 -156.784200578 0.645243643624 -156.863949072 0.407319453668 13.8802459752 0.00166280652601 107.756404286 0.632142593397 -37.9611351968 0.634542887824 141.821477903 0.00166280652597 107.756404284 0.444688985441 155.878977992
9.775 0.287409603303 -99.9118873946 0.316097314788 164.789140955 0.646886134434 -160.97612837 0.631677646685 -40.6550701654 0.316097314788 164.789140955 0.28455102957 -99.5777296171 0.645792412431 -161.055997332 0.634086329686 139.125773735 0.646886134434 -160.97612837 0.645792412431 -161.055997332 0.405569109388 8.59724633187 0.00167226432746 103.277134411 0.631677646685 -40.6550701654 0.634086329686 139.125773735 0.00167226432742 103.277134409 0.445998962813 153.344964913
9.8 0.286642666141 -102.639834639 0.31658800574 161.638668406 0.647443042171 -165.160923457 0.631209663881 -43.3443205784 0.31658800574 161.638668406 0.28377233735 -102.306125021 0.646345541233 -165.240928975 0.633626746513 136.434745299 0.647443042171 -165.160923457 0.646345541233 -165.240928975 0.403795544941 3.32457051156 0.0016817854238 98.8049566387 0.631209663881 -43.3443205784 0.633626746513 136.434745299 0.00168178542377 98.8049566366 0.44731272381 150.813676268
9.825 0.285866597618 -105.357776956 0.317077495159 158.493129572 0.648005426675 -169.338845247 0.630738637139 -46.0289658116 0.31707749516 158.493129572 0.282984814312 -105.02449 0.646903971469 -169.419003375 0.633164134032 133.748314302 0.648005426675 -169.338845247 0.646903971469 -169.419003375 0.401995343644 -1.93841279159 0.00169137573797 94.3398258351 0.630738637139 -46.0289658116 0.633164134032 133.748314302 0.00169137573794 94.339825833 0.448630233281 148.28505249
9.85 0.285081329811 -108.065358835 0.317563929237 155.352355998 0.648574183292 -173.510155053 0.630264557507 -48.7090839604 0.317563929237 155.352355998 0.28218841443 -107.732459956 0.647468586784 -173.590481785 0.632698488163 131.066403759 0.648574183292 -173.510155053 0.647468586784 -173.590481785 0.400165196869 -7.19236496188 0.0017010414896 89.8816927107 0.630264557507 -48.7090839604 0.632698488163 131.066403759 0.00170104148958 89.8816927087 0.449951457515 145.759034702
9.875 0.284286946513 -110.762215878 0.318045443909 152.216196513 0.649150148997 -177.675116123 0.62978741492 -51.3847518822 0.318045443909 152.216196513 0.281383242444 -110.42966131 0.648040212361 -177.755627371 0.63222980505 128.388937938 0.649150148997 -177.675116123 0.648040212361 -177.755627371 0.398301908295 -12.4379777965 0.00171078920277 85.430503575 0.62978741492 -51.3847518822 0.63222980505 128.388937938 0.00171078920275 85.4305035731 0.451276364186 143.235564683
9.9 0.283483684696 -113.447976035 0.318520166924 149.084516982 0.649734101699 178.166006337 0.629307198194 -54.056045236 0.318520166924 149.084516982 0.280569555287 -113.115712766 0.648619614219 178.08529477 0.631758081093 125.715842325 0.649734101699 178.166006337 0.648619614219 178.08529477 0.396402397994 -17.6759738822 0.00172062571399 80.9862000921 0.629307198194 -54.056045236 0.631758081093 125.715842325 0.00172062571398 80.9862000904 0.452604922296 140.71458485
9.925 0.282671935988 -116.122260882 0.318986219845 145.957200066 0.65032675952 174.012945148 0.628823895019 -56.7230385216 0.318986219845 145.957200066 0.279747763512 -115.790226613 0.649207498507 173.93201759 0.631283312976 123.047043574 0.65032675952 174.012945148 0.649207498507 173.93201759 0.394463706424 -22.9071070189 0.00173055818061 76.5487190372 0.628823895019 -56.7230385216 0.631283312976 123.047043574 0.00173055818062 76.5487190357 0.453937102121 138.19603823
9.95 0.281852248179 -118.784686925 0.319441719994 142.834145009 0.650928780061 169.865431149 0.628337491954 -59.3858051163 0.319441719994 142.834145009 0.278918432756 -118.452810058 0.649804510768 169.784272085 0.630805497696 120.382469468 0.650928780061 169.865431149 0.649804510768 169.784272085 0.392482998333 -28.1321626973 0.00174059408951 72.1179920523 0.628337491954 -59.3858051163 0.630805497696 120.382469468 0.00174059408952 72.117992051 0.455272875165 135.679868438
9.975 0.281025326769 -121.434866964 0.319884782366 139.715267443 0.651540759629 165.7231932 0.627847974421 -62.0444173107 0.319884782366 139.715267443 0.278082285258 -121.103066623 0.650411235175 165.641787292 0.630324632585 117.722048877 0.651540759629 165.7231932 0.650411235175 165.641787292 0.390457566653 -33.3519586411 0.0017507412662 67.693945399 0.627847974421 -62.0444173107 0.630324632585 117.722048877 0.00175074126621 67.693945398 0.456612214104 133.166019658
10 0.280192036577 -124.072411527 0.320313521499 136.600499222 0.652163232437 161.585958178 0.627355326703 -64.6989463426 0.320313521499 136.600499222 0.277240201433 -123.740597605 0.651028193734 161.504290293 0.629840715334 115.065711718 0.652163232437 161.585958178 0.651028193734 161.504290293 0.388384836438 -38.5673454244 0.00176100788434 63.2764997091 0.627355326703 -64.6989463426 0.629840715334 115.065711718 0.00176100788436 63.2764997082 0.457955092738 130.654436615
10.025 0.279353403429 -126.696930376 0.320726053334 133.489788287 0.652796669769 157.453450997 0.62685953194 -67.3494624301 0.320726053334 133.489788287 0.276393221518 -126.365003628 0.651655845452 157.371506227 0.629353744016 112.413388916 0.652796669769 157.453450997 0.651655845452 157.371506227 0.386262368918 -43.7792071795 0.00177140247574 58.8655697288 0.62685953194 -67.3494624301 0.629353744016 112.413388916 0.00177140247576 58.8655697282 0.459301485941 128.145064565
10.05 0.2785106159 -129.308034118 0.321120497062 130.383098562 0.653441479101 153.325394611 0.626360572124 -69.9960348031 0.321120497062 130.383098562 0.275542547297 -128.975886293 0.652294585462 153.243158297 0.628863717107 109.765012368 0.653441479101 153.325394611 0.652294585462 153.243158297 0.38408786576 -48.9884624086 0.00178193394078 54.4610640584 0.626360572124 -69.9960348031 0.628863717107 109.765012368 0.00178193394081 54.461064058 0.460651369612 125.637849265
10.075 0.277665027141 -131.905335939 0.32149497698 127.280409903 0.654098003189 149.201510039 0.625858428102 -72.6387317336 0.32149497698 127.280409903 0.274689543886 -131.57284995 0.652944744114 149.118967791 0.628370633504 107.120514905 0.654098003189 149.201510039 0.652944744114 149.118967791 0.381859173607 -54.1960649161 0.00179261155948 50.0628848835 0.625858428102 -72.6387317336 0.628370633504 107.120514905 0.00179261155951 50.0628848832 0.462004720628 123.132736966
10.1 0.276818156743 -134.488453466 0.321847624366 124.181718075 0.654766519098 145.081516375 0.625353079567 -75.2776205652 0.321847624366 124.181718075 0.273835741567 -134.155503611 0.653606586007 144.998654097 0.627874492549 104.479830256 0.654766519098 145.081516375 0.653606586007 144.998654097 0.379574289026 -59.4030048769 0.00180344500304 45.6709276985 0.625353079567 -75.2776205652 0.627874492549 104.479830256 0.00180344500307 45.6709276983 0.463361516793 120.629674385
10.125 0.275971692644 -137.057010797 0.322176579394 121.087034787 0.655447237202 140.965130808 0.624844505065 -77.9127677418 0.322176579394 121.087034787 0.272982837651 -136.723463034 0.654280308992 140.881934715 0.627375294047 101.842893012 0.655447237202 140.965130808 0.654280308992 140.881934715 0.377231363942 -64.610310058 0.00181444434613 41.2850810215 0.624844505065 -77.9127677418 0.627375294047 101.842893012 0.00181444434615 41.2850810214 0.464721736796 118.128608696
10.15 0.275127493015 -139.610640702 0.322479993103 117.996387778 0.65614030012 136.852068636 0.624332681989 -80.5442388353 0.322479993103 117.996387778 0.272132698333 -139.27635298 0.654966043108 136.768525276 0.626873038285 99.2096385938 0.65614030012 136.852068636 0.654966043108 136.768525276 0.374828711686 -69.8190472096 0.00182562007979 36.9052260983 0.624332681989 -80.5442388353 0.626873038285 99.2096385938 0.00182562007982 36.9052260983 0.466085360159 115.629487511
10.175 0.27428758811 -142.148987034 0.322756029447 114.909820953 0.656845781612 132.742043278 0.623817586582 -83.1720985723 0.322756029447 114.909820953 0.271287360479 -141.81380968 0.655663849476 132.658139552 0.626367726057 96.5800032178 0.656845781612 132.742043278 0.655663849476 132.658139552 0.372364813782 -75.0303236398 0.00183698312518 32.5312365974 0.623817586582 -83.1720985723 0.626367726057 96.5800032178 0.00183698312519 32.5312365975 0.467452367189 113.132258864
10.2 0.273454181996 -144.671707352 0.323002867443 111.827394589 0.657563685415 128.634766278 0.623299193937 -85.7964108607 0.323002867443 111.827394589 0.270449033306 -144.33548353 0.656373719144 128.55048946 0.625859358684 93.9539238609 0.657563685415 128.634766278 0.656373719144 128.55048946 0.369838327588 -80.2452889903 0.00184854484803 28.1629782936 0.623299193937 -85.7964108607 0.625859358684 93.9539238609 0.00184854484804 28.1629782937 0.468822738935 110.636871197
10.225 0.272629654108 -147.178475792 0.323218703438 108.749185595 0.658293944032 124.529947314 0.622777477995 -88.4172388159 0.323218703438 108.749185595 0.26962009986 -146.841042029 0.657095571863 124.445285064 0.625347938035 91.3313382297 0.658293944032 124.529947314 0.657095571863 124.445285064 0.367248094932 -85.4651372234 0.00186031707414 23.8003087415 0.622777477995 -88.4172388159 0.625347938035 91.3313382297 0.00186031707414 23.8003087416 0.470196457135 108.143273349
10.25 0.271816560538 -149.668986193 0.323401753547 105.675287847 0.659036417464 120.427294182 0.622252411547 -91.0346447857 0.323401753547 105.675287847 0.268803118221 -149.330172983 0.657829254825 120.342234567 0.62483346656 88.7121847273 0.659036417464 120.427294182 0.657829254825 120.342234567 0.364593151883 -90.6911088335 0.00187231210571 19.4430769389 0.622252411547 -91.0346447857 0.62483346656 88.7121847273 0.00187231210571 19.443076939 0.471573504173 105.651414536
10.275 0.271017634959 -152.142955501 0.323550256257 102.605812591 0.659790891885 116.326512791 0.62172396623 -93.6486903758 0.323550256257 102.605812591 0.268000822327 -151.802587982 0.658574541333 116.2410443 0.624315947312 86.0964024221 0.659790891885 116.326512791 0.658574541333 116.2410443 0.361872739791 -95.9244932907 0.00188454273879 15.0911229797 0.62172396623 -93.6486903758 0.624315947312 86.0964024221 0.00188454273879 15.0911229797 0.472953863025 103.161244344
10.3 0.27023578908 -154.600127454 0.323662475264 99.5408889242 0.660557078264 112.227307135 0.621192112531 -96.2594364747 0.323662475264 99.5408889242 0.267216122309 -154.258026177 0.659331129417 112.141418693 0.623795383981 83.4839310154 0.660557078264 112.227307135 0.659331129417 112.141418693 0.359086317757 -101.166631723 0.00189702228188 10.7442776977 0.621192112531 -96.2594364747 0.623795383981 83.4839310154 0.00189702228187 10.7442776977 0.474337517212 100.672712713
10.325 0.269474112507 -157.040276569 0.323736702565 96.4806643555 0.661334610932 108.12937926 0.620656819779 -98.8669432779 0.323736702565 96.4806643555 0.266452104201 -156.696258341 0.660098640394 108.043060244 0.623271780925 80.8747108104 0.661334610932 108.12937926 0.660098640394 108.043060244 0.356233576688 -106.418919837 0.0019097645757 6.40236230191 0.620656819779 -98.8669432779 0.623271780925 80.8747108104 0.00190976457568 6.40236230184 0.475724450748 98.185769927
10.35 0.268735871867 -159.463212417 0.323771261849 93.4253054473 0.662123046089 104.032429224 0.620118056142 -101.471270313 0.323771261849 93.4253054473 0.26571202891 -159.117091247 0.660876617372 103.945669471 0.622745143213 78.2686826811 0.662123046089 104.032429224 0.660876617372 103.945669471 0.353314455081 -111.682811076 0.00192278401437 2.06518800392 0.620118056142 -101.471270313 0.622745143213 78.2686826811 0.00192278401435 2.0651880038 0.477114648091 95.7003666002
10.375 0.268024509068 -161.868784199 0.323764512234 90.3749985474 0.662921860263 99.9361550383 0.619575788622 -104.072476464 0.323764512234 90.3749985474 0.264999330269 -161.520372317 0.661664523694 99.8489448622 0.622215476664 75.6657880404 0.662921860263 99.9361550383 0.661664523694 99.8489448622 0.350329156733 -116.959820005 0.00193609556805 -2.26744436167 0.619575788622 -104.072476464 0.622215476664 75.6657880404 0.00193609556802 -2.26744436184 0.478508094083 93.216453667
10.4 0.267343638521 -164.256885597 0.323714852405 87.3299506104 0.66373044871 95.8402526006 0.619029983048 -106.670619996 0.323714852405 87.3299506104 0.264317612044 -163.905994578 0.662461741329 95.7525827996 0.621682787892 73.0659688099 0.66373044871 95.8402526006 0.662461741329 95.7525827996 0.347278170521 -122.25152591 0.00194971480711 -6.59574472216 0.619029983048 -106.670619996 0.621682787892 73.0659688099 0.00194971480709 -6.59574472237 0.479904773901 90.7339823705
10.425 0.26669704318 -166.627459895 0.323620725191 84.2903901139 0.664548123767 91.7444156178 0.618480604058 -109.265758577 0.323620725191 84.2903901139 0.263670643715 -166.273901855 0.663267569212 91.6562774833 0.621147084362 70.4691673879 0.664548123767 91.7444156178 0.663267569212 91.6562774833 0.344162292449 -127.55957657 0.00196365792819 -10.9199341563 0.618480604058 -109.265758577 0.621147084362 70.4691673879 0.00196365792817 -10.9199341565 0.481304672994 88.2529042521
10.45 0.266088669231 -168.980505326 0.323480622665 81.2565680727 0.665374113155 87.6483355115 0.617927615094 -111.857949307 0.323480622665 81.2565680727 0.26306235488 -168.624094208 0.664081221531 87.559720836 0.620608374444 67.8753266181 0.665374113155 87.6483355115 0.664081221531 87.559720836 0.34098265014 -132.885692198 0.00197794178203 -15.2402452872 0.617927615094 -111.857949307 0.620608374444 67.8753266181 0.00197794178201 -15.2402452875 0.482707777029 85.7731711405
10.475 0.265522619258 -171.316080616 0.323293091811 78.2287591544 0.666207558235 83.5517013128 0.617370978378 -114.447248737 0.323293091811 78.2287591544 0.262496828099 -170.956633552 0.664901825961 83.4626023961 0.620066667479 65.2843897586 0.666207558235 83.5517013128 0.664901825961 83.4626023961 0.337740729959 -138.23166946 0.00199258390351 -19.5569226777 0.617370978378 -114.447248737 0.620066667479 65.2843897586 0.00199258390349 -19.5569226779 0.484114071823 83.2947351418
10.5 0.265003143737 -173.634310677 0.323056740837 75.2072628988 0.667047512227 79.4541995423 0.616810654891 -117.033712895 0.323056740837 75.2072628988 0.261978290032 -173.271649412 0.665728421868 79.3646091961 0.619521973851 62.6963004496 0.667047512227 79.4541995423 0.665728421868 79.3646091961 0.334438406962 -143.599385546 0.00200760254403 -23.870223226 0.616810654891 -117.033712895 0.619521973851 62.6963004496 0.00200760254401 -23.8702232262 0.48552354328 80.8175486294
10.525 0.264534630689 -175.935392373 0.32277024621 72.1924050442 0.667892938387 75.3555140766 0.616246604348 -119.617397314 0.32277024621 72.1924050442 0.2615111007 -175.569344744 0.666559958459 75.2654256273 0.61897430506 60.1110026813 0.667892938386 75.3555140766 0.666559958459 75.2654256273 0.331077977867 -148.990802169 0.00202301670642 -28.1804165631 0.616246604348 -119.617397314 0.61897430506 60.1110026813 0.00202301670641 -28.1804165633 0.486936177322 78.3415642341
10.55 0.264121593349 -178.219600307 0.322432360491 69.184538963 0.668742708162 71.2553259981 0.615678785168 -122.198357047 0.322432360491 69.184538963 0.261099740729 -177.850001757 0.667395292904 71.1647332888 0.618423673813 57.5284407615 0.668742708162 71.2553259981 0.667395292904 71.1647332888 0.327662197226 -154.40796942 0.00203884618279 -32.4877854482 0.615678785168 -122.198357047 0.618423673813 57.5284407615 0.00203884618279 -32.4877854483 0.488351959816 75.8667348346
10.575 0.263768655725 179.51270748 0.322041921069 66.1840472077 0.669595599315 67.1533134304 0.615107154434 -124.7766467 0.322041921069 66.1840472077 0.260748796453 179.886012364 0.668233188438 67.0622108211 0.617870094119 54.9485592824 0.669595599315 67.1533134304 0.668233188438 67.0622108211 0.324194316992 -159.853029304 0.00205511159554 -36.7926261636 0.615107154434 -124.7766467 0.617870094119 54.9485592824 0.00205511159554 -36.7926261637 0.489770876496 73.3930135475
10.6 0.263480535914 177.261083973 0.32159785988 63.1913431678 0.670450294038 63.0491513561 0.614531667855 -127.352320448 0.32159785988 63.1913431678 0.260462942747 177.63823993 0.669072312433 62.9575337215 0.617313581392 52.3713030867 0.670450294038 63.0491513561 0.669072312433 62.9575337215 0.32067812963 -165.328218814 0.00207183444193 -41.095248909 0.614531667855 -127.352320448 0.617313581392 52.3713030867 0.00207183444193 -41.0952489091 0.491192912886 70.9203537182
10.625 0.263262027113 175.024987921 0.321099214228 60.2068728386 0.671305377057 58.9425114153 0.613952279715 -129.925432064 0.321099214228 60.2068728386 0.260246923519 175.406127515 0.669911234467 58.8503741422 0.616754152567 49.7966172335 0.671305377057 58.9425114153 0.669911234467 58.8503741422 0.317118014941 -170.835872304 0.00208903714265 -45.3959781935 0.613952279715 -129.925432064 0.616754152567 49.7966172335 0.00208903714266 -45.3959781934 0.492618054206 68.448708911
10.65 0.263117976228 172.803778976 0.320545138812 57.2311166991 0.672159333746 54.8330616847 0.613368942821 -132.496034935 0.320545138812 57.2311166991 0.260105529793 173.189021151 0.670748424387 54.7404006671 0.616191826225 47.2244469629 0.672159333746 54.8330616847 0.670748424387 54.7404006671 0.313518990679 -176.378422917 0.00210674309493 -49.6951532274 0.613368942821 -132.496034935 0.616191826225 47.2244469629 0.00210674309494 -49.6951532273 0.494046285287 65.9780329002
10.675 0.263053260068 170.596713325 0.319934919094 54.2645916974 0.673010548248 50.7204664337 0.612781608439 -135.06418209 0.319934919094 54.2645916974 0.260043575351 170.986162052 0.671582250388 50.627278066 0.615626622737 44.6547376595 0.673010548248 50.7204664337 0.671582250388 50.627278066 0.309886767026 178.041597279 0.00212497673056 -53.9931283152 0.612781608439 -135.06418209 0.615626622737 44.6547376595 0.00212497673058 -53.9931283151 0.49547759047 63.5082796604
10.7 0.263072759121 168.402939962 0.319267986139 51.3078533368 0.67385730163 46.6043858538 0.612190226228 -137.629926216 0.319267986139 51.3078533368 0.260065869953 168.796683013 0.672410977104 46.5106670232 0.615058564411 42.0874348152 0.67385730163 46.6043858538 0.672410977104 46.5106670232 0.306227804907 172.421558807 0.0021437635797 -58.2902732494 0.612190226228 -137.629926216 0.615058564411 42.0874348152 0.00214376357972 -58.2902732492 0.496911953502 61.0394033567
10.725 0.263181328932 166.221497712 0.318543933078 48.3614978567 0.674697770072 42.48447576 0.611594744163 -140.193319682 0.318543933078 48.3614978567 0.260177190155 166.619605584 0.673232763743 42.3902238362 0.61448767566 39.5224839905 0.674697770072 42.48447576 0.673232763743 42.3902238362 0.302549378005 166.758738433 0.00216313034096 -62.5869737095 0.611594744163 -140.193319682 0.61448767566 39.5224839904 0.00216313034099 -62.5869737092 0.498349357422 58.5713583357
10.75 0.263383769179 164.051313111 0.317762533351 45.4261644958 0.675530023118 38.3603872575 0.610995108452 -142.754414556 0.317762533351 45.4261644958 0.260382247833 164.453838152 0.674045662257 38.2656000811 0.61391398319 36.959830774 0.675530023118 38.3603872575 0.674045662257 38.2656000811 0.298859638234 161.050325511 0.00218310495885 -66.8836316676 0.610995108452 -142.754414556 0.61391398319 36.959830774 0.00218310495888 -66.8836316674 0.499789784445 56.1040991152
10.775 0.26368479053 161.891199273 0.316923760916 42.5025378251 0.676352021982 34.2317663683 0.610391263447 -145.313262626 0.316923760916 42.5025378251 0.2606856565 162.298175035 0.674847615577 34.1364422384 0.613337516191 34.399420741 0.676352021982 34.2317663683 0.674847615577 34.1364422384 0.295167684224 155.293431636 0.00220371670923 -71.1806658065 0.610391263447 -145.313262626 0.613337516191 34.399420741 0.00220371670926 -71.1806658063 0.50123321583 53.6375803747
10.8 0.264088979448 159.739855816 0.316027812603 39.5913501282 0.677161617939 30.0982536137 0.609783151542 -147.869915413 0.316027812603 39.5913501282 0.261091895595 160.151296672 0.675636455917 30.0023912721 0.612758306565 31.8411994087 0.677161617939 30.0982536137 0.675636455917 30.0023912721 0.29148363216 149.48510439 0.00222499629417 -75.4785119524 0.609783151542 -147.869915413 0.612758306565 31.8411994087 0.00222499629419 -75.4785119522 0.502679631744 51.171756945
10.825 0.264600761115 157.595869933 0.315075132839 36.6933838056 0.677956550815 25.9594835409 0.609170713067 -150.42442419 0.315075132839 36.6933838056 0.261605272911 158.011770989 0.676409903161 25.8630821564 0.612176389159 29.2851121908 0.677956550815 25.9594835409 0.676409903161 25.8630821564 0.287818688024 143.622345982 0.00224697594724 -79.7776235311 0.609170713067 -150.42442419 0.612176389159 29.2851121908 0.00224697594726 -79.7776235309 0.504129011113 48.7065837976
10.85 0.265224360673 155.457718662 0.314066440964 33.8094737683 0.678734447572 21.8150841883 0.608553886175 -152.976839995 0.314066440964 33.8094737683 0.262229885392 155.878055991 0.67716556334 21.7181433379 0.611591802031 26.7311043479 0.678734447572 21.8150841883 0.67716556334 21.7181433379 0.28418521995 137.702137763 0.00226968955077 -84.0784720532 0.608553886175 -152.976839995 0.611591802031 26.7311043479 0.00226968955078 -84.0784720531 0.505581331462 46.2420160344
10.875 0.265963763037 153.323772371 0.313002761389 30.9405097787 0.679492821015 17.6646764757 0.607932606711 -155.527213643 0.313002761389 30.9405097787 0.262969578521 153.748503588 0.67790092722 17.5671961254 0.611004586734 24.1791209365 0.679492821015 17.6646764757 0.67790092722 17.5671961254 0.280596828959 131.721471592 0.00229317276668 -88.381547638 0.607932606711 -155.527213642 0.611004586734 24.1791209365 0.00229317276668 -88.3815476379 0.507036568746 43.7780088759
10.9 0.266822671508 151.192299462 0.31188545688 28.0874386861 0.680229068621 13.5078735094 0.607306808088 -158.075595736 0.31188545688 28.0874386861 0.263827904565 151.621364664 0.678613368986 13.4098539925 0.610414788632 21.6291067528 0.680229068621 13.5078735094 0.678613368986 13.4098539925 0.27706841586 125.677389149 0.00231746318282 -92.6873595863 0.607306808088 -158.075595736 0.610414788632 21.6291067528 0.00231746318281 -92.6873595864 0.50849469716 41.3145176498
10.925 0.267804465463 149.061472254 0.310716265252 25.251266488 0.680940471489 9.34427978463 0.606676421135 -160.622036678 0.310716265252 25.251266488 0.264808079932 149.494795318 0.679300145049 9.24572177894 0.609822457241 19.0810062746 0.680940471489 9.34427978463 0.679300145049 9.24572177894 0.273616241505 119.567030221 0.00234260047689 -96.9964370155 0.606676421135 -160.622036678 0.609822457241 19.0810062746 0.00234260047688 -96.9964370156 0.509955688943 38.8514977787
10.95 0.268912157376 146.929373964 0.309497339817 22.4330601356 0.681624193424 5.17349027153 0.606041373948 -163.166586671 0.309497339817 22.4330601356 0.265912941899 147.366864226 0.679958392944 5.07439477485 0.609227646606 16.5347635969 0.681624193424 5.17349027153 0.679958392944 5.07439477485 0.270257976958 113.387690964 0.00236862660051 -101.30932957 0.606041373948 -163.166586671 0.609227646606 16.5347635969 0.00236862660049 -101.30932957 0.511419514159 36.388904767
10.975 0.270148349429 144.794006695 0.308231293921 19.6339489792 0.682277280133 0.995089362863 0.605401591718 -165.709295733 0.308231293921 19.6339489792 0.267144904966 145.235560977 0.680585130343 0.895457666999 0.608630415713 13.9903223636 0.682277280133 0.995089362864 0.680585130343 0.895457666998 0.267012739424 107.136892889 0.00239558598625 -105.626608226 0.605401591718 -165.709295733 0.608630415713 13.9903223636 0.00239558598623 -105.626608227 0.512886140467 33.9266941872
11 0.271515189954 142.653300262 0.306921249972 16.8551257265 0.68289665853 -3.19135033725 0.604756996552 -168.250213691 0.306921249972 16.8551257265 0.268505917068 143.098805258 0.681177254131 -3.29151667399 0.608030828939 11.4476256932 0.68289665853 -3.19135033724 0.681177254132 -3.29151667399 0.263901109137 100.812463053 0.00242352578095 -109.948866214 0.604756996552 -168.250213691 0.608030828939 11.4476256932 0.00242352578091 -109.948866214 0.514355532862 31.4648216659
11.025 0.273014329934 140.505121706 0.305570893368 14.0978467604 0.683479136108 -7.38626940946 0.604107507268 -170.789390189 0.305570893368 14.0978467604 0.269997415847 140.954456683 0.681731539542 -7.48696859121 0.607428956551 8.9066160977 0.683479136108 -7.38626940945 0.681731539542 -7.48696859121 0.26094512169 94.4126253587 0.00245249610898 -114.276720073 0.604107507268 -170.789390189 0.607428956551 8.9066160977 0.00245249610894 -114.276720074 0.515827653408 29.0032428676
11.05 0.274646879726 138.347285268 0.304184531758 11.3634316255 0.684021400368 -11.5901232287 0.603453039169 -173.326874682 0.304184531758 11.3634316256 0.271620285153 138.800325069 0.682244639299 -11.6913532524 0.606824875241 6.36723539417 0.684021400368 -11.5901232287 0.682244639299 -11.6913532524 0.258168229885 87.9361021938 0.00248255037003 -118.610810879 0.603453039169 -173.326874682 0.606824875241 6.36723539417 0.00248255036999 -118.61081088 0.517302460933 26.541913479
11.075 0.276413366185 136.177562596 0.30276716014 8.65326145835 0.684520018223 -15.8033838195 0.602793503781 -175.862716437 0.30276716014 8.65326145835 0.27337481191 136.634180901 0.682713082712 -15.9051425067 0.606218668732 3.82942460777 0.684520018223 -15.8033838195 0.682713082712 -15.9051425067 0.255595228821 81.3822246492 0.00251374557621 -122.951805669 0.602793503781 -175.862716437 0.606218668732 3.82942460778 0.00251374557617 -122.951805669 0.518779910711 24.080789191
11.1 0.278313690261 133.99369292 0.301324532275 5.9687760853 0.684971435329 -20.0265419941 0.602128808553 -178.396964528 0.301324532275 5.96877608531 0.275260643409 134.453765731 0.683133274655 -20.128827024 0.605610428432 1.29312386516 0.684971435329 -20.0265419941 0.683133274655 -20.128827024 0.253252138168 74.7510483943 0.00254614273435 -127.300399104 0.602128808553 -178.396964528 0.605610428432 1.29312386516 0.00254614273432 -127.300399104 0.520259954109 21.6198256805
11.125 0.280347085131 131.793392915 0.299863238971 3.3114694646 0.68537197525 -24.2601098148 0.601458856496 179.070332177 0.299863238971 3.3114694646 0.277276745058 132.25680223 0.683501494321 -24.3629187586 0.605000254153 -1.24172772322 0.68537197525 -24.2601098148 0.683501494321 -24.3629187586 0.251166036163 68.0434709141 0.00257980728028 -131.657315418 0.601458856496 179.070332177 0.605000254153 -1.24172772322 0.00257980728026 -131.657315418 0.521742538202 19.1589785896
11.15 0.282512074834 129.574365945 0.298390793773 0.682883083589 0.685717838335 -28.5046234275 0.600783545758 176.539125027 0.298390793773 0.682883083591 0.279421358517 130.041003569 0.683813893654 -28.6079537839 0.604388254915 -3.77519219324 0.685717838335 -28.5046234275 0.683813893654 -28.6079537839 0.249364841247 61.2613443518 0.00261480957266 -136.0233107 0.600783545758 176.539125027 0.604388254915 -3.77519219324 0.00261480957265 -136.0233107 0.523227605364 16.6982035051
11.175 0.284806433298 127.334310358 0.296915726634 -1.91540314229 0.686005100178 -32.7606463186 0.600102769109 174.009365607 0.296915726634 -1.91540314229 0.281691960078 127.804081828 0.684066495288 -32.8644955505 0.603774549817 -6.30733287149 0.686005100178 -32.7606463186 0.684066495288 -32.8644955505 0.247877039377 54.4075768011 0.00265122545551 -140.399175577 0.600102769109 174.009365607 0.603774549817 -6.30733287149 0.0026512254555 -140.399175577 0.524715092803 14.2374559347
11.2 0.287227143532 125.070926503 0.295447686129 -4.4817829993 0.686229709473 -37.0287730563 0.599416413323 171.481005771 0.295447686129 -4.48178299931 0.28408521903 125.543755077 0.684255189821 -37.1331386287 0.603159269017 -8.83821453584 0.686229709473 -37.0287730563 0.684255189821 -37.1331386287 0.246731358037 47.4862137549 0.00268913689973 -144.785738367 0.599416413323 171.481005771 0.603159269017 -8.83821453584 0.00268913689973 -144.785738367 0.526204932079 11.7766912832
11.225 0.289770356621 122.781922074 0.293997550768 -7.01463974564 0.686387485068 -41.3096335818 0.598724358469 168.953997684 0.293997550768 -7.01463974565 0.286596955573 123.257752764 0.684375732205 -41.4145129998 0.602542554803 -11.3679035943 0.686387485068 -41.3096335818 0.684375732205 -41.4145129998 0.245956391726 40.5024908116 0.0027286327358 -149.183868788 0.598724358469 168.953997684 0.602542554803 -11.3679035943 0.00272863273582 -149.183868788 0.527697048554 9.31586482597
11.25 0.292431349915 120.465015394 0.29257754992 -9.51236621939 0.686474111953 -45.6038981268 0.598026477098 166.428293888 0.29257754992 -9.5123662194 0.289222097647 120.943819012 0.684423736978 -45.7092889749 0.601924562785 -13.8964682847 0.686474111953 -45.6038981268 0.684423736978 -45.7092889749 0.245580188045 33.4628489309 0.00276980949176 -153.594482323 0.598026477098 166.428293888 0.601924562785 -13.8964682847 0.00276980949179 -153.594482322 0.529191360809 6.8549316812
11.275 0.295204483536 118.117936174 0.291201394821 -11.9733900684 0.686485135879 -49.9122828425 0.597322633383 163.903847393 0.291201394821 -11.9733900684 0.291954635714 118.599713374 0.684394672028 -50.0181828239 0.601305463217 -16.4239788983 0.686485135879 -49.9122828425 0.684394672028 -50.0181828239 0.245629808083 26.3749047456 0.00281277235289 -158.018545358 0.597322633383 163.903847393 0.601305463217 -16.4239788983 0.00281277235292 -158.018545357 0.530687779996 4.39384678023
11.3 0.298083153845 115.73842325 0.289884420037 -14.3962049682 0.686415956253 -54.2355562371 0.596612682308 161.380611806 0.289884420037 -14.3962049682 0.29478757407 116.223208551 0.684283850512 -54.3419632127 0.600685442468 -18.9505080303 0.686415956253 -54.2355562371 0.684283850512 -54.3419632127 0.246130879053 19.2473708003 0.00285763626234 -162.457081237 0.596612682308 161.380611806 0.600685442468 -18.9505080303 0.00285763626236 -162.457081236 0.532186209139 1.93256483619
11.325 0.301059741901 113.324218691 0.288643735633 -16.7794087653 0.68626181687 -58.5745465294 0.595896469011 158.85854149 0.288643735633 -16.7794087653 0.297712876607 113.812084472 0.684086420475 -58.6814585569 0.600064704659 -21.4761308607 0.68626181687 -58.5745465294 0.684086420475 -58.6814585569 0.247107160491 12.0899240381 0.0029045271854 -166.911177391 0.595896469011 158.85854149 0.600064704659 -21.4761308607 0.00290452718542 -166.911177391 0.533686542362 -0.528959689231
11.35 0.304125553974 110.873057604 0.287498390163 -19.1217495315 0.686017794006 -62.9301500448 0.595173828492 156.337591772 0.287498390163 -19.1217495315 0.300721403959 111.364118059 0.683797351679 -63.037565416 0.599443473489 -24.0009254706 0.686017794006 -62.9301500448 0.683797351679 -63.037565416 0.248580147128 4.91302512346 0.00295358356381 -171.381993745 0.595173828492 156.337591772 0.599443473489 -24.0009254706 0.0029535835638 -171.381993745 0.535188664051 -2.99077262074
11.375 0.307270749831 108.382652788 0.286469544373 -21.4221805308 0.685678781256 -67.3033407926 0.594444585852 153.817719156 0.286469544373 -21.4221805308 0.303802837571 108.877067839 0.683411418994 -67.4112580683 0.598821994274 -26.5249731982 0.685678781256 -67.3033407926 0.683411418994 -67.4112580683 0.250568731362 -2.27230422197 0.00300495799128 -175.870772627 0.594444585852 153.817719156 0.598821994274 -26.5249731982 0.00300495799125 -175.870772628 0.536692447935 -5.45292010609
11.4 0.310484252549 105.850673272 0.285580655296 -23.6799250647 0.685239470464 -71.6951813855 0.593708557204 151.298881554 0.285580655296 -23.6799250647 0.306945584168 106.348652408 0.682923181682 -71.8035994281 0.598200536234 -29.04835904 0.685239470464 -71.6951813855 0.682923181682 -71.8035994281 0.253088945728 -9.45473441781 0.00305881914739 179.621149531 0.593708557204 151.298881554 0.598200536234 -29.04835904 0.00305881914732 179.621149531 0.538197756084 -7.91544865425
11.425 0.313753630759 103.274715541 0.284857670166 -25.8945520595 0.684694327939 -76.1068354863 0.59296555125 148.781038473 0.284857670166 -25.8945520595 0.31013665119 103.776521563 0.682326957729 -76.2157534865 0.597579395059 -31.5711721037 0.684694327939 -76.1068354863 0.682326957729 -76.2157534865 0.256153801098 -16.6228970223 0.0031153540331 175.092328378 0.592965551249 148.781038473 0.597579395059 -31.5711721037 0.003115354033 175.092328377 0.539704437813 -10.3784051751
11.45 0.317064940202 100.652266072 0.284329229278 -28.0660630669 0.684037565038 -80.5395819903 0.592215371321 146.264151137 0.284329229278 -28.0660630669 0.313361479486 101.158218679 0.681616792275 -80.6489994884 0.596958895787 -34.0935061213 0.684037565038 -80.5395819903 0.681616792275 -80.6489994884 0.259773229966 -23.7656530547 0.00317477056 170.541195296 0.592215371321 146.264151137 0.596958895787 -34.0935061213 0.00317477055989 170.541195295 0.541212328485 -12.8418370203
11.475 0.320402505663 97.9806535541 0.284026876695 -30.1949910575 0.683263102057 -84.9948311881 0.591457817487 143.748182525 0.284026876695 -30.1949910575 0.316603713495 98.4911326893 0.680786419044 -85.1047480853 0.596339396064 -36.6154600289 0.683263102057 -84.9948311881 0.680786419044 -85.1047480853 0.26395413676 -30.8723442855 0.00323730055468 165.966038054 0.591457817487 143.748182525 0.596339396064 -36.6154600289 0.00323730055459 165.966038053 0.542721248208 -15.3057920247
11.5 0.323748616063 95.25698899 0.283985277444 -32.2825109672 0.682364524195 -89.4741431864 0.590692688217 141.233097314 0.283985277444 -32.2825109672 0.319844880445 95.7724378191 0.679829213492 -89.5845597446 0.595721289808 -39.1371386247 0.682364524195 -89.4741431864 0.679829213492 -89.5845597446 0.26870054978 -37.9330130855 0.00330320325155 161.364977841 0.590692688217 141.233097314 0.595721289808 -39.1371386247 0.00330320325155 161.364977841 0.544231000407 -17.7703185492
