! Touchstone file exported from HFSS 2025.2.4
!        File:           //wsl.localhost/Ubuntu/tmp/hfss-r11/hfss/output_v3_4_jacobian/h_throat_a_minus/single_magictee_v3_4_hreactive.aedt
!        Generated:      02:59:36 PM Sep 22, 2026
!        Design:         SingleMagicT_v3_4_HReactiveCell
!        Project:        single_magictee_v3_4_hreactive
!
! Variables:
!        f_adapt = 10.2GHz
!        h_cap_height = 9mm
!        h_cap_len = 2.5mm
!        h_terminal_ridge_w = 4.572mm
!        h_throat_a = 20mm
!        h_throat_len = 5.5mm
!        ridge_g1 = 7.672mm
!        ridge_g2 = 5.8mm
!        ridge_l1 = 9.872mm
!        ridge_l2 = 8.857mm
!        ridge_w = 4.572mm
!        terminal_ridge_len = 7.5mm
!        wg_a = 22.86mm
!        wg_b = 10.16mm
!
!Data is not renormalized
# GHz S MA
! Terminal data exported
! Port[1] = P1_CollinearMinusX
! Port[2] = P2_CollinearPlusX
! Port[3] = P3_HArm_Ridged
! Port[4] = P4_EArm
9                              0.242329202613531 151.056216422942 0.540265202836431 -174.233275066995 0.466126886608195 63.4568413821245 0.657355150391136 46.181934931565  
                               0.540265202836429 -174.233275066995 0.241574931209224 150.997201914813 0.466330051303929 63.4305929122794 0.657488666416573 -133.815148866688 
                               0.466126886608194 63.4568413821248 0.466330051303929 63.4305929122791 0.751838968185588 131.687781928312 0.000418030449997734 124.067091878542 
                               0.657355150391135 46.181934931565  0.657488666416574 -133.815148866688 0.000418030449997326 124.067091878211 0.368229120302219 -115.389212236995 
9.025                          0.240307589526194 148.210343332798 0.540507773773666 -177.054274582414 0.467450765220843 59.982188414725  0.65696271787586 43.2752935580224 
                               0.540507773773403 -177.0542745824  0.239557278978106 148.153468141945 0.467662809251357 59.9541849420451 0.657084417675911 -136.722347444325 
                               0.467450765220689 59.9821884147407 0.467662809251524 59.9541849420323 0.750200947745757 127.497929142166 0.000422500586406726 121.264500638038 
                               0.656962717875934 43.2752935579244 0.657084417673939 -136.722347444247 0.000422500586171637 121.2645006172   0.369650649336755 -118.114428572309 
9.05                           0.238301240067382 145.371513422485 0.540758028621476 -179.867765675994 0.468747994978754 56.5122426490925 0.65656603021999 40.3766708576218 
                               0.540758028621056 -179.867765675972 0.237554123153141 145.316891267596 0.468969014729808 56.4824470316305 0.656676687493636 -139.621453882407 
                               0.468747994978509 56.5122426491181 0.468969014730074 56.4824470316096 0.748582337186889 123.310101968305 0.00042731346379384 118.479328033876 
                               0.656566030220096 40.3766708574654 0.656676687490551 -139.621453882279 0.000427313463396966 118.479328003121 0.371078518019206 -120.834683546868 
9.075                          0.23631057470705 142.539384287265 0.541015829975803 177.326007593281 0.47001954090152 53.0470983923133 0.656165230873482 37.4859217316342 
                               0.541015829975305 177.326007593309 0.235565853075199 142.487122474522 0.470249625339491 53.0154731140686 0.656265497014355 -142.512628978516 
                               0.470019540901233 53.047098392344  0.470249625339805 53.0154731140433 0.746983726881145 119.124773700704 0.0004324908184174 115.708709978492 
                               0.656165230873593 37.4859217314496 0.656265497010786 -142.512628978361 0.000432490817923301 115.70870994516  0.372512636668904 -123.550072726645 
9.1                            0.234335860719226 139.713597665335 0.541280913914975 174.526809287658 0.471266460318507 49.5868407296774 0.655760435065777 34.6029035831682 
                               0.541280913914457 174.526809287688 0.233592703842569 139.663796364976 0.47150569078869 49.5533478914484 0.655850859765934 -145.396027983999 
                               0.471266460318211 49.58684072971   0.471505690789014 49.5533478914214 0.745405335938251 114.942393537263 0.000438053206823622 112.949652659178 
                               0.655760435065876 34.6029035829774 0.65585085976232 -145.396027983834 0.000438053206287258 112.949652627966 0.373952916494892 -126.26068925054 
9.125                          0.23237721965914 136.893781754765 0.541552898866892 171.734412040933 0.472489902247365 46.1315449319267 0.655351733629831 31.7274763968021 
                               0.541552898866397 171.734412040962 0.231634763935204 136.846533303855 0.472738352290618 46.0961462486496 0.655432783632614 -148.271801013234 
                               0.472489902247085 46.1315449319585 0.472738352290925 46.0961462486231 0.743847035226935 110.763384706778 0.000444019932176771 110.199077201473 
                               0.655351733629912 31.7274763966205 0.655432783629248 -148.271801013074 0.000444019931642882 110.199077175012 0.375399269831754 -128.966623914782 
9.15                           0.230434634835003 134.079553384903 0.541831294110215 168.948597447637 0.473691106069443 42.6812758712791 0.654939196468682 28.8595027940351 
                               0.541831294109772 168.948597447664 0.229691982834352 134.034941613895 0.473948841259702 42.6439326754424 0.655011272433301 -151.140093421633 
                               0.473691106069194 42.6812758713081 0.473948841259976 42.643932675418  0.742308370450333 106.588142608725 0.000450408992726766 107.453863923369 
                               0.654939196468741 28.859502793873  0.65501127243036 -151.140093421487 0.000450408992229827 107.453863902747 0.376851610352792 -131.667965256852 
9.175                          0.228507958696381 131.270520043895 0.542115507905976 166.169156396704 0.47487139953459 39.2360874519834 0.654522875680996 25.9988480673713 
                               0.5421155079056  166.169156396728 0.227764178558668 131.228619624592 0.475138477339406 39.1967607026792 0.65458632715962 -154.001046153301 
                               0.474871399534382 39.2360874520084 0.475138477339635 39.196760702658  0.740788585064111 102.417032984012 0.0004572370516263 104.710895144041 
                               0.654522875681036 25.9988480672346 0.654586327157193 -154.001046153175 0.000457237051190936 104.710895129259 0.378309853262191 -134.364799638645 
9.2                            0.226596920074109 128.466281765182 0.542404855259896 163.395889354983 0.476032196133753 35.7960220605808 0.654102808363098 23.1453801956585 
                               0.542404855259597 163.395889355003 0.225851045051123 128.427157577739 0.476308665799545 35.7546723577373 0.654157946923337 -156.854796059493 
                               0.476032196133588 35.7960220606013 0.476308665799726 35.7546723577199 0.739286642848457 98.2503901332867 0.000464519426953429 101.967095592989 
                               0.654102808363122 23.1453801955499 0.654157946921452 -156.854796059391 0.000464519426595214 101.967095583351 0.379773915467768 -137.057211328652 
9.225                          0.224701131218528 125.666432876777 0.542698565318923 160.628606605643 0.477174991882625 32.3611100404321 0.653679019105675 20.2989698431091 
                               0.542698565318701 160.628606605658 0.22395215936311 125.630139393469 0.47746089434599 32.3176976437593 0.653726129657934 -159.701476189193 
                               0.477174991882503 32.3611100404476 0.477460894346124 32.317697643746  0.737801249967457 94.088515197601  0.000472270100484388 99.2194695846684 
                               0.653679019105687 20.2989698430289 0.653726129656573 -159.701476189117 0.000472270100210912 99.2194695790994 0.381243715735799 -139.74528258296 
9.25                           0.222820094593557 122.870563617925 0.542995788408119 157.867128446284 0.478301361563598 28.9313691944354 0.653251522203889 17.4594903442454 
                               0.542995788407971 157.867128446294 0.222066988592982 122.837144301444 0.478596729389564 28.8858540466089 0.653290872614538 -162.541216053262 
                               0.478301361563517 28.9313691944461 0.478596729389653 28.8858540465997 0.736330876371567 89.931674514311  0.000480501743502927 96.4651342725517 
                               0.653251522203894 17.4594903441919 0.653290872613653 -162.541216053211 0.000480501743315037 96.465134269841  0.382719174829381 -142.429093724882 
9.275                          0.220953209393597 120.078261628327 0.543295602716193 155.111285351284 0.479412954476178 25.5068043192085 0.652820323599878 14.6268176768251 
                               0.543295602716113 155.11128535129  0.220194896545966 120.047748342452 0.479717811823919 25.4591460728149 0.652852172688087 -165.374141863709 
                               0.479412954476133 25.5068043192147 0.479717811823968 25.4591460728096 0.734873776420669 85.7800980590122 0.000489225757733896 93.7013484657659 
                               0.652820323599878 14.6268176767957 0.652852172687612 -165.37414186368 0.000489225757627035 93.7013484647454 0.384200215631698 -145.108723223082 
9.3                            0.219099777758686 117.289113315562 0.543597020639765 152.360918102687 0.480511489747938 22.0874067733597 0.652385422576739 11.800830424633  
                               0.543597020639742 152.360918102689 0.218335150090872 117.261525746099 0.480825852364111 22.0375648211295 0.652410026605519 -168.200376749704 
                               0.480511489747924 22.0874067733619 0.480825852364126 22.0375648211275 0.733428008626538 81.6339779821931 0.000498452329354695 90.9255366706217 
                               0.652385422576739 11.8008304246241 0.65241002660538 -168.200376749696 0.000498452329320241 90.9255366702849 0.385686763255483 -147.784247768065 
9.325                          0.217259010670589 114.502705106649 0.543898994797853 149.615877893728 0.481598751259065 18.6731540818279 0.65194681322298 8.98140973184647 
                               0.543898994797878 149.615877893726 0.216486925196405 114.478050190576 0.481922626498567 18.6210875896903 0.651964431003926 -171.020040952001 
                               0.481598751259076 18.6731540818267 0.481922626498555 18.6210875896912 0.731991454434195 77.493467247124  0.000508190493970126 88.135308198107  
                               0.651946813222982 8.98140973185417 0.651964431004046 -171.020040952009 0.000508190493996689 88.1353081976766 0.387178745139897 -150.45574234693 
9.35                           0.215430033518807 111.718624589915 0.544200423729299 146.876026408876 0.482676582233514 15.2640095776526 0.651504485686192 6.16843925052758 
                               0.54420042372936 146.876026408871 0.214649312636229 111.696895950715 0.483009969107145 15.2096775201575 0.65151538242305 -173.833251997425 
                               0.482676582233543 15.2640095776489 0.483009969107113 15.2096775201608 0.730561835981527 73.3586783733534 0.000518448210432441 85.328471347187  
                               0.651504485686197 6.16843925054788 0.651515382423357 -173.833251997446 0.000518448210507049 85.3284713461406 0.388676091135989 -153.123280316295 
9.375                          0.213611891330781 108.936461553453 0.544500157286808 144.141235884101 0.483746879548905 11.8599220819361 0.651058427234341 3.36180508263268 
                               0.544500157286894 144.141235884094 0.2128213233573  108.917638940621 0.484089768797155 11.8032832796027 0.651062877233178 -176.640124855103 
                               0.483746879548947 11.8599220819303 0.484089768797109 11.8032832796077 0.729136732795533 69.2296822880809 0.000529232441443597 82.5030428246213 
                               0.65105842723435 3.36180508266171 0.651062877233606 -176.640124855134 0.000529232441552741 82.5030428226851 0.390178733581786 -155.786933473342 
9.4                            0.211803553665057 106.155808926531 0.544797001742132 141.411389150909 0.484811587815531 8.46082562220033 0.650608623142574 0.561395717785927 
                               0.544797001742233 141.4113891509   0.211001893510465 106.139857657259 0.485163962007437 8.4018387803708  0.65060691151642 -179.440772076071 
                               0.484811587815579 8.46082562219336 0.485163962007384 8.40183878037693 0.727713597401517 65.1065072856571 0.000540549238982959 79.6572526891364 
                               0.650608623142587 0.56139571782012 0.650606911516911 -179.440772076107 0.000540549239113471 79.6572526862567 0.391686607368032 -158.446772124916 
9.425                          0.210003919169816 103.376263630341 0.545089724617694 138.686379667542 0.485872693272345 5.06663918882439 0.650155057422861 -2.23289803207968 
                               0.545089724617801 138.686379667533 0.209189889145989 103.363134031334 0.48623452692817 5.00526293761731 0.650147480916561 177.764696082163 
                               0.485872693272395 5.06663918881683 0.486234526928114 5.00526293762398 0.726289769838449 60.9891380935431 0.000552403832750744 76.7895452076413 
                               0.650155057422878 -2.23289803204342 0.650147480917069 177.764696082125 0.000552403832890497 76.7895452039414 0.393199649995482 -161.102865154656 
9.45                           0.208211819812165 100.597427344444 0.545377059260625 135.966111540601 0.486932217544598 1.67726652877126 0.649697713413135 -5.02118310024044 
                               0.545377059260731 135.966111540592 0.20738411057966 100.587054191791 0.487303477280899 1.61345946375601 0.649684580470109 174.976171544547 
                               0.486932217544648 1.67726652876368 0.487303477280844 1.6134594637628  0.724862491089359 56.8775150412758 0.00056480071999402 73.8985760824718 
                               0.649697713413153 -5.02118310020477 0.649684580470595 174.976171544509 0.000564800720132439 73.8985760782016 0.39471780162461 -163.755280088125 
9.475                          0.206426024785933 97.8189071952737 0.545657709175897 133.250499540243 0.487992211304007 -1.70740402460292 0.649236574241823 -7.80356423401298 
                               0.545657709175995 133.250499540234 0.205583296437449 97.8112091502271 0.488372855999506 -1.77368330137147 0.649218204428846 172.193548319457 
                               0.487992211304053 -1.70740402461005 0.488372855999457 -1.7736833013651 0.723428915450079 52.7715333273433 0.0005777437552766 70.9832065521255 
                               0.649236574241843 -7.80356423397999 0.649218204429284 172.193548319422 0.000577743755405007 70.9832065476101 0.396241005118509 -166.404083155935 
9.5                            0.204645244107528 95.0403163730353 0.545930352135945 130.539469111996 0.489054747868004 -5.08749968723424 0.648771623182922 -10.5801440641663 
                               0.545930352136031 130.539469111988 0.203786127388487 95.0351954114172 0.489444728848612 -5.1562925261553 0.648748346082132 169.416722410321 
                               0.489054747868044 -5.08749968724056 0.489444728848569 -5.15629252614964 0.72198612187285 48.6710423773926 0.000591236238955756 68.0424948859321 
                               0.648771623182941 -10.5801440641376 0.648748346082502 169.41672241029  0.000591236239067541 68.0424948815239 0.397769206079672 -169.049339354853 
9.525                          0.202868131910795 92.2612746832998 0.546193644084946 127.832956388153 0.490121916769931 -8.46316332741556 0.648302843915843 -13.3510231742926 
                               0.546193644085017 127.832956388146 0.201991229577454 92.2586155161591 0.490521178011137 -8.53451099056737 0.648274997585321 166.645591736596 
                               0.490121916769963 -8.46316332742071 0.490521178011103 -8.53451099056265 0.72053112433317 44.5758452858765 0.00060528100332774 65.0756857890517 
                               0.64830284391586 -13.3510231742692 0.648274997585614 166.645591736571 0.0006052810034184 65.0756857850893 0.399302352881315 -171.691112506912 
9.55                           0.201093289452747 89.4814090396471 0.54644622285677 125.130908201609 0.491195817326938 -11.8345535383787 0.647830220703457 -16.1163001696154 
                               0.546446222856824 125.130908201604 0.200197177768405 89.48107852259   0.491604295671807 -11.9084971593166 0.647798149799071 163.880056062893 
                               0.491195817326962 -11.8345535383826 0.491604295671783 -11.9084971593131 0.719060881278921 40.4856983321014 0.000619880495592826 62.0821982122231 
                               0.647830220703471 -16.116300169598 0.647798149799283 163.880056062874 0.000619880495659872 62.0821982089983 0.400840396693782 -174.329465316527 
9.575                          0.199319267842727 86.7003539037276 0.546686711726594 122.433282104956 0.492278552227069 -15.2018446827275 0.647353738500795 -18.8760717448061 
                               0.54668671172663 122.433282104952 0.19840249821265 86.7022004321595 0.492696177618023 -15.2784252271185 0.647317792142856 161.120016935135 
                               0.492278552227085 -15.20184468273  0.492696177618007 -15.2784252271161 0.717572304230257 36.4003105606714 0.000635036856962998 59.0616120251373 
                               0.647353738500806 -18.8760717447947 0.64731779214299 161.120016935122 0.000635036857005776 59.0616120228717 0.40238329150655 -176.964459425638 
9.6                            0.197544570507929 83.9177516792259 0.546913722817272 119.740046397563 0.493372221151501 -18.5652269111898 0.646873383005961 -21.630432750464 
                               0.546913722817291 119.740046397562 0.196605671253658 83.921604566492  0.493798916874108 -18.6444851385245 0.646833912464806 158.365377622733 
                               0.49337222115151 -18.565226911191 0.493798916874101 -18.6444851385234 0.716062265607   32.3193434155241 0.000650751997387702 56.0136539674123 
                               0.646873383005967 -21.6304327504586 0.646833912464867 158.365377622727 0.000650751997407138 56.0136539662441 0.403930994146276 -179.596155466913 
9.625                          0.195767655408426 81.1332530663539 0.547125860382807 117.051180163341 0.49447891444235 -21.9249061582423 0.646389140663867 -24.3794762579953 
                               0.54712586038281 117.051180163341 0.194805133682096 81.1389219014827 0.49491459737937 -22.0068825848429 0.646346496928923 155.616043065875 
                               0.494478914442351 -21.9249061582421 0.49491459737937 -22.006882584843 0.714527605867557 28.2424104161217 0.000667027665503108 52.9381832407085 
                               0.646389140663868 -24.3794762579954 0.646346496928921 155.616043065875 0.000667027665501403 52.9381832406868 0.405483464291248 177.77538688497  
9.65                           0.193986937014868 78.3465173837203 0.547321723992692 114.366673321785 0.495600706820812 -25.2811041171846 0.645900998632472 -27.1232936226931 
                               0.547321723992681 114.366673321787 0.192999280854102 78.3537913651498 0.49604528771481 -25.3658389807083 0.645855529919902 152.871919827082 
                               0.495600706820808 -25.2811041171832 0.496045287714817 -25.3658389807095 0.712965140049657 24.1690768638926 0.000683865513517632 49.8351770528511 
                               0.645900998632469 -27.1232936226978 0.645855529919849 152.871919827087 0.000683865513497938 49.8351770539395 0.407040664482573 175.150108863917 
9.675                          0.19220078806201 75.5572128647272 0.547499911642542 111.686526694899 0.496739651154836 -28.634058197218 0.645408944720244 -29.8619745448844 
                               0.547499911642521 111.686526694902 0.191186468585802 75.5658601060122 0.497193034877749 -28.7215914228327 0.645360993965046 150.132916046339 
                               0.496739651154827 -28.6340581972156 0.497193034877761 -28.7215914228348 0.711371663808708 20.0988595667025 0.000701267156831838 46.70471637256   
                               0.645408944720236 -29.8619745448931 0.645360993964953 150.132916046349 0.000701267156797932 46.7047163746452 0.408602560132366 172.527952564874 
9.7                            0.190407541091116 72.7650169360271 0.547659022818249 109.010752092468 0.497897772269985 -31.9840214650102 0.644912967302659 -32.5956071290709 
                               0.547659022818219 109.010752092473 0.189365014836913 72.7747837390988 0.498359858098108 -32.0743926334045 0.644862869672229 147.398941399146 
                               0.497897772269972 -31.9840214650071 0.498359858098123 -32.0743926334074 0.709743959054411 16.0312265689562 0.000719234228256037 43.5469721035318 
                               0.644912967302648 -32.5956071290824 0.644862869672109 147.398941399159 0.000719234228212 43.5469721064375 0.410169119529146 169.908860898075 
9.725                          0.188605489794205 69.969616486078  0.547797661542962 106.339372418163 0.499077060791748 -35.331262573105 0.64441305522465 -35.3242779410294 
                               0.547797661542927 106.339372418168 0.187533201196174 69.9802265771372 0.499547742684718 -35.424510890477 0.644361135682451 144.669907056959 
                               0.499077060791732 -35.3312625731013 0.499547742684735 -35.4245108904804 0.708078799290587 11.9655968749009 0.000737768426736066 40.362191840609  
                               0.644413055224635 -35.3242779410428 0.644361135682316 144.669907056974 0.000737768426685999 40.3621918441124 0.411740313840613 167.292777545077 
9.75                           0.186792890173059 67.1707081324451 0.54791443943853 103.672421798805 0.50027946700231 -38.6760656773729 0.643909197694996 -38.0480720628915 
                               0.547914439438493 103.67242179881  0.185689274181175 67.1818618550188 0.500758633884758 -38.7722299475279 0.643855768635237 141.945725649563 
                               0.500279467002294 -38.676065677369 0.500758633884775 -38.7722299475315 0.706372954767181 7.90134015278623 0.000756871560529757 37.1506873294583 
                               0.643909197694981 -38.0480720629058 0.643855768635098 141.945725649579 0.000756871560477537 37.1506873333087 0.413316117113927 164.679646916522 
9.775                          0.184967961525942 64.367998497256  0.548007978835579 101.009945739107 0.501506894689694 -42.0187303454957 0.64340138417783 -40.7670731462513 
                               0.548007978835542 101.009945739113 0.183831446365184 64.3793719563206 0.501994430734345 -42.1178489441687 0.643346743144945 139.226311228997 
                               0.501506894689678 -42.0187303454917 0.501994430734362 -42.1178489441724 0.704623197557236 3.8377764077462  0.000776545584795932 33.9128227150265 
                               0.643401384177814 -40.7670731462655 0.643346743144812 139.226311229013 0.000776545584745005 33.9128227189635 0.414896506273556 162.069414111594 
9.8                            0.183128887275134 61.5612045011298 0.548076915969263 98.3520013040527 0.50276119496232 -45.3595714582295 0.642889604285569 -43.4813634633843 
                               0.548076915969228 98.3520013040583 0.181957897343639 61.572448651501  0.503256979873437 -45.4616823097403 0.642834031785992 136.511579234738 
                               0.502761194962304 -45.3595714582257 0.503256979873453 -45.4616823097437 0.702826306675515 -0.225824388409986 0.000796792633567051 30.6490036331293 
                               0.642889604285554 -43.4813634633976 0.642834031785871 136.511579234753 0.000796792633520286 30.6490036369001 0.416481461116741 159.462024879131 
9.825                          0.181273815648692 58.750053686998  0.548119904300845 95.6986573309673 0.504044159997355 -48.6989191049157 0.642373847676822 -46.1910239566841 
                               0.548119904300815 95.6986573309723 0.180066774553227 58.7607933583916 0.504548069293526 -48.8040596612506 0.642317605085005 133.801446459898 
                               0.504044159997341 -48.6989191049124 0.504548069293539 -48.8040596612537 0.700979073359515 -4.29024272188536 0.000817615046078283 27.3596671736999 
                               0.642373847676808 -46.1910239566958 0.642317605084902 133.801446459911 0.000817615046037875 27.3596671770746 0.418070964306595 156.857425580354 
9.85                           0.179400860230358 55.9342845865448 0.548135618008694 93.04999467319   0.505357516686802 -52.0371184743935 0.641854103962043 -48.8961342864441 
                               0.548135618008671 93.0499946731941 0.178156193956904 55.9441174368155 0.505869421982166 -52.1453256968037 0.641797431518005 131.095831018273 
                               0.50535751668679 -52.0371184743906 0.505869421982176 -52.1453256968063 0.699078306638106 -8.3563100269135 0.000839015387421561 24.0452727231341 
                               0.641854103962032 -48.8961342864536 0.641797431517924 131.095831018284 0.000839015387388988 24.0452727259185 0.419665001362783 154.255563153173 
9.875                          0.177508100392266 53.1136471435495 0.548122755696013 90.4061064770495 0.506702920141044 -55.3745297421218 0.641330362619006 -51.5967728771274 
                               0.548122755695996 90.4061064770525 0.176224240608899 53.1221425306011 0.507222689424165 -55.4858400853198 0.641273477510874 128.394652312133 
                               0.506702920141035 -55.3745297421196 0.507222689424171 -55.4858400853218 0.697120839318087 -12.4249092513226 0.000860996463484844 20.7062936763772 
                               0.641330362618998 -51.5967728771344 0.641273477510817 128.394652312141 0.000860996463460867 20.706293678422  0.421263560649749 151.656385078034 
9.9                            0.175593581626104 50.2879032102571 0.548080044366651 87.767098493632  0.508081947005651 -58.7115279539427 0.640802612919506 -54.2930169622754 
                               0.548080044366642 87.7670984936338 0.174268969114671 50.294600971975  0.508609444915323 -58.8259773529734 0.640745707441586 125.697831000667 
                               0.508081947005645 -58.7115279539414 0.508609444915325 -58.8259773529746 0.695103534524769 -16.496975507108 0.000883561330125505 17.3432099963928 
                               0.640802612919502 -54.2930169622795 0.640745707441553 125.697831000672 0.000883561330110214 17.3432099976003 0.422866633362418 149.059839345276 
9.925                          0.173655315789697 47.4568271350821 0.548006243724735 85.1330894265344 0.509496088543523 -62.0485029065124 0.640270843868074 -56.984942628215 
                               0.548006243724733 85.1330894265347 0.172288404001988 47.4612362653437 0.510031176640893 -62.1661267663722 0.64021408364291 123.005288969089 
                               0.509496088543519 -62.0485029065119 0.510031176640891 -62.1661267663727 0.693023292939485 -20.5734968146159 0.000906713296513362 13.9565015889289 
                               0.640270843868074 -56.9849426282162 0.6402140836429  123.00528896909  0.000906713296506257 13.9565015892551 0.424474213509249 146.465874423955 
9.95                           0.171691281287622 44.6202064625343 0.54790015085848 82.5042113164607 0.510946743431051 -65.385859023988 0.639735044152912 -59.672624856724 
                               0.547900150858484 82.5042113164596 0.170280540020917 44.6218036698821 0.511489280467488 -65.5066922120645 0.63967856640461 120.316949298388 
                               0.51094674343105 -65.3858590239883 0.511489280467484 -65.5066922120642 0.690877060884751 -24.6555149479341 0.000930455922563838 10.5466424535423 
                               0.639735044152916 -59.6726248567225 0.639678566404621 120.316949298386 0.000930455922563937 10.5466424529971 0.426086297892545 143.874439232103 
9.975                          0.169699423206519 41.777842769304  0.547760605373575 79.8806099630961 0.512435210213822 -68.7240152300985 0.639195202108762 -62.3561375668143 
                               0.547760605373586 79.8806099630936 0.168243342392409 41.7760709032041 0.512985052394057 -68.8480920714987 0.639139113974466 117.632736235788 
                               0.512435210213823 -68.7240152300995 0.51298505239405 -68.8480920714977 0.688661839416955 -28.7441263879453 0.000954793010365419 7.11409556720626 
                               0.639195202108771 -62.3561375668101 0.639139113974495 117.632736235783 0.000954793010371381 7.1140955658501  0.42770288608588 141.285483108403 
10                             0.1676776534282  38.9295526640691 0.547586495046738 77.2624453841841 0.513962679364573 -72.0634048142294 0.638651305690926 -65.0355536557841 
                               0.547586495046753 77.2624453841803 0.166174747027503 38.9238189917795 0.51451968060465 -72.1907590900681 0.638595682557756 114.952575165959 
                               0.513962679364575 -72.0634048142311 0.514519680604641 -72.1907590900664 0.686374694596947 -32.8404833881699 0.000979728589487962 3.65930845407503 
                               0.638651305690939 -65.0355536557777 0.638595682557798 114.952575165952 0.000979728589498227 3.65930845201278 0.429323980408489 138.698955785226 
10.025                         0.165623850746602 36.0751689828844 0.547376762075571 74.6498923111236 0.515530224883619 -75.4044752896341 0.638103342459248 -67.7109450396892 
                               0.54737676207559 74.6498923111186 0.164072660741999 36.0648432977989 0.51609423706327 -75.5351402383515 0.638048226315209 112.276392583079 
                               0.515530224883623 -75.4044752896364 0.51609423706326 -75.5351402383493 0.684012769120932 -36.945795156997 0.0010052668960395 0.182709393759848 
                               0.638103342459264 -67.710945039681 0.638048226315261 112.27639258307  0.00100526689605243 0.182709391133494 0.430949585896496 136.114807363021 
10.05                          0.163535861018088 33.2145422171404 0.547130410006588 72.0431407196645 0.517138795379887 -78.7476882413228 0.637551299570523 -70.382382693363 
                               0.547130410006609 72.0431407196586 0.161934961494687 33.1989547570087 0.517709668588938 -78.8816965631047 0.637496697359741 109.604116063821 
                               0.517138795379892 -78.7476882413255 0.517709668588927 -78.8816965631021 0.681573295507685 -41.0613291581162 0.00103141234531868 -3.31529577953179 
                               0.637551299570542 -70.3823826933535 0.637496697359799 109.60411606381  0.00103141234533267 -3.3152957825525 0.432579710270782 133.532988286014 
10.075                         0.16141149737858 30.3475422172006 0.546846511429099 69.4423963933989 0.518789204569001 -82.0935191606038 0.636995163777468 -73.0499366901116 
                               0.54684651142912 69.4423963933925 0.159759498681056 30.325981367809  0.519366787347459 -82.2309030249788 0.636941045752629 106.93567424136  
                               0.518789204569006 -82.0935191606068 0.519366787347448 -82.2309030249759 0.67905361105339 -45.1884125288848 0.00105816949788778 -6.83432633370314 
                               0.636995163777489 -73.0499366901014 0.636941045752688 106.935674241348 0.00105816949790141 -6.83432633693067 0.434214363901366 130.953449319202 
10.1                           0.159248540565689 27.4740602221747 0.546524216528608 66.8478815166981 0.520482121123747 -85.442457262629 0.636434921432145 -75.7136762411877 
                               0.546524216528627 66.8478815166914 0.157544093518763 27.4457699788429 0.521066260695201 -85.5832483193183 0.636381219500088 104.270996780499 
                               0.520482121123752 -85.442457262632 0.521066260695191 -85.5832483193153 0.676451174782364 -49.3284336139107 0.00108554301886734 -10.3740287963458 
                               0.636434921432166 -75.7136762411774 0.636381219500145 104.270996780487 0.00108554301887945 -10.3740287995853 0.43585355976811 128.37614152659  
10.125                         0.15704473938928 24.5940112751329 0.546162762599222 64.2598352924976 0.522218057811657 -88.795005282643 0.635870558491516 -78.3736697351345 
                               0.54616276259924 64.2598352924911 0.155286539566181 24.5581884306893 0.52280860030963 -88.939234675745 0.635817164551515 101.610014353989 
                               0.522218057811662 -88.7950052826459 0.52280860030962 -88.9392346757422 0.6737635866405  -53.4828436082414 0.00111353763022734 -13.9340786559783 
                               0.635870558491537 -78.3736697351247 0.635817164551567 101.610014353978 0.00111353763023709 -13.9340786590377 0.437497313417586 125.801016250675 
10.15                          0.154797811400026 21.7073370937728 0.545761484620219 61.6785145788634 0.523997359854612 -92.1516792459534 0.635302060522683 -81.0299847770702 
                               0.545761484620233 61.6785145788575 0.152984603421002 21.6631281174252 0.524594150541479 -92.2993776315461 0.635248824800909 98.9526586201207 
                               0.523997359854616 -92.151679245956 0.524594150541472 -92.2993776315436 0.670988609198372 -57.6531583011244 0.00114215805582205 -17.5141816470782 
                               0.635302060522701 -81.0299847770615 0.635248824800952 98.952658620111  0.00114215805582901 -17.5141816497778 0.43914564291595 123.228025093121 
10.175                         0.152505443812364 18.8140094795633 0.545319827007191 59.1041945365397 0.525820192446348 -95.5130082059125 0.634729412705222 -83.6826882279655 
                               0.545319827007201 59.1041945365348 0.150636025652325 18.7605070462194 0.526423075924411 -95.6642057731612 0.634676142093236 96.298862201631  
                               0.525820192446352 -95.5130082059147 0.526423075924405 -95.6642057731591 0.668124192152368 -61.8409599072227 0.0011714089588863 -21.1140746560781 
                               0.634729412705237 -83.6826882279583 0.634676142093269 96.2988622016231 0.00117140895889042 -21.1140746582593 0.440798568797646 120.657119896612 
10.2                           0.150165294746118 15.9140343642904 0.544837356652769 56.5371692776535 0.527686527365703 -98.8795339434462 0.634152599828034 -86.3318462439437 
                               0.544837356652775 56.5371692776499 0.148238522026861 15.850273488296  0.52829534777997 -99.034260439308 0.634099056237689 93.6485586659811 
                               0.527686527365706 -98.8795339434478 0.528295347779967 -99.0342604393064 0.66516849993458 -66.0478989673261 0.00120129487168006 -24.7335262823126 
                               0.634152599828044 -86.3318462439386 0.634099056237711 93.6485586659755 0.00120129487168169 -24.7335262838446 0.44245611400979 118.088252727843 
10.225                         0.14777499485988 13.0074566124585 0.544313777375579 53.9777525033877 0.5295961286266  -102.251810620868 0.633571606278072 -88.9775243156157 
                               0.544313777375582 53.9777525033858 0.145789785098041 12.9324103333224 0.530210729858789 -102.410095378489 0.633517505029967 91.0016825069967 
                               0.529596128626602 -102.251810620869 0.530210729858789 -102.410095378488 0.662119942765181 -70.2756962948053 0.00123182011693704 -28.3723370845665 
                               0.633571606278078 -88.977524315613 0.633517505029977 91.0016825069937 0.0012318201169369 -28.3723370853519 0.444118303852074 115.521375861638 
10.25                          0.145332149459249 10.0943657221218 0.543748945898403 51.4262781156988 0.531548537110303 -105.630404381893 0.632986416018406 -91.6197873074362 
                               0.543748945898403 51.4262781156988 0.143287486235901 10.0069402824743 0.532168762963525 -105.792276352796 0.632931424285794 88.3581691278639 
                               0.531548537110304 -105.630404381893 0.532168762963527 -105.792276352796 0.658977211503749 -74.5261449371626 0.00126298872074226 -32.0303395404396 
                               0.632986416018406 -91.6197873074362 0.632931424285793 88.3581691278638 0.00126298872074131 -32.0303395404182 0.445785165912037 112.956441766137 
10.275                         0.142834341174352 7.17490259669093 0.543142889476985 48.8831007849962 0.533543054131646 -109.015892888901 0.632397012553142 -94.2586994970488 
                               0.543142889476983 48.8831007849984 0.140729278185834 7.07393204437029 0.534168748505179 -109.18138067907 0.632340747888   85.7179548254357 
                               0.533543054131647 -109.0158928889  0.534168748505184 -109.181380679071 0.655739316677845 -78.8011121138086 0.00129480431643405 -35.7073977422466 
                               0.632397012553135 -94.2586994970515 0.632340747887988 85.7179548254387 0.0012948043164335 -35.707397741397 0.447456729995566 110.393403089043 
10.3                           0.140279133313915 4.2492675977184  0.542495825299116 46.3485964520869 0.535578723899048 -112.408864787615 0.631803378876889 -96.8943246145644 
                               0.542495825299114 46.3485964520914 0.138112798255768 4.13350773440599 0.536209730952564 -112.577996697578 0.631745407849494 83.0809767757686 
                               0.535578723899049 -112.408864787613 0.53620973095257 -112.577996697579 0.652405632086755 -83.102541081413 0.00132727003910059 -39.4034068496537 
                               0.631803378876875 -96.8943246145699 0.631745407849472 83.0809767757746 0.00132727003910173 -39.4034068479931 0.449133028052458 107.832212644878 
10.325                         0.13766407401777 1.31773013579951 0.541808181768678 43.823162738568  0.537654314838473 -115.809919088454 0.63120549740661 -99.5267258816983 
                               0.541808181768675 43.8231627385749 0.135435672244259 1.18585172394416 0.538290479145014 -115.982723157479 0.63114533439444 80.4471730207813 
                               0.537654314838474 -115.809919088451 0.538290479145022 -115.982723157482 0.648975943394229 -87.4324528665581 0.00136038841021985 -43.1182923157305 
                               0.631205497406591 -99.5267258817066 0.63114533439441 80.4471730207902 0.00136038841022395 -43.1182923133127 0.450814094096934 105.272823403224 
10.35                          0.134986701346493 -1.61935988359344 0.541080621780602 41.3072192352076 0.539768299764441 -119.219664452897 0.630603349893953 -102.155966050666 
                               0.541080621780601 41.3072192352167 0.132695519236639 -1.76877875571003 0.540409466451404 -119.396168507415 0.63054045605989 77.8164824558917 
                               0.539768299764442 -119.219664452893 0.540409466451413 -119.396168507418 0.645450502134411 -91.7929477916661 0.00139416121197924 -46.8520088996124 
                               0.630603349893927 -102.155966050677 0.630540456059855 77.8164824559031 0.00139416121198748 -46.8520088965244 0.452499964122931 102.715188477894 
10.375                         0.132244549466238 -4.56155836641019 0.540314068079213 38.8012076326378 0.541918834897142 -122.638718372281 0.62999691731638 -104.782107442723 
                               0.540314068079216 38.8012076326491 0.129889957413113 -4.73004087464813 0.542564849774477 -122.818950078643 0.62993069981999 75.1888448184504 
                               0.541918834897144 -122.638718372277 0.542564849774487 -122.818950078647 0.6418300855573  -96.1862067039496 0.00142858935080865 -50.6045394755319 
                               0.629996917316348 -104.782107442736 0.62993069981995 75.1888448184641 0.00142858935082196 -50.6045394718883 0.454190676014056 100.159261117008 
10.4                           0.129435156109516 -7.50831059774629 0.539509730772987 36.3055916529196 0.544103737744059 -126.067706225548 0.629386179745751 -107.405211986211 
                               0.539509730772994 36.3055916529326 0.127016611032058 -7.6974908542136 0.544754447418851 -126.251693147248 0.62931599123472 72.5642006767595 
                               0.544103737744061 -126.067706225543 0.54475444741886 -126.251693147253 0.638116062731245 -100.614491798074 0.00146367270967162 -54.3758936446184 
                               0.629386179745715 -107.405211986226 0.629315991234679 72.564200676775  0.00146367270969064 -54.3758936405557 0.455886269448043 97.6049946939153 
10.425                         0.126556071519575 -10.4589314537315 0.538669137052317 33.8208567342009 0.54632046388772 -129.507260201599 0.628771116193311 -110.025341253956 
                               0.538669137052331 33.8208567342154 0.124073118774505 -10.6705654023549 0.546975715864316 -129.695029861078 0.62869625462493 69.9424914194263 
                               0.546320463887723 -129.507260201593 0.546975715864325 -129.695029861084 0.634310467296083 -105.080146900971 0.0014994099886885 -58.1661061526257 
                               0.628771116193272 -110.025341253972 0.628696254624888 69.942491419443  0.00149940998871346 -58.1661061482945 0.457586785795572 95.0523426989253 
10.45                          0.123604869118342 -13.412581475211 0.537794163121917 31.3475094138567 0.548566082748772 -132.9580180711  0.628151704430411 -112.642556499847 
                               0.537794163121937 31.3475094138722 0.121057143662873 -13.6485591656214 0.549225725513582 -133.149598016254 0.628071413275123 67.3236592447705 
                               0.548566082748777 -132.958018071095 0.54922572551359 -133.149598016259 0.630416077217126 -109.585597061442 0.00153579853371565 -61.9752351136321 
                               0.628151704430369 -112.642556499863 0.628071413275082 67.3236592447879 0.00153579853374633 -61.9752351091896 0.459292268013289 92.5012587317828 
10.475                         0.120579158177629 -16.3682378036321 0.536887068314438 28.8860763482193 0.550837252425881 -136.420621791891 0.627527920784671 -115.256918694403 
                               0.536887068314464 28.8860763482353 0.117966384800065 -16.6305972091361 0.55150113551603 -136.616039667407 0.627441389665184 64.7076471499707 
                               0.550837252425887 -136.420621791885 0.551501135516036 -136.616039667412 0.626436501821713 -114.133347257499 0.00157283415258207 -65.8033600368422 
                               0.627527920784628 -115.25691869442 0.627441389665147 64.7076471499883 0.0015728341526178 -65.8033600324445 0.461002760530862 89.9516964948453 
10.5                           0.117476598822941 -19.3246586912651 0.53595053129524 26.4371028994492 0.553130193751577 -139.895715931545 0.626899739911717 -117.868488559141 
                               0.535950531295272 26.4371028994652 0.114798591216239 -19.6156012417618 0.553798167806601 -140.094999555205 0.626806105731883 62.0943989196057 
                               0.553130193751584 -139.895715931539 0.553798167806606 -140.09499955521 0.622376276299724 -118.725980000564 0.00161051091879358 -69.6505796509102 
                               0.626899739911675 -117.868488559157 0.62680610573185 62.0943989196227 0.00161051091883322 -69.6505796467044 0.46271830913189 87.4036097868939 
10.525                         0.114294919762719 -22.2803399117532 0.5349876881981  24.0011512124351 0.555440663746437 -143.383945890247 0.626267134543061 -120.477326599507 
                               0.534987688198137 24.0011512124506 0.111551578163169 -22.6022479062547 0.556112580542301 -143.587123334319 0.626165483160559 59.4838591132167 
                               0.555440663746444 -143.383945890241 0.556112580542305 -143.587123334325 0.618240963709709 -123.366151577637 0.00164882096266051 -73.5170095177876 
                               0.62626713454302 -120.477326599523 0.626165483160531 59.4838591132328 0.00164882096270257 -73.5170095139044 0.464438960828473 84.85695249752   
10.55                          0.111031939218825 -25.2334608747285 0.534002172446315 21.5787976971598 0.557763928703243 -146.885955906965 0.625630075211129 -123.083493136172 
                               0.534002172446356 21.5787976971741 0.108223246265121 -25.5889169115017 0.558439641168071 -147.093055584824 0.625519443707024 56.8759730514954 
                               0.557763928703251 -146.88595590696 0.558439641168072 -147.093055584829 0.614037264344079 -128.056586630366 0.00168775424999453 -77.4027794260107 
                               0.625630075211092 -123.083493136187 0.625519443707002 56.87597305151   0.00168775425003718 -77.4027794225585 0.466164763729206 82.3116786020184 
10.575                         0.107685589644859 -28.1818175345796 0.532998155911463 19.170629825099  0.56009473718833 -150.402386832006 0.624988529952956 -125.687048334431 
                               0.532998155911504 19.1706298251118 0.104811604027876 -28.573626034601 0.56077409939937 -150.613437590113 0.62486790954921 54.2706868006733 
                               0.560094737188338 -150.402386832001 0.56077409939937 -150.613437590117 0.609773132060148 -132.800070724172 0.00172729834875794 -81.3080305516746 
                               0.624988529952924 -125.687048334444 0.624867909549194 54.2706868006859 0.00172729834879919 -81.308030548734 0.467895766900359 79.7677421567173 
10.6                           0.104253946969999 -31.1227381975963 0.531980390941478 16.7772421424689 0.562427293309193 -153.9338736495  0.62434246399452 -128.288052231485 
                               0.531980390941517 16.7772421424797 0.101314794335132 -31.553948973559 0.563110160470767 -154.148904864898 0.624210803667619 51.6679471546765 
                               0.5624272933092  -153.933873649496 0.563110160470766 -154.148904864902 0.605457896867787 -137.599440512126 0.00176743818434275 -85.2329123741522 
                               0.624342463994493 -128.288052231496 0.624210803667607 51.667947154687  0.00176743818438057 -85.2329123717725 0.469632020219967 77.2250972946701 
10.625                         0.100735265316351 -34.0529769540198 0.53095425264965 14.3992313991433 0.564755230665572 -157.481042734275 0.623691839418208 -130.886564761344 
                               0.530954252649685 14.3992313991519 0.0977311257412253 -34.5269105499011 0.565441459067979 -157.700084417738 0.623548050253093 49.0677016145899 
                               0.564755230665578 -157.481042734272 0.565441459067976 -157.700084417741 0.601102392667524 -142.457571048754 0.0018081557845105 -89.1775793330167 
                               0.623691839418187 -130.886564761352 0.623548050253086 49.0677016145981 0.00180815578454301 -89.1775793312137 0.471373574224493 74.6836982216316 
10.65                          0.0971280184360962 -36.9685775124772 0.529925780696095 12.0371906906582 0.567071587475186 -161.044508828966 0.623036614816425 -133.482645777104 
                               0.529925780696122 12.0371906906645 0.0940591096275026 -37.4888516356812 0.567761034434842 -161.267591733966 0.622879575139918 46.4698983649649 
                               0.567071587475191 -161.044508828964 0.567761034434839 -161.267591733968 0.596719088543645 -147.377359760956 0.00184943001544322 -93.1421872127027 
                               0.623036614816411 -133.48264577711 0.622879575139914 46.4698983649709 0.00184943001546889 -93.1421872114587 0.473120479947725 72.1434992122349 
10.675                         0.0934309495457391 -39.8646974206587 0.528901719613542 9.69170251288272 0.569368783444388 -164.624871729243 0.622376744934854 -136.076355070344 
                               0.52890171961356 9.69170251288663 0.0902975046688279 -40.4352530872548 0.570061307225855 -164.852027466898 0.622205306261656 43.8744862465003 
                               0.569368783444392 -164.624871729242 0.570061307225853 -164.852027466899 0.592322221424941 -152.361706540474 0.00189123631084487 -97.1268892423019 
                               0.622376744934845 -136.076355070348 0.622205306261655 43.874486246504  0.0018912363108627 -97.1268892415666 0.474872788751486 69.6044546062863 
10.7                           0.0896431318686089 -42.7353785957497 0.527889556531627 7.36333063581963 0.571638599037063 -168.222712667735 0.621712180309411 -138.667752387382 
                               0.527889556531632 7.36333063582143 0.0864453706237899 -43.3605033974981 0.572334058758021 -168.453973827925 0.621525174126576 41.2814147246194 
                               0.571638599037064 -168.222712667734 0.57233405875802 -168.453973827925 0.587927927223248 -157.413489390112 0.00193354639659141 -101.131831899652 
                               0.621712180309408 -138.667752387384 0.621525174126577 41.2814147246211 0.00193354639660111 -101.131831899347 0.4766305521477  67.0665188050865 
10.725                         0.0857640431455625 -45.5732440982612 0.526897554941291 5.05261071592161 0.573872157880457 -171.838590390742 0.621042866901475 -141.256897442148 
                               0.526897554941284 5.05261071592167 0.0825021343266891 -46.2575879069939 0.574570413401156 -172.07399066959 0.620839112308961 38.690633853475  
                               0.573872157880457 -171.838590390742 0.574570413401156 -172.07399066959 0.583554366743685 -162.535535041088 0.00197632801405802 -105.157150411652 
                               0.621042866901476 -141.256897442149 0.620839112308963 38.6906338534752 0.00197632801406021 -105.157150411673 0.478393821611289 64.52964626769   
10.75                          0.0817936588194965 -48.3690921052813 0.525934782918805 2.76003958667441 0.576059913132054 -175.47303692623 0.620368745736464 -143.843849925415 
                               0.525934782918786 2.76003958667328 0.0784676721032323 -49.1176668951045 0.576760824931304 -175.712611260163 0.620147057951945 36.1020942349157 
                               0.576059913132052 -175.473036926231 0.576760824931306 -175.712611260163 0.57922184173425 -167.730583970648 0.00201954464594805 -109.202963946636 
                               0.620368745736467 -143.843849925414 0.620147057951947 36.1020942349148 0.00201954464594431 -109.202963946862 0.480162648383315 61.9937915070048 
10.775                         0.077732570843371 -51.1113443540525 0.525011134004889 0.486063196503421 0.578191638714184 -179.12655304693 0.619689752551378 -146.428669510142 
                               0.52501113400486 0.486063196501784 0.074342414964051 -51.9294934454032 0.57889506775452 -179.370337753565 0.61944895227701 33.5157469719662 
                               0.57819163871418 -179.126553046931 0.578895067754524 -179.370337753564 0.574952895420917 -173.001249298509 0.00206315524920308 -113.26937049977 
                               0.619689752551382 -146.42866951014 0.619448952277011 33.5157469719649 0.00206315524919606 -113.269370500072 0.481937083263704 59.4589090856409 
10.8                           0.0735821426139836 -53.7852850878103 0.524137338719192 -1.76893679730941 0.580256426399137 177.200396561203 0.619005817457424 -149.011415852702 
                               0.524137338719157 -1.76893679731081 0.0701274863884811 -54.6785957750457 0.580962233984376 176.95236363507  0.618744741094646 30.9315436163865 
                               0.580256426399132 177.200396561202 0.580962233984382 176.952363635071 0.570772390786713 -178.349969140991 0.00210711400037438 -117.356441478899 
                               0.619005817457426 -149.011415852701 0.618744741094646 30.9315436163855 0.00210711400036773 -117.356441479143 0.483717176392814 56.9249536114054 
10.825                         0.0693447162777424 -56.3719929428618 0.523324964497727 -4.00465771882715 0.582242689792748 173.507388407442 0.618316864624352 -151.592148589755 
                               0.52332496449769 -4.00465771882747 0.0658248882573813 -57.3461059329471 0.582950737421781 173.255067730437 0.618034375310137 28.3494361099033 
                               0.582242689792742 173.507388407442 0.582950737421789 173.255067730437 0.566707558748051 176.221047832234 0.00215137005966338 -121.46421600607 
                               0.618316864624349 -151.592148589755 0.618034375310137 28.3494361099033 0.00215137005966168 -121.464216006132 0.485502977021015 54.3918797323488 
10.85                          0.0650238981570731 -58.846814022869 0.522586401688215 -6.22089172438587 0.584138176313506 169.79404555534  0.617622811993609 -154.170927330547 
                               0.522586401688184 -6.22089172438438 0.0614377603002168 -59.9070451453458 0.584848325534759 169.537395748352 0.617317811417874 25.769376718734  
                               0.584138176313501 169.794045555341 0.584848325534768 169.537395748351 0.562788007331431 170.709883646845 0.00219586736066777 -125.59269495926 
                               0.6176228119936  -154.170927330549 0.617317811417874 25.7693767187357 0.0021958673606763 -125.59269495903 0.487294533265379 51.8596421312619 
10.875                         0.0606249641618691 -61.1771352015006 0.521934833146226 -8.41754261485297 0.585929988291416 166.060043196391 0.616923571027916 -156.747811644433 
                               0.521934833146208 -8.41754261484897 0.0569707556617203 -62.327752909319 0.586642100562969 165.799020861247 0.616595011977087 23.1913179610571 
                               0.585929988291414 166.060043196393 0.586642100562978 165.799020861246 0.559045682058743 165.114978744173 0.00224054443366718 -129.741834789407 
                               0.616923571027897 -156.747811644437 0.616595011977089 23.1913179610612 0.0022405444336916 -129.7418347888  0.489091891852432 49.3281955195238 
10.9                           0.056155455127326 -63.3190669427623 0.521384184967152 -10.5946433221209 0.587604614309494 162.305114391649 0.616219046505311 -159.32286104342 
                               0.521384184967159 -10.5946433221139 0.0524306065218404 -64.5619289836324 0.588318550870324 162.039673931179 0.615865946061381 20.6152125271266 
                               0.587604614309496 162.305114391651 0.588318550870334 162.039673931177 0.55551476714061 159.435205392316 0.00228533427100742 -133.911541159823 
                               0.61621904650528 -159.322861043427 0.615865946061384 20.6152125271336 0.00228533427105335 -133.911541158785 0.490895097845886 46.7974946302054 
10.925                         0.0516260823594191 -65.2123891254156 0.52094905599105 -12.7523736854136 0.589147971874106 158.529055923128 0.615509136366154 -161.896134959555 
                               0.52094905599109 -12.7523736854034 0.047827012760162 -66.5443603186891 0.589863593632286 158.259149352103 0.61513058967399 18.0410131917672 
                               0.589147971874113 158.529055923132 0.589863593632294 158.259149352099 0.552231516913638 153.669945453248 0.00233016424374672 -138.101662468139 
                               0.615509136366109 -161.896134959566 0.615130589673997 18.0410131917776 0.0023301642438192 -138.101662466654 0.49270419435808 44.2674942103288 
10.95                          0.0470521566526305 -66.7726714242614 0.520644623955175 -14.8910780295889 0.590545462421318 154.731734184648 0.614793731622017 -164.467692716986 
                               0.520644623955256 -14.8910780295755 0.0431741025576375 -68.1806607162777 0.59126262986517 154.457310931005 0.614388926120262 15.4686727190441 
                               0.590545462421332 154.731734184653 0.591262629865174 154.457310931    0.549234007421169 147.819170519774 0.00237495607915514 -142.311983324884 
                               0.614793731621957 -164.467692717001 0.614388926120273 15.468672719058  0.00237495607925804 -142.311983322973 0.494519222243804 41.7381490121932 
10.975                         0.0424559308537456 -67.878718817703 0.520486526567008 -17.0112819535393 0.591782039538282 150.913091029268 0.614072716335746 -167.037593498542 
                               0.520486526567137 -17.0112819535232 0.0384929512891228 -69.3299242363571 0.592500612676481 150.634097725003 0.613640946328463 12.8981437589496 
                               0.591782039538303 150.913091029275 0.592500612676481 150.634097724996 0.546561799318615 141.883521714666 0.00241962590884948 -146.542218077321 
                               0.614072716335671 -167.037593498562 0.613640946328481 12.8981437589669 0.00241962590898481 -146.542218075046 0.496340219775021 39.2094137836739 
11                             0.0378705904411896 -68.3522341538742 0.520490716348322 -19.1137076392324 0.592842291095558 147.073149478029 0.613345967682384 -169.605896306706 
                               0.520490716348502 -19.1137076392144 0.0338161531149411 -69.7744434800673 0.593562129431861 146.789529739016 0.612886649109709 10.3293787360153 
                               0.592842291095588 147.073149478037 0.593562129431855 146.789529739007 0.54425550556041 135.864385701203 0.00246408439723404 -150.792004481768 
                               0.613345967682295 -169.60589630673 0.612886649109733 10.3293787360358 0.00246408439740124 -150.792004479229 0.498167222294879 36.681243257412  
11.025                         0.0333473034352899 -67.9248066718739 0.52067328886992 -21.1992869099032 0.593710535743603 143.21201918276  0.612613356100952 -172.172659918848 
                               0.52067328887015 -21.1992869098843 0.029196567186006 -69.165586225145 0.594431498291281 142.923713376744 0.612126041347472 7.76232972981929 
                               0.593710535743641 143.212019182769 0.594431498291269 142.923713376734 0.542356260727138 129.763962762124 0.00250823695944001 -155.060897641651 
                               0.612613356100851 -172.172659918875 0.612126041347502 7.76232972984219 0.00250823695963531 -155.060897638978 0.500000261849287 34.1535921388147 
11.05                          0.028968026949233 -66.186319897799 0.521050284956822 -23.2691712097926 0.594370933922058 139.329901524935 0.611874745547391 -174.737942836624 
                               0.521050284957093 -23.2691712097741 0.0247248860716239 -66.9276928563551 0.595092879262124 139.036846526841 0.611359138106951 5.19694834742659 
                               0.594370933922104 139.329901524945 0.595092879262105 139.036846526831 0.540905093424511 123.585322258192 0.00255198407705124 -159.348364341481 
                               0.611874745547281 -174.737942836654 0.611359138106987 5.19694834745098 0.00255198407726703 -159.34836433883 0.501839366794165 31.626415092793  
11.075                         0.0248688179298596 -62.5166036186648 0.521637468578757 -25.3247376587011 0.594807613164261 135.427094223447 0.611129993859243 -177.30180322946 
                               0.521637468579053 -25.3247376586843 0.0205658498067665 -62.1056767638107 0.595530399550218 135.129223157112 0.610585962654368 2.63318558787881 
                               0.594807613164312 135.427094223456 0.595530399550194 135.129223157102 0.539942208849067 117.332440490035 0.00259522171852135 -163.653777917829 
                               0.611129993859133 -177.30180322949 0.610585962654409 2.6331855879033  0.00259522171874572 -163.653777915364 0.50368456137636 29.0996667291746 
11.1                           0.0212792485543331 -56.0527895329627 0.522450083416238 -27.3675903631964 0.595004807055529 131.503995317557 0.610378953242862 -179.864298872033 
                               0.522450083416536 -27.3675903631826 0.0170285275757663 -53.2496724439632 0.595728292565616 131.201237282958 0.609806546376146 0.0709916989191434 
                               0.595004807055581 131.503995317567 0.595728292565588 131.201237282948 0.539506195122895 111.010216072716 0.00263784186929241 -167.976413816455 
                               0.610378953242758 -179.864298872062 0.609806546376188 0.0709916989420157 0.00263784186950897 -167.976413814341 0.505535865286042 26.5733015867348 
11.125                         0.0185698738235716 -45.9297447061172 0.523502592452714 -29.3995562515358 0.594947006730226 127.561106387838 0.60962147089411 177.574512924281 
                               0.52350259245298 -29.399556251526 0.0146561448254903 -38.9914137993862 0.595671049465941 127.253386172834 0.609020928587881 -2.48968397377452 
                               0.594947006730272 127.561106387846 0.595671049465913 127.253386172826 0.539633173919554 104.624458490157 0.00267973317420504 -172.315445989146 
                               0.609621470894021 177.574512924256 0.609020928587919 -2.48968397375521 0.00267973317439294 -172.315445987531 0.507393293178288 24.0472741158032 
11.15                          0.01723313557555 -32.2814052734172 0.524808406312616 -31.4226748468821 0.594619123282035 123.599034878299 0.60885738976367 175.014575386051 
                               0.524808406312812 -31.4226748468766 0.0141294615880478 -20.6443862503303 0.595343581609215 123.286272653942 0.60822915622303 -5.04889314449578 
                               0.59461912328207 123.599034878305 0.595343581609193 123.286272653936 0.540355922625787 98.1818465836106 0.0027207816918602 -176.669944283602 
                               0.608857389763607 175.014575386034 0.608229156223058 -5.04889314448231 0.00272078169199459 -176.669944282597 0.509256854161362 21.5215386594133 
11.175                         0.0176458364313383 -17.5099843854203 0.526379607350062 -33.4391816039753 0.59400665893166 119.618495387885 0.608086549478134 172.455832358549 
                               0.52637960735014 -33.4391816039738 0.0156969380524121 -3.63968311989808 0.594731391757552 119.300606386347 0.607431283391284 -7.60668875211427 
                               0.594006658931674 119.618495387887 0.594731391757541 119.300606386345 0.541703001065662 91.6898553370799 0.00276087175720571 178.961127025871 
                               0.608086549478109 172.455832358542 0.607431283391295 -7.60668875210911 0.00276087175725866 178.961127026204 0.511126551249074 18.9960494329772 
11.2                           0.0197446007057035 -5.02505954624467 0.528226677588238 -35.4514847026523 0.593095884268252 115.620309809498 0.607308787428098 169.898228392625 
                               0.528226677588148 -35.4514847026534 0.0188847588879232 8.10240820356442 0.593820751344991 115.297203983744 0.606627370796772 -10.1631251308507 
                               0.593095884268234 115.620309809496 0.593820751344999 115.297203983747 0.543697919866451 85.1566513621153 0.00279988694486243 174.578909430655 
                               0.607308787428126 169.898228392633 0.606627370796755 -10.1631251308563 0.0027998869448043 174.578909430315 0.513002380774455 16.4707605024814 
11.225                         0.0231054194463176 3.63692929116536 0.530358239406787 -37.4621355051644 0.591874018381287 111.605406210109 0.606523940034421 167.341708837731 
                               0.530358239406477 -37.4621355051656 0.0230556717697012 14.8856557808037 0.592598880623097 111.27698787451  0.605817485006413 -12.718258186601 
                               0.591874018381226 111.605406210102 0.592598880623135 111.276987874519 0.546358389153762 78.5909597769414 0.00283771112170695 170.184648984933 
                               0.606523940034514 167.341708837757 0.605817485006359 -12.7182581866198 0.00283771112150843 170.184648983992 0.514884331761795 13.9456257612177 
11.25                          0.0272847530885679 8.87535292760182 0.532780818273262 -39.4737932240368 0.590329408257083 107.574816366428 0.605731844203754 164.786219941066 
                               0.532780818272688 -39.4737932240346 0.0277843870933667 18.2908828135964 0.591054128055516 107.240983817675 0.60500169755904 -15.2721455780965 
                               0.590329408256967 107.574816366414 0.591054128055593 107.24098381769  0.549695684921153 72.0019074704043 0.00287422957315594 165.779693614027 
                               0.605731844203925 164.786219941114 0.605001697558939 -15.2721455781305 0.00287422957279063 165.779693612633 0.516772385253981 11.4205989050803 
11.275                         0.0319725211152357 11.6201587642402 0.535498636734836 -41.4891846885208 0.588451703458869 103.529671896872 0.604932338984247 162.231708952868 
                               0.535498636733965 -41.4891846885109 0.0328359462571006 19.5543024337519 0.589176144977643 103.190317014692 0.604180083906219 -17.8248469020939 
                               0.588451703458687 103.529671896853 0.589176144977768 103.190317014715 0.553714165948191 65.3988497528884 0.00290933018365119 161.365488871259 
                               0.604932338984506 162.231708952941 0.60418008390606 -17.8248469021448 0.00290933018309875 161.365488869633 0.518666513591898 8.89563340648007 
11.3                           0.0369774720822142 12.6525705396218 0.538513448279391 -43.5110604123347 0.586232021870574 99.4711989616939 0.604125267432136 159.678124237836 
                               0.538513448278207 -43.5110604123123 0.038080298543599 19.4438997768105 0.586956051299327 99.126206789098  0.60335272217613 -20.3764238816909 
                               0.586232021870319 99.4711989616675 0.586956051299509 99.126206789129  0.558410966762672 58.791188849721  0.0029429046482481 156.943572117283 
                               0.60412526743249 159.678124237936 0.603352722175906 -20.3764238817594 0.00294290464749808 156.943572115701 0.520566679642521 6.37068248695015 
11.325                         0.0421822789342317 12.5102867055905 0.541824418533939 -45.5421484248591 0.583663102188666 95.4007115382396 0.60331047869959 157.125415392697 
                               0.541824418532451 -45.5421484248195 0.0434403651087285 18.4214540323521 0.584386587933336 95.0499598412833 0.602519691752321 -22.9269405567669 
                               0.583663102188333 95.400711538207  0.58438658793358 95.0499598413219 0.563775882479492 52.1881933791911 0.00297484968919549 152.51556513707  
                               0.60331047870004 157.125415392824 0.602519691752027 -22.9269405568525 0.00297484968825156 152.515565135843 0.522472835972191 3.84569908853714 
11.35                          0.0475117160429715 11.5463749735358 0.545428059632331 -47.5851075067675 0.5807394389142  91.319603316385  0.60248783035383 154.573533369939 
                               0.545428059630582 -47.5851075067073 0.0488663221594464 16.7706033754043 0.581462251700993 90.9629621236883 0.601681071659686 -25.4764634754533 
                               0.580739438913792 91.3196033163472 0.581462251701299 90.9629621237334 0.569791450344517 45.5988277781135 0.0030050682491855 148.083165254305 
                               0.602487830354367 154.573533370092 0.601681071659323 -25.4764634755542 0.00300506824807015 148.083165253731 0.524384923961438 1.3206358441005  
11.375                         0.0529144702591233 9.99332335355119 0.549318221539097 -49.6424815503188 0.577457395841716 87.2293382985829 0.601657190937047 152.022430607744 
                               0.54931822153717 -49.6424815502371 0.0543230589690982 14.6718805820841 0.578179408711893 86.8666694211841 0.60083693875063 -28.0250618854379 
                               0.577457395841245 87.2293382985416 0.578179408712254 86.8666694212339 0.576433221586054 39.0315996242721 0.003033470631749 143.648135048799 
                               0.601657190937653 152.022430607917 0.600836938750207 -28.0250618855501 0.00303347063050848 143.648135049116 0.526302872857585 -1.20455495333402 
11.4                           0.0583531944862421 8.00736234386132 0.553486141787828 -51.7166567344293 0.573815294465946 83.1314402281949 0.600818442776118 149.472061166192 
                               0.553486141785849 -51.716656734329 0.0597838557319657 12.2445759630087 0.57453638264003 82.7625967606274 0.599987365685033 -30.5728079238089 
                               0.573815294465438 83.1314402281528 0.574536382640426 82.7625967606789 0.583670206846286 32.4944311120232 0.00305997555922609 139.212290827893 
                               0.600818442776758 149.472061166376 0.599987365684572 -30.5728079239258 0.00305997555793551 139.212290829199 0.528226598761288 -3.72992138198836 
11.425                         0.063799028732247 5.69622177845332 0.557920552635282 -53.8098230661379 0.569813474323543 79.0274810069051 0.599971485050459 146.92238086983  
                               0.557920552633425 -53.8098230660276 0.0652270601044239 9.57035031959333 0.5705335149161  78.6523068107244 0.599132418698357 -33.1197768040484 
                               0.56981347432304 79.0274810068657 0.5705335149165  78.6523068107731 0.591465469971652 25.9945588097277 0.00308451111994533 134.777490045198 
                               0.599971485051083 146.922380870009 0.599132418697895 -33.1197768041605 0.00308451111871355 134.777490047367 0.530156003543031 -6.25551192330977 
11.45                          0.0692285124140753 3.13618994507617 0.562607842214131 -55.9239416048035 0.565454323035858 74.9190682952947 0.599116237125637 144.37334745675  
                               0.562607842212618 -55.9239416046997 0.0706342726183888 6.70693924204359 0.566173194605715 74.5373974666157 0.598272155153047 -35.666046998685 
                               0.565454323035424 74.9190682952625 0.566173194606067 74.5373974666561 0.599776838924601 19.5384635506175 0.00310701557871417 130.345617897505 
                               0.599116237126168 144.373347456904 0.598272155152642 -35.6660469987791 0.00310701557768844 130.345617900079 0.532090973685572 -8.78137549427205 
11.475                         0.0746218005004502 0.382689690215327 0.567532264052008 -58.0607183741807 0.560742274689801 70.8078325183339 0.598252642159513 141.824920734374 
                               0.567532264051102 -58.0607183741095 0.0759893267395774 3.69637099814092 0.561459856615314 70.4194888412553 0.597406620869205 -38.2117004160165 
                               0.560742274689525 70.8078325183144 0.561459856615543 70.4194888412801 0.608557699317852 13.1318301542406 0.00312743802839085 125.918573360987 
                               0.598252642159847 141.824920734471 0.597406620868942 -38.211700416075 0.0031274380277609 125.918573363048 0.534031379048232 -11.3075614797285 
11.5                           0.0799616106561285 -2.5230403992163 0.572676187456072 -60.2215856077154 0.555683776147379 66.6954135181437 0.597380670986805 139.277062742195 
                               0.572676187456073 -60.2215856077152 0.0812777051360777 0.570055303040554 0.556399947822062 66.3002099062308 0.596535847231495 -40.756822569217 
                               0.555683776147382 66.6954135181435 0.556399947822065 66.300209906231  0.617757835496391 6.7795348597059  0.00314573886502597 121.498254949397 
                               0.597380670986802 139.277062742195 0.596535847231491 -40.7568225692171 0.00314573886502721 121.498254949429 0.535977071548919 -13.8341197645099 
