! Generated from PyAEDT SolutionData; AEDT ExportNetworkData workaround
# GHz S MA R 50
9 0.340145116516 -5.17640282909 0.295627797174 -83.9816646958 0.616559392612 -22.5480556591 0.645569531987 45.6633137026 0.295627797174 -83.9816646958 0.340183014515 -4.92260539493 0.614928717182 -22.4790717166 0.647103079083 -134.260841618 0.616559392612 -22.5480556591 0.614928717182 -22.4790717166 0.491647229848 176.187665536 0.000435373668443 96.5008661672 0.645569531987 45.6633137026 0.647103079083 -134.260841618 0.000435373668444 96.5008661673 0.405582784226 -129.21900848
9.025 0.338472104413 -8.18162631353 0.295382224241 -87.5496128435 0.61795304713 -27.0955462479 0.645228044382 42.7862951855 0.295382224241 -87.5496128435 0.338523382975 -7.92485026422 0.61631807411 -27.0259498231 0.646762857441 -137.136918476 0.61795304713 -27.0955462479 0.61631807411 -27.0259498231 0.48815034726 170.446378049 0.0004341979692 92.086646859 0.645228044383 42.7862951855 0.646762857441 -137.136918476 0.000434197969484 92.0866468384 0.406666999411 -131.8727186
9.05 0.336855603226 -11.1755255286 0.295170235819 -91.098459168 0.619295462319 -31.6294207004 0.644883526493 39.9171640027 0.295170235819 -91.098459168 0.336919676773 -10.9158169349 0.61765644145 -31.5592040618 0.646419740736 -140.005129771 0.619295462319 -31.6294207004 0.61765644145 -31.5592040618 0.484748239227 164.716907272 0.000432978394438 87.7066303754 0.644883526494 39.9171640028 0.646419740736 -140.005129771 0.000432978394896 87.7066303392 0.407757327077 -134.521367437
9.075 0.335292751768 -14.1586855005 0.294992523457 -94.6287368951 0.620588561824 -36.1497658393 0.644535996182 37.0557761219 0.294992523456 -94.6287368951 0.335369051431 -13.8960936074 0.618945742954 -36.0789217327 0.646073703762 -142.865617801 0.620588561824 -36.1497658393 0.618945742954 -36.0789217327 0.481439586478 159.000231585 0.000431733140997 83.3619445095 0.644535996183 37.0557761219 0.646073703761 -142.865617801 0.000431733141539 83.3619444627 0.408853665006 -137.165052738
9.1 0.333780642066 -17.1316463394 0.294849585861 -98.1409963944 0.621834325051 -40.6566907614 0.644185469863 34.2019905353 0.294849585861 -98.1409963944 0.333868617161 -16.8662235582 0.620187957562 -40.5852124175 0.645724726435 -145.718522074 0.621834325051 -40.6566907614 0.620187957562 -40.5852124175 0.478222583256 153.297201332 0.000430480194965 79.0534369048 0.644185469863 34.2019905353 0.645724726434 -145.718522074 0.000430480195527 79.053436852 0.409955915899 -139.803870293
9.125 0.332316336634 -20.0949040406 0.294741740758 -101.635800758 0.623034773657 -45.1503242095 0.643831962525 31.3556692207 0.294741740758 -101.635800758 0.332415456042 -19.8267059477 0.621385105929 -45.0782053509 0.645372792896 -148.563979303 0.623034773657 -45.1503242095 0.621385105929 -45.0782053509 0.475094991209 147.608547598 0.000429237217119 74.7816888266 0.643831962526 31.3556692207 0.645372792896 -148.563979303 0.000429237217654 74.7816887721 0.411063987176 -142.437913985
9.15 0.33089688403 -23.0489113477 0.294669136438 -105.113721769 0.624191959246 -49.6308121799 0.64347548777 28.5166770955 0.294669136438 -105.113721769 0.331006637476 -22.7779966901 0.622539238174 -49.5580470272 0.645017890715 -151.402123418 0.624191959246 -49.6308121799 0.622539238174 -49.5580470272 0.47205419122 141.934891015 0.000428021456005 70.5470296048 0.643475487771 28.5166770956 0.645017890714 -151.402123418 0.00042802145648 70.5470295522 0.412177790794 -145.067275841
9.175 0.329519332884 -25.9940786671 0.294631762904 -108.575336237 0.625307952257 -54.0983157589 0.643116057839 25.6848819664 0.294631762904 -108.575336237 0.329639232134 -25.7205093716 0.623652422795 -54.0248990371 0.644660010182 -154.233085585 0.625307952257 -54.098315759 0.623652422794 -54.0248990371 0.469097232567 136.276750458 0.000426849686084 66.3495511793 0.643116057839 25.6848819664 0.644660010182 -154.233085585 0.000426849686482 66.3495511316 0.413297243064 -147.692046082
9.2 0.328180744619 -28.9307750252 0.294629462543 -112.021222694 0.626384831945 -58.553009182 0.642753683652 22.8601544732 0.294629462543 -112.021222694 0.328310324592 -28.6546162109 0.62472673669 -58.4789361257 0.644299143696 -157.056994237 0.626384831945 -58.5530091821 0.62472673669 -58.4789361256 0.466220878987 130.634551462 0.00042573816768 62.1891222742 0.642753683653 22.8601544732 0.644299143696 -157.056994237 0.000425738167993 62.1891222335 0.414422264466 -150.31231318
9.225 0.32687820501 -31.8593290609 0.294661940282 -115.451958411 0.627424677418 -62.9950781044 0.642388374853 20.0423680307 0.294661940282 -115.451958411 0.32701702482 -31.580649052 0.625764256225 -62.9203444625 0.643935285225 -159.873975103 0.627424677418 -62.9950781044 0.625764256225 -62.9203444625 0.463421651398 125.008634268 0.000424702625032 58.0654018366 0.642388374853 20.0423680307 0.643935285225 -159.873975103 0.00042470262526 58.0654018045 0.415552779483 -152.928163906
9.25 0.325608834746 -34.7800300477 0.294728773208 -118.868116739 0.628429559634 -67.4247180725 0.642020139841 17.2313987659 0.294728773208 -118.868116739 0.325756478667 -34.4989003877 0.626767049258 -67.3493201127 0.643568429845 -162.684151257 0.628429559634 -67.4247180725 0.626767049258 -67.3493201127 0.460695867136 119.399261377 0.000423758238595 53.9778514811 0.642020139841 17.2313987659 0.643568429845 -162.684151257 0.000423758238744 53.9778514583 0.416688716421 -155.539683386
9.275 0.324369799115 -37.6931289424 0.294829419629 -122.270264732 0.6294015343 -71.8421331833 0.64164898582 14.4271254542 0.294829419629 -122.270264732 0.324525877482 -37.4096244058 0.627737168059 -71.7660676955 0.643198573346 -165.487643158 0.6294015343 -71.8421331833 0.627737168059 -71.7660676955 0.458039675715 113.806624566 0.000422919647701 49.9257467894 0.64164898582 14.4271254543 0.643198573346 -165.487643158 0.000422919647782 49.925746776 0.417830007251 -158.146955151
9.3 0.323158316922 -40.5988394552 0.294963227592 -125.658961045 0.630342635578 -76.2475349188 0.641274918835 11.6294294533 0.294963227592 -125.658961045 0.323322466957 -40.3130380582 0.628676643044 -76.1707992176 0.642825711895 -168.284568706 0.630342635578 -76.2475349188 0.628676643044 -76.1707992176 0.455449091184 108.230851309 0.000422200959847 45.9081874185 0.641274918835 11.6294294533 0.642825711895 -168.284568706 0.000422200959873 45.9081874141 0.418976587442 -160.750061188
9.325 0.321971668721 -43.4973391403 0.295129442861 -129.034754076 0.631254870546 -80.6411411402 0.640897943815 8.83819463532 0.295129442861 -129.034754076 0.322143555295 -43.2093221476 0.629587477246 -80.5637330668 0.642449841767 -171.075043292 0.631254870546 -80.6411411402 0.629587477246 -80.5637330668 0.452920021234 102.67201057 0.000421615763175 41.9241060653 0.640897943815 8.83819463532 0.642449841767 -171.075043292 0.000421615763159 41.9241060689 0.420128395805 -163.349081998
9.35 0.320807204458 -46.3887705036 0.295327216374 -132.398180346 0.632140214314 -85.0231752297 0.640518064611 6.0533073196 0.295327216374 -132.398180346 0.320986520784 -46.0986224322 0.630471641456 -84.9450931526 0.642070959112 -173.859179857 0.632140214314 -85.0231752297 0.630471641456 -84.9450931526 0.450448293252 97.1301179759 0.000421177139042 37.9722764216 0.640518064611 6.0533073196 0.642070959112 -173.859179857 0.000421177138997 37.972276432 0.421285374337 -165.944096638
9.375 0.319662350567 -49.2732421269 0.29555561121 -135.749763088 0.63300060575 -89.393865364 0.640135284034 3.27465620374 0.29555561121 -135.749763088 0.319848818826 -48.9810507442 0.631331069956 -89.3151081791 0.641689059778 -176.637088953 0.63300060575 -89.393865364 0.631331069956 -89.3151081791 0.448029677562 91.6051403625 0.000420897672062 34.0513203303 0.640135284034 3.27465620373 0.641689059778 -176.637088953 0.000420897672 34.051320346 0.422447468072 -168.535182775
9.4 0.318534616587 -52.1508298055 0.295813609093 -139.090011024 0.633837943734 -93.7534439068 0.639749603891 0.502132295474 0.295813609093 -139.090011024 0.318727988477 -51.8566861229 0.632167656789 -93.6740110355 0.641304139167 -179.408878801 0.633837943734 -93.7534439068 0.632167656789 -93.6740110355 0.44565990809 86.0969997177 0.000420789455463 30.159714408 0.639749603891 0.502132295467 0.641304139167 -179.408878801 0.000420789455395 30.1597144274 0.423614624937 -171.122416736
9.425 0.317421601333 -55.0215776992 0.296100116467 -142.419417328 0.634654083891 -98.1021469058 0.639361025019 -2.26437115527 0.296100116467 -142.419417327 0.317621658552 -54.7255759595 0.632983252498 -98.0220382929 0.640916192137 177.825344644 0.634654083891 -98.1021469058 0.632983252498 -98.0220382929 0.443334700719 80.6055765559 0.00042086409016 26.2957964511 0.639361025019 -2.26437115528 0.640916192137 177.825344644 0.000420864090093 26.2957964725 0.424786795605 -173.705873553
9.45 0.316320998658 -57.8854994947 0.296413970167 -145.73845874 0.635450835738 -102.440213682 0.638969547317 -5.0249587237 0.296413970167 -145.73845874 0.31652755331 -57.5877371525 0.633779661283 -102.359429792 0.640525212923 175.065477634 0.635450835738 -102.440213682 0.633779661283 -102.359429792 0.441049769587 75.1307127595 0.000421132676458 22.4577719611 0.638969547316 -5.0249587237 0.640525212923 175.065477634 0.000421132676398 22.4577719829 0.425963933362 -176.285627011
9.475 0.315230602841 -60.7425795772 0.296753942735 -149.047594835 0.636229960192 -106.7678865 0.638575169775 -7.77973287654 0.296753942735 -149.047594835 0.315443497762 -60.4431572727 0.634558638519 -106.68642831 0.640131195095 172.311418561 0.636229960192 -106.7678865 0.634558638519 -106.68642831 0.438800841563 69.6722139344 0.000421605797895 18.6437211364 0.638575169775 -7.77973287655 0.640131195095 172.311418561 0.000421605797846 18.6437211572 0.427145993965 -178.861749695
9.5 0.314148313604 -63.5927742112 0.297118747401 -152.347267416 0.636993167408 -111.085410303 0.638177890503 -10.5287940373 0.297118747401 -152.347267416 0.314367422613 -63.2917957363 0.635321888593 -111.003279299 0.639734131537 169.5630679 0.636993167408 -111.085410303 0.635321888593 -111.003279299 0.436583669127 64.2298513293 0.000422293497234 14.8516066627 0.638177890503 -10.5287940373 0.639734131537 169.5630679 0.000422293497196 14.8516066813 0.42833293552 178.56568697
9.525 0.313072140805 -66.4360127278 0.297507042774 -155.63790003 0.637742114883 -115.393032511 0.637777706756 -13.2722406504 0.297507042774 -155.63790003 0.313297368873 -66.1335849841 0.636071063022 -115.310230679 0.63933401444 166.820328139 0.637742114883 -115.393032511 0.636071063022 -115.310230679 0.434394041873 58.8033633689 0.000423205245146 11.079282597 0.637777706756 -13.2722406504 0.63933401444 166.820328139 0.00042320524512 11.0792826125 0.429524718347 175.996612671
9.55 0.312000208789 -69.272198717 0.297917437263 -158.919897586 0.638478405812 -119.691002864 0.637374614952 -16.0101692435 0.297917437263 -158.919897586 0.312231492123 -68.9684316661 0.636807758804 -119.607532676 0.638930835326 164.083103727 0.638478405812 -119.691002864 0.636807758804 -119.607532676 0.432227796804 53.3924568558 0.000424349902604 7.32450458817 0.637374614952 -16.0101692435 0.638930835326 164.083103727 0.000424349902589 7.32450460006 0.430721304862 173.430958169
9.575 0.310930760443 -72.1012112249 0.298348493269 -162.193646073 0.639203587641 -123.979573301 0.636968610702 -18.7426744886 0.298348493269 -162.193646073 0.311168066484 -71.7962178296 0.637533516982 -123.89543771 0.638524585068 161.351301004 0.639203587641 -123.979573301 0.637533516982 -123.89543771 0.430080827608 47.9968078883 0.000425735678382 3.58494160212 0.636968610702 -18.7426744886 0.638524585069 161.351301004 0.000425735678374 3.58494161002 0.431922659453 170.868655258
9.6 0.309862160933 -74.9229059527 0.298798731166 -165.459512361 0.639919150806 -128.258997876 0.636559688821 -21.4698492618 0.298798731166 -165.459512361 0.310105488274 -74.6168021094 0.638249821383 -128.174200299 0.638115253938 158.624828148 0.639919150806 -128.258997876 0.638249821383 -128.174200299 0.427949093036 42.6160625475 0.00042737008341 -0.141810769304 0.636559688821 -21.4698492618 0.638115253938 158.624828148 0.000427370083407 -0.141810765427 0.433128748364 168.309636723
9.625 0.308792901171 -77.737116457 0.299266633109 -168.717844074 0.640626527625 -132.5295327 0.636147843349 -24.1917847003 0.299266633109 -168.717844074 0.309042279378 -77.4300209198 0.63895809751 -132.444077001 0.637702831647 155.903595115 0.640626527625 -132.5295327 0.63895809751 -132.444077001 0.425828624527 37.2498373944 0.000429259883964 -3.85821543292 0.636147843349 -24.1917847003 0.637702831647 155.903595115 0.000429259883963 -3.85821543284 0.434339539586 165.753836309
9.65 0.307721600992 -80.5436553508 0.299750646677 -171.968969532 0.641327091313 -136.791435888 0.635733067566 -26.9085702589 0.299750646677 -171.968969532 0.307977090342 -80.2356896466 0.639659711568 -136.705326369 0.637287307411 153.187513582 0.641327091313 -136.791435888 0.639659711568 -136.705326369 0.423715533178 31.8977198229 0.000431411055775 -7.56677747403 0.635733067566 -26.9085702589 0.637287307411 153.187513582 0.000431411055774 -7.56677747731 0.435555002742 163.201188676
9.675 0.306647012069 -83.3423155047 0.300249188383 -175.21319775 0.642022155125 -141.044967539 0.635315354006 -29.6202937641 0.300249188383 -175.21319775 0.306908703199 -83.0336038381 0.640355969603 -140.958208912 0.63686867 150.476496888 0.642022155125 -141.044967539 0.640355969603 -140.958208912 0.421606016161 26.5592683022 0.000433828741186 -11.2700266131 0.635315354006 -29.6202937641 0.63686867 150.476496888 0.000433828741182 -11.2700266191 0.436775108985 160.65162937
9.7 0.305568020578 -86.1328712467 0.300760647077 -178.450818489 0.642712971583 -145.290389707 0.634894694472 -32.3270414665 0.300760647077 -178.450818489 0.305836034045 -85.8235403973 0.641048116733 -145.202987082 0.636446907806 147.770459988 0.642712971583 -145.290389707 0.641048116733 -145.202987082 0.419496362657 21.2340125423 0.000436517211351 -14.970498752 0.634894694472 -32.3270414665 0.636446907806 147.770459988 0.000436517211342 -14.9704987601 0.437999830893 158.105094789
9.725 0.304483649632 -88.9150795633 0.30128338723 178.317897658 0.643400731787 -149.527966391 0.634471080047 -35.028898091 0.30128338723 178.317897658 0.30475813538 -88.6052587731 0.641737336463 -149.439925247 0.636022008904 145.069319393 0.643400731787 -149.527966391 0.641737336463 -149.439925247 0.417382959383 15.921453609 0.000439479835292 -18.6707169999 0.634471080047 -35.028898091 0.636022008904 145.069319393 0.000439479835278 -18.6707170094 0.439229142371 155.561522148
9.75 0.303393061482 -91.6886813008 0.301815752154 175.092699134 0.644086564805 -153.757963515 0.634044501103 -37.7259468867 0.301815752154 175.092699134 0.303674198227 -91.378502153 0.642424750079 -153.66928968 0.635593961116 142.372993122 0.644086564805 -153.757963515 0.642424750079 -153.66928968 0.415262295771 10.6210640088 0.000442719057305 -22.3731726211 0.634044501103 -37.7259468867 0.635593961115 142.372993122 0.000442719057286 -22.3731726311 0.440463018554 153.02084945
9.775 0.302295559526 -94.453402371 0.302356067133 171.873353263 0.644771537112 -157.980648924 0.63361494732 -40.418269673 0.302356067133 171.873353263 0.302583554056 -94.1429986597 0.643111416087 -157.891348548 0.635162752067 139.681400653 0.644771537112 -157.980648924 0.643111416087 -157.891348548 0.413130968845 5.33228776075 0.000446236383828 -26.0803063789 0.63361494732 -40.418269673 0.635162752067 139.681400653 0.000446236383805 -26.0803063888 0.441701435714 150.483015453
9.8 0.301190590131 -97.2089549623 0.302902642507 168.659646071 0.645456652088 -162.196292364 0.633182407688 -43.105946886 0.302902642507 168.659646071 0.301485676513 -96.8984625532 0.643798329717 -162.106371889 0.634728369252 136.994462872 0.645456652088 -162.196292364 0.643798329717 -162.106371889 0.410985687855 0.0545404664467 0.00045003238046 -29.7944907517 0.633182407688 -43.105946886 0.634728369252 136.994462872 0.000450032380434 -29.794490761 0.442944371172 147.947959646
9.825 0.300077744281 -99.9550387602 0.303453776695 165.451382085 0.646142849558 -166.405165471 0.632746870527 -45.7890576222 0.303453776695 165.451382085 0.300380182996 -99.6445954433 0.644486422469 -166.314631603 0.634290800079 134.312102031 0.646142849558 -166.405165471 0.644486422469 -166.314631603 0.408823278707 -5.21279061656 0.000454106679363 -33.5180134705 0.632746870527 -45.7890576222 0.634290800079 134.312102031 0.000454106679336 -33.5180134788 0.444191803208 145.415622217
9.85 0.298956759091 -102.691342184 0.30400775918 162.248384127 0.646831005369 -170.607541753 0.632308323494 -48.4676796807 0.30400775918 162.248384127 0.299266836078 -102.381087517 0.645176561687 -170.51640143 0.63385003193 131.634241696 0.646831005369 -170.607541753 0.645176561687 -170.51640143 0.406640688228 -10.4703464946 0.000458457996829 -37.2530627806 0.632308323494 -48.4676796807 0.63385003193 131.634241696 0.000458457996803 -37.2530627873 0.445443710981 142.88594403
9.875 0.297827519177 -105.417543644 0.304562873464 159.050493092 0.647521931002 -174.803696575 0.631866753598 -51.1418896044 0.304562873464 159.050493092 0.298145544815 -105.107618788 0.645869550183 -174.711956931 0.633406052201 128.960806711 0.647521931002 -174.803696575 0.645869550183 -174.711956931 0.404434988321 -15.7187963534 0.000463084160383 -41.0017147559 0.631866753598 -51.1418896044 0.633406052201 128.960806711 0.00046308416036 -41.001714761 0.446700074445 140.358866598
9.9 0.29669005793 -108.133312827 0.305117399989 155.85756773 0.648216373206 -178.993907137 0.631422147214 -53.8117627198 0.305117399989 155.85756773 0.297016365933 -107.823860371 0.646566125869 -178.901575466 0.632958848345 126.291723146 0.648216373206 -178.993907137 0.646566125869 -178.901575466 0.40220338004 -20.9588374749 0.00046798214444 -44.7659229147 0.631422147214 -53.8117627198 0.632958848345 126.291723146 0.000467982144422 -44.7659229181 0.447960874274 137.834332056
9.925 0.295544558681 -110.838312018 0.305669619043 152.669484429 0.648915013658 176.821547545 0.630974490095 -56.4773731746 0.305669619043 152.669484429 0.295879504929 -110.529475801 0.64726696143 176.914463823 0.632508407907 123.626918264 0.648915013658 176.821547545 0.64726696143 176.914463823 0.399943197635 -26.1911951623 0.000473148113245 -48.5475102851 0.630974490095 -56.4773731746 0.632508407907 123.626918264 0.000473148113234 -48.5475102869 0.449226091785 135.312283143
9.95 0.294391355792 -113.532197474 0.306217813653 149.486137001 0.649618468643 172.642386652 0.630523767394 -59.1387939753 0.306217813653 149.486137001 0.2947353171 -113.224122388 0.647972664002 172.735880038 0.632054718556 120.966320474 0.649618468643 172.642386652 0.647972664002 172.735880038 0.397651912623 -31.4166226861 0.000478577469646 -52.348163979 0.630523767394 -59.1387939753 0.632054718556 120.966320474 0.000478577469643 -52.3481639793 0.450495708865 132.792663178
9.975 0.29323093567 -116.214620849 0.306760272474 146.307436489 0.650327288751 168.468327586 0.630069963679 -61.796097023 0.306760272474 146.307436489 0.293584308486 -115.907452646 0.648683774878 168.56239054 0.631597768106 118.309859294 0.650327288751 168.468327586 0.648683774878 168.56239054 0.395327137912 -36.6359012606 0.000484264908133 -56.1694322372 0.630069963679 -61.796097023 0.631597768106 118.309859294 0.000484264908137 -56.1694322362 0.451769707905 130.275416035
10 0.292063937707 -118.885230698 0.30729529268 143.133310978 0.651041958578 164.299085976 0.629613062955 -64.4493531479 0.30729529268 143.133310978 0.292427136769 -118.579115774 0.649400769217 164.393710963 0.631137544539 115.657465311 0.651041958578 164.299085976 0.649400769217 164.393710963 0.392966632054 -41.8498400669 0.000490204470568 -60.012723831 0.629613062955 -64.4493531479 0.631137544539 115.657465311 0.000490204470581 -60.0127238289 0.453048071728 127.760486127
10.025 0.290891155161 -121.543674062 0.307821182871 139.963705436 0.651762896445 160.134375688 0.629153048686 -67.0986321438 0.307821182871 139.963705436 0.29126461209 -121.238759239 0.650124055767 160.229555225 0.63067403602 113.009070143 0.651762896445 160.134375688 0.650124055767 160.229555225 0.390568303669 -47.0592763362 0.000496389603119 -63.8793096343 0.629153048686 -67.0986321438 0.63067403602 113.009070143 0.000496389603139 -63.8793096315 0.454330783527 125.247818384
10.05 0.289713535951 -124.189598153 0.308336266 136.798581575 0.652490454121 155.973908824 0.628689903819 -69.7440028003 0.308336266 136.798581575 0.290097697805 -123.886030452 0.650853976595 156.069635528 0.630207230902 110.364606405 0.652490454121 155.973908824 0.650853976595 156.069635528 0.388130216089 -52.2650755073 0.000502813213002 -67.7703261306 0.628689903819 -69.7440028003 0.630207230902 110.364606405 0.000502813213029 -67.7703261274 0.455617826803 122.737358235
10.075 0.288532183366 -126.82265216 0.308838882344 133.637917739 0.65322491655 151.817395713 0.628223610817 -72.3855329356 0.308838882344 133.637917739 0.288927511157 -126.520578552 0.651590806824 151.913662353 0.629737117735 107.724007666 0.65322491655 151.817395713 0.651590806824 151.913662353 0.385650592316 -57.468131473 0.000509467723881 -71.686780584 0.628223610817 -72.3855329356 0.629737117735 107.724007666 0.000509467723912 -71.6867805806 0.456909185303 120.22905159
10.1 0.287348356658 -129.442489182 0.309327392521 130.481708831 0.653966501574 147.664544892 0.627754151683 -75.0232894277 0.309327392521 130.481708831 0.287755323834 -129.142056335 0.652334754361 147.761344443 0.629263685266 105.08720842 0.653966501574 147.664544892 0.652334754361 147.761344443 0.383127820312 -62.6693669297 0.000516345128934 -75.629557585 0.627754151683 -75.0232894277 0.629263685266 105.08720842 0.000516345128968 -75.6295575816 0.458204842962 117.722844822
10.125 0.286163471494 -132.048768315 0.30980018058 127.329966268 0.654715359665 143.515063077 0.627281508 -77.6573382454 0.30980018058 127.329966268 0.286582562403 -131.750122324 0.65308595964 143.612388775 0.628786922432 102.454144044 0.654715359665 143.515063077 0.65308595964 143.612388775 0.380560458733 -67.8697338411 0.000523437040894 -79.5994266818 0.627281508 -77.6573382454 0.628786922432 102.454144044 0.00052343704093 -79.5994266786 0.459504783849 115.218684752
10.15 0.284979100228 -134.641156911 0.31025565718 124.182717982 0.655471573645 139.368655115 0.626805660965 -80.2877444785 0.31025565718 124.182717982 0.285410808559 -134.344443004 0.653844495347 139.466500514 0.628306818356 99.8247507708 0.655471573645 139.368655115 0.653844495347 139.466500514 0.377947243154 -73.0702140278 0.000530734738563 -83.5970508155 0.626805660965 -80.2877444785 0.628306818356 99.8247507708 0.000530734738599 -83.5970508126 0.460808992109 112.716518629
10.175 0.283796971931 -137.219333011 0.310692262884 121.040008461 0.656235158401 135.225023925 0.626326591428 -82.9145723678 0.310692262884 121.040008461 0.284241799155 -136.924695249 0.654610366151 135.323382961 0.627823362336 97.1989656474 0.656235158401 135.225023925 0.654610366151 135.323382961 0.375287092857 -78.2718198894 0.000538229209548 -87.6229953024 0.626326591428 -82.9145723678 0.627823362336 97.1989656474 0.000538229209581 -87.6229953 0.462117451915 110.216294122
10.2 0.282618972139 -139.782987991 0.311108471588 117.901898842 0.657006060601 131.083870423 0.625844279941 -85.5378853345 0.311108471588 117.901898842 0.283077425952 -139.490568934 0.655383508419 131.182737473 0.627336543831 94.5767265058 0.657006060601 131.083870423 0.655383508419 131.182737473 0.372579118283 -83.4755952667 0.000545911189171 -91.6777371325 0.625844279941 -85.5378853345 0.627336543831 94.5767265058 0.0005459111892 -91.6777371305 0.463430147412 107.717959296
10.225 0.281447142232 -142.331829425 0.311502794129 114.768467047 0.657784158386 126.944893421 0.6253587068 -88.1577460095 0.311502794129 114.768467047 0.281919735011 -142.041769777 0.656163789928 127.044263373 0.626846352442 91.9579719285 0.657784158386 126.944893421 0.656163789928 127.044263373 0.369822629206 -88.6826164445 0.000553771195677 -95.7616743891 0.6253587068 -88.1577460095 0.626846352442 91.9579719285 0.000553771195701 -95.7616743875 0.464747062671 105.221462606
10.25 0.280283678374 -144.865584168 0.311873782087 111.639807979 0.658569261065 122.807789521 0.624869852101 -90.7742162624 0.311873782087 111.639807979 0.280770925657 -144.578022402 0.656951009567 122.907657838 0.626352777899 89.3426412158 0.658569261065 122.807789521 0.656951009567 122.907657838 0.367017143728 -93.8939932939 0.000561799561981 -99.8751356289 0.624869852101 -90.7742162624 0.626352777899 89.3426412158 0.000561799561999 -99.8751356278 0.466068181639 102.72675288
10.275 0.279130929919 -147.384001706 0.312220031842 108.516033767 0.65936110879 118.672252969 0.624377695792 -93.3873572302 0.312220031842 108.516033767 0.279633348929 -147.099073644 0.657744897019 118.772615762 0.625855810032 86.730674354 0.65936110879 118.672252969 0.657744897019 118.772615762 0.364162398178 -99.1108705497 0.000569986464332 -104.0183891 0.624377695792 -93.3873572302 0.625855810032 86.730674354 0.000569986464345 -104.018389099 0.467393488092 100.233779303
10.3 0.277991397184 -149.886857736 0.312540188908 105.397274081 0.660159372217 114.537975501 0.623882217734 -95.9972293465 0.312540188908 105.397274081 0.278509505403 -149.604696101 0.658545112438 114.638829605 0.625355438756 84.1220119832 0.660159372217 114.537975501 0.658545112438 114.638829605 0.361258358014 -104.334429211 0.0005783219483 -108.191651703 0.623882217734 -95.9972293465 0.625355438756 84.1220119832 0.000578321948307 -108.191651702 0.468722965589 97.7424914109
10.325 0.276867728479 -152.373958023 0.312832952608 102.283676493 0.660963652154 110.404646161 0.623383397764 -98.6038923699 0.312832952608 102.283676493 0.277402042293 -152.094691956 0.659351246106 110.505989208 0.62485165404 81.5165953669 0.660963652154 110.404646161 0.659351246106 110.505989208 0.358305229811 -109.565888048 0.000586795952536 -112.395097644 0.623383397764 -98.6038923699 0.62485165404 81.5165953669 0.000586795952538 -112.395097644 0.470056597426 95.2528390721
10.35 0.275762716282 -154.845142514 0.313097081136 99.1754069104 0.661773479196 106.27195109 0.622881215761 -101.207405413 0.313097081136 99.1754069104 0.276313749707 -154.568897033 0.660162818083 106.373781589 0.624344445881 78.9143663613 0.661773479196 106.27195109 0.660162818083 106.373781589 0.355303474449 -114.806505199 0.000595398330765 -116.628866735 0.622881215761 -101.207405413 0.624344445881 78.9143663613 0.000595398330763 -116.628866735 0.471394366591 92.7647724789
10.375 0.274679292421 -157.300289709 0.313331397057 96.0726500721 0.66258831334 102.139573288 0.622375651722 -103.807826973 0.313331397057 96.0726500721 0.275247555937 -157.027185132 0.660979277829 102.241890712 0.623833804274 76.3152673853 0.66258831334 102.139573288 0.660979277829 102.241890712 0.352253821581 -120.057579821 0.000604118872437 -120.893072343 0.622375651722 -103.807826973 0.623833804274 76.3152673853 0.000604118872431 -120.893072343 0.472736255717 90.2782421352
10.4 0.273620522153 -159.739321289 0.313534793332 92.9756101049 0.663407543587 98.0071923549 0.621866685831 -106.405214958 0.313534793332 92.9756101049 0.274206521655 -159.469472596 0.661800003824 98.1099972233 0.62331971918 73.7192413922 0.663407543587 98.0071923549 0.661800003824 98.1099972233 0.349157285504 -125.320453761 0.000612947322422 -125.187808987 0.621866685831 -106.405214958 0.62331971918 73.7192413922 0.000612947322414 -125.187808987 0.47408224704 87.7931988451
10.425 0.272589596976 -162.162206975 0.313706239908 89.8845111482 0.66423048753 93.8744841892 0.621354298543 -108.999626719 0.313706239908 89.8845111482 0.273193832874 -161.895723112 0.662624303166 93.97777816 0.622802180489 71.1262318403 0.66423048753 93.8744841892 0.662624303166 93.97777816 0.346015182516 -130.596513205 0.0006218734001 -129.513159609 0.621354298543 -108.999626719 0.622802180489 71.1262318403 0.000621873400091 -129.513159609 0.475432322354 85.3095937025
10.45 0.271589826064 -164.56896961 0.313844790976 86.7995980422 0.665056390925 89.7411206607 0.620838470671 -111.59111908 0.313844790976 86.7995980422 0.272212792545 -164.305952729 0.663451411153 89.8449066234 0.622281177984 68.5361826662 0.665056390925 89.7411206607 0.663451411153 89.8449066234 0.342829149869 -135.887190243 0.000630886818137 -133.869202546 0.620838470671 -111.59111908 0.622281177984 68.5361826662 0.000630886818129 -133.869202546 0.47678646296 82.8273780803
10.475 0.270624626164 -166.95969042 0.31394959296 83.7211370795 0.665884427246 85.6067692442 0.62031918347 -114.179748368 0.31394959296 83.7211370795 0.271266810644 -166.70023505 0.664280490859 85.7110514178 0.6217567013 65.9490382575 0.665884427246 85.6067692442 0.664280490859 85.7110514178 0.339601166412 -141.193964295 0.000639977301189 -138.256018243 0.62031918347 -114.179748368 0.6217567013 65.9490382575 0.000639977301183 -138.256018243 0.478144649628 80.34650362
10.5 0.269697509823 -169.334514437 0.314019893348 80.6494168173 0.666713697237 81.4710926141 0.61979641873 -116.765570445 0.314019893348 80.6494168173 0.270359392609 -169.078706582 0.66511063269 81.5758766489 0.621228739876 63.364743427 0.666713697237 81.4710926141 0.66511063269 81.5758766489 0.336333575017 -146.518363304 0.000649134604754 -142.673695742 0.61979641873 -116.765570445 0.621228739876 63.364743427 0.00064913460475 -142.673695742 0.479506862542 77.8669222216
10.525 0.268812071803 -171.693656019 0.31405505044 77.5847489488 0.667543228438 77.3337481949 0.619270158881 -119.348640739 0.31405505044 77.5847489488 0.269494126002 -171.441572175 0.66594085393 77.4390412794 0.620697282905 60.7832433876 0.667543228438 77.3337481949 0.66594085393 77.4390412794 0.333029106876 -151.861964617 0.000658348534349 -147.122338995 0.619270158881 -119.348640739 0.620697282905 60.7832433876 0.000658348534347 -147.122338995 0.480873081253 75.3885860336
10.55 0.26797197356 -174.03740443 0.31405454415 74.5274692279 0.668371974712 73.1943876643 0.618740387083 -121.929014276 0.31405454415 74.5274692279 0.268674665243 -173.789110529 0.666770098278 73.3001986366 0.620162319286 58.2044837278 0.668371974712 73.1943876643 0.666770098278 73.3001986366 0.329690907729 -157.226395438 0.000667608965222 -151.602073031 0.618740387083 -121.929014276 0.620162319286 58.2044837278 0.000667608965223 -151.602073031 0.482243284631 72.9114474433
10.575 0.267180925648 -176.366129417 0.314017987949 71.4779384425 0.669198815751 69.052656402 0.618207087345 -124.506745719 0.314017987949 71.4779384425 0.267904714313 -176.121679677 0.667597235371 69.1589958666 0.619623837565 55.6284103886 0.669198815751 69.052656402 0.667597235371 69.1589958666 0.326322566102 -162.613332722 0.000676905862814 -156.113050026 0.618207087345 -124.506745719 0.619623837565 55.6284103886 0.000676905862817 -156.113050026 0.483617450806 70.4354590672
10.6 0.266442667927 -178.680286712 0.313945142109 68.436543429 0.670022556578 64.9081928783 0.617670244625 -127.081889395 0.313945142109 68.436543429 0.267188007284 -178.439722403 0.668421060295 65.0150733288 0.619081825871 53.0549696402 0.670022556578 64.9081928783 0.668421060295 65.0150733288 0.322928143566 -168.02450237 0.000686229304237 -160.655455304 0.617670244625 -127.081889395 0.619081825871 53.0549696402 0.000686229304241 -160.655455304 0.484995557119 67.9605737408
10.625 0.26576094748 179.019576617 0.313835928368 65.4036981187 0.670841927033 60.7606279742 0.617129844951 -129.654499336 0.313835928368 65.4036981187 0.266528286577 179.256228487 0.669240293084 60.8680639218 0.618536271858 50.4841080613 0.670841927033 60.7606279742 0.669240293084 60.8680639218 0.319512207055 -173.461677549 0.000695569501153 -165.229513309 0.617129844951 -129.654499336 0.618536271858 50.4841080613 0.000695569501158 -165.229513309 0.486377580056 65.4867445095
10.65 0.265139494119 176.73281703 0.313690446181 62.379844604 0.671655581238 56.6095842247 0.616585875538 -132.224629318 0.313690446181 62.379844604 0.26592927885 176.965545124 0.670053578202 56.7175923339 0.617987162635 47.9157725173 0.671655581238 56.6095842247 0.670053578202 56.7175923339 0.316079863194 -178.926675946 0.000704916824528 -169.835493578 0.616585875538 -132.224629318 0.617987162635 47.9157725173 0.000704916824534 -169.835493578 0.487763495188 63.0139246189
10.675 0.264581993403 174.458689694 0.313508990738 59.3654542116 0.672462097045 52.4546749731 0.616038324914 -134.792332893 0.313508990738 59.3654542116 0.265394668413 174.687499841 0.670859483999 52.5632742048 0.617434484703 45.3499101406 0.672462097045 52.4546749731 0.670859483999 52.5632742048 0.312636794596 175.57864428 0.000714261831903 -174.473716753 0.616038324914 -134.792332893 0.617434484703 45.3499101406 0.000714261831907 -174.473716753 0.489153277104 60.5420675048
10.7 0.264092057081 172.196344056 0.313292072929 56.3610285629 0.673259975454 48.2955034249 0.615487183044 -137.357663439 0.313292072929 56.3610285629 0.264928068104 172.421260823 0.671656502134 48.4047151877 0.616878223889 42.7864683116 0.673259975454 48.2955034249 0.671656502134 48.4047151877 0.309189298005 170.052390081 0.000723595297996 -179.144560665 0.615487183044 -137.357663439 0.616878223889 42.7864683116 0.000723595297998 -179.144560665 0.490546899339 58.0711267837
10.725 0.263673190905 169.944819888 0.313040441481 53.3671006016 0.674047639978 44.1316615864 0.614932441462 -139.920674194 0.313040441481 53.3671006016 0.264532987548 170.165888238 0.672443046961 44.2415098964 0.616318365281 40.2253946404 0.674047639978 44.1316615864 0.672443046961 44.2415098964 0.305744324102 164.492640944 0.000732908249689 176.151533466 0.614932441462 -139.920674194 0.616318365281 40.2253946404 0.00073290824969 176.151533466 0.491944334291 55.6010562428
10.75 0.263328759736 167.703043889 0.312755107505 50.3842355603 0.674823435959 39.9627290694 0.614374093411 -142.481418307 0.312755107505 50.3842355603 0.264212798747 167.920330911 0.673217454838 40.0732407208 0.615754893167 37.66663695 0.674823435959 39.9627290694 0.673217454838 40.0732407208 0.302309518751 158.897458456 0.000742192006665 171.414054679 0.614374093411 -142.481418307 0.615754893167 37.66663695 0.000742192006664 171.414054679 0.493345553144 53.1318098298
10.775 0.263061949915 165.469826917 0.312437371731 47.4130318349 0.675585629786 35.788271744 0.613812133976 -145.039948883 0.312437371731 47.4130318349 0.26397069894 165.683423628 0.673977983365 35.8994764901 0.615187790992 35.1101432601 0.675585629786 35.788271744 0.673977983365 35.8994764901 0.298893265336 153.264898361 0.000751438229221 166.642415696 0.613812133976 -145.039948883 0.615187790992 35.1101432601 0.000751438229219 166.642415696 0.494750525771 50.6633416428
10.8 0.26287572883 163.243861914 0.312088854736 44.4541217256 0.676332408005 31.6078402159 0.613246560231 -147.596319033 0.312088854736 44.4541217256 0.263809670691 163.453885126 0.674722810485 31.7197709626 0.614617041307 32.5558617728 0.676332408005 31.6078402159 0.674722810485 31.7197709626 0.295504727764 147.593025499 0.000760638975109 161.835946083 0.613246560231 -147.596319033 0.614617041307 32.5558617728 0.000760638975107 161.835946083 0.496159220635 48.1956059194
10.825 0.262772801654 161.023722571 0.311711530508 41.5081719959 0.677061876258 27.4209681003 0.612677371383 -150.150581928 0.311711530508 41.5081719959 0.263732439151 161.230316811 0.675450033431 27.5336611137 0.614042625742 30.0037408601 0.677061876258 27.4209681003 0.675450033431 27.5336611137 0.292153893614 141.879932 0.000769786767475 156.993885046 0.612677371383 -150.150581928 0.614042625742 30.0037408601 0.000769786767475 156.993885046 0.49757160468 45.7285570259
10.85 0.262755565187 158.80786276 0.311307763763 38.5758841909 0.677772058021 23.2271700647 0.612104568924 -152.702790857 0.311307763763 38.5758841909 0.263741426456 159.011202249 0.676157667453 23.3406651937 0.613464524992 27.4537290526 0.677772058021 23.2271700647 0.676157667453 23.3406651937 0.288851616744 136.123759174 0.000778874676328 152.115373788 0.612104568924 -152.702790857 0.613464524992 27.4537290526 0.000778874676333 152.115373788 0.498987643213 43.262149446
10.875 0.262826058761 156.59461675 0.310880351457 35.6579946403 0.678460893037 19.0259396025 0.611528156779 -155.252999284 0.310880351457 35.6579946403 0.263838703176 156.79490743 0.676843644252 19.1402805188 0.612882718813 24.9057750312 0.678460893037 19.0259396025 0.676843644252 19.1402805188 0.285609658579 130.32272349 0.000787896416234 147.199447312 0.611528156779 -155.252999284 0.612882718813 24.9057750312 0.000787896416247 147.199447311 0.500407299773 40.796337769
10.9 0.262985912107 154.382200189 0.310432569023 32.7552740591 0.679126235398 14.8167464994 0.610948141462 -157.801260918 0.310432569023 32.7552740591 0.264025936754 154.579681788 0.677505810045 14.9319809573 0.612297186048 22.3598276209 0.679126235398 14.8167464994 0.677505810045 14.9319809573 0.282440727129 124.475147052 0.000796846463215 142.245025539 0.610948141462 -157.801260918 0.612297186048 22.3598276209 0.000796846463238 142.245025538 0.501830535985 38.3310766776
10.925 0.263236290101 152.168711784 0.309968221934 29.8685266369 0.679765851125 10.5990339459 0.610364532232 -160.347629778 0.309968221934 29.8685266369 0.264304336823 152.363659939 0.678141923127 10.7152140638 0.611707904658 19.8158357882 0.679765851125 10.5990339459 0.678141923127 10.7152140638 0.279358512646 118.579492927 0.000805720194129 137.250903609 0.610364532232 -160.347629778 0.611707904658 19.8158357882 0.000805720194166 137.250903608 0.503257311409 35.8663209352
10.95 0.263577834241 149.952135633 0.309491703277 26.9985884833 0.680377415141 6.37221524228 0.609777341249 -162.892160274 0.309491703277 26.9985884833 0.264674597257 150.144864055 0.67874965082 6.48939780961 0.611114851789 17.2737486416 0.680377415141 6.37221524228 0.67874965082 6.48939780961 0.276377718677 112.634405576 0.000814514052054 132.215741174 0.609777341249 -162.892160274 0.611114851789 17.2737486416 0.000814514052108 132.215741172 0.504687583363 33.4020253724
10.975 0.264010600663 147.730344051 0.309008058151 24.1463252691 0.680958507444 2.13567003716 0.609186583734 -165.434907284 0.309008058151 24.1463252691 0.265136834767 147.921206754 0.679326565619 2.25391684944 0.610518003846 14.7335154365 0.680958507444 2.13567003717 0.679326565619 2.25391684944 0.273514087142 106.638756574 0.000823225741417 127.138050517 0.609186583734 -165.434907284 0.610518003846 14.7335154365 0.00082322574149 127.138050513 0.506121306734 30.9381448732
11 0.264533994462 145.50110075 0.308523055787 21.3126288671 0.681506608294 -2.11125997082 0.608592278122 -167.975926246 0.308523055787 21.3126288671 0.265690523808 145.690494359 0.679870140334 -1.99188174424 0.609917336599 12.195085584 0.681506608294 -2.11125997082 0.679870140334 -1.99188174425 0.270784415945 100.591695567 0.000831854456833 122.01618327 0.608592278122 -167.975926246 0.609917336599 12.195085584 0.000831854456926 122.016183266 0.507558433776 28.4746343605
11.025 0.265146699986 143.262064151 0.308043270453 18.4984127549 0.682019092141 -6.36927594702 0.60799444622 -170.515273254 0.308043270453 18.4984127549 0.266334427462 143.450430307 0.680377741971 -6.24869335824 0.609312825302 9.65840866503 0.682019092141 -6.36927594702 0.680377741972 -6.24869335824 0.268206567561 94.4927062399 0.000840401149788 116.84831552 0.60799444622 -170.515273254 0.609312825302 9.65840866503 0.000840401149899 116.848315515 0.508998913874 26.0114487803
11.05 0.265846606691 141.010790558 0.307576172369 15.7046058903 0.682493219997 -10.6391275416 0.607393113361 -173.053005159 0.307576172369 15.7046058903 0.267066523881 141.198618463 0.680846624049 -10.5172614169 0.608704444832 7.12343444972 0.682493219997 -10.6391275416 0.680846624049 -10.5172614169 0.265799467022 88.3416667409 0.000848868837431 111.632431035 0.607393113361 -173.053005159 0.608704444832 7.12343444972 0.000848868837556 111.632431028 0.510442693303 23.5485430861
11.075 0.266630730017 138.744736864 0.307130230001 12.9321447098 0.682926129872 -14.9216193214 0.606788308551 -175.589179689 0.307130230001 12.9321447098 0.267883927776 138.93256601 0.681273916953 -14.7983837655 0.608092169845 4.59011292251 0.682926129872 -14.9216193214 0.681273916954 -14.7983837655 0.263583087817 82.1389136795 0.000857262957861 106.366302368 0.606788308551 -175.589179689 0.608092169845 4.59011292252 0.000857262957994 106.36630236 0.511889714947 21.0858722218
11.1 0.267495126608 136.461262388 0.306715025355 10.1819628268 0.683314824813 -19.2176181342 0.606180064612 -178.123855572 0.306715025355 10.1819628268 0.268782806243 136.649685528 0.681656615906 -19.0929199776 0.607475974949 2.0583943132 0.683314824813 -19.2176181342 0.681656615906 -19.0929199776 0.261578424358 75.8853083848 0.000865591776371 101.047469564 0.606180064612 -178.123855572 0.607475974949 2.0583943132 0.000865591776502 101.047469556 0.513339918001 18.6233911039
11.125 0.268434802976 134.157629327 0.306341384081 7.45497792163 0.683656158007 -23.528061542 0.605568418319 179.342907328 0.306341384081 7.45497792163 0.269758288068 134.347295778 0.681991565958 -23.4017997244 0.606855834884 -0.471770865586 0.683656158007 -23.528061542 0.681991565958 -23.4017997244 0.259807450024 69.5823036758 0.00087386684712 95.6732161991 0.605568418319 179.342907328 0.606855834884 -0.471770865584 0.000873866847237 95.6732161919 0.514793237643 16.1610546031
11.15 0.2694436165 131.831001231 0.306021522459 4.75207520911 0.683946814261 -27.8539674854 0.604953410523 176.811047856 0.306021522459 4.7520752091 0.270804365381 132.022620606 0.68227544336 -27.7260323632 0.606231724714 -3.00043177432 0.683946814261 -27.8539674854 0.68227544336 -27.7260323633 0.258293060166 63.2320089257 0.000882103534735 90.2405424796 0.604953410523 176.811047856 0.606231724714 -3.00043177431 0.000882103534822 90.2405424741 0.516249604672 13.6988175248
11.175 0.270514167264 129.478438723 0.305769213607 2.07408675473 0.684183287069 -32.1964453633 0.604335086266 174.280503406 0.305769213608 2.07408675473 0.271913786185 129.672785228 0.682504732499 -32.0667179308 0.605603620029 -5.52763719572 0.684183287069 -32.1964453633 0.682504732499 -32.0667179308 0.257059000128 56.837250769 0.000890321600204 84.7461351602 0.604335086266 174.280503406 0.605603620029 -5.52763719572 0.000890321600241 84.7461351579 0.517708945116 11.2366345888
11.2 0.271637678829 127.096891539 0.305599975558 -0.578234233177 0.684361850272 -36.5567087432 0.603713494874 171.751209735 0.305599975558 -0.578234233173 0.27307793586 127.294808998 0.682675697408 -36.4250597517 0.604971497146 -8.05343547705 0.684361850272 -36.5567087432 0.682675697408 -36.4250597517 0.256129779008 50.40162644 0.000898545855267 79.1863340473 0.603713494874 171.751209735 0.604971497146 -8.05343547705 0.000898545855231 79.1863340501 0.519171179798 8.77446040797
11.225 0.272803865365 124.683185662 0.305531284103 -3.20424516535 0.684478523129 -40.9360899524 0.603088690035 169.22310076 0.305531284102 -3.20424516533 0.274286705083 124.885593491 0.682784346674 -40.802378912 0.604335333317 -10.5778744654 0.684478523129 -40.9360899524 0.682784346673 -40.802378912 0.255530570752 43.9295465104 0.000906806889095 73.5570949071 0.603088690035 169.22310076 0.604335333317 -10.5778744654 0.000906806888962 73.5570949171 0.520636223868 6.31224946661
11.25 0.274000781754 122.234004035 0.305582813639 -5.80345309984 0.684529027377 -45.3360568426 0.602460729847 166.696108343 0.305582813639 -5.80345309981 0.27552834077 122.441904429 0.682826390304 -45.2001308857 0.603695106937 -13.1010014357 0.684529027377 -45.3360568426 0.682826390304 -45.2001308857 0.255287105085 37.4262637681 0.000915141870366 67.85394865 0.602460729847 166.696108343 0.603695106938 -13.1010014357 0.000915141870114 67.8539486697 0.522103986289 3.84995609719
11.275 0.275214651997 119.745858824 0.305776709498 -8.37556245098 0.684508734503 -49.7582320699 0.601829676844 164.170162038 0.305776709498 -8.37556245092 0.276789275409 119.960345515 0.682797186804 -49.6199246533 0.603050797749 -15.6228630125 0.684508734503 -49.7582320699 0.682797186803 -49.6199246533 0.2554255516 30.8978852094 0.000923595426633 62.071956742 0.601829676844 164.170162038 0.603050797749 -15.6228630125 0.000923595426239 62.0719567738 0.523574369279 1.38753445685
11.3 0.27642966959 117.215052602 0.306137895416 -10.9205330142 0.684412601133 -54.2044152925 0.601195597971 161.645188825 0.306137895415 -10.9205330141 0.278053928436 117.437321626 0.682691678334 -54.0635447093 0.602402387047 -18.1435050834 0.684412601133 -54.2044152925 0.682691678333 -54.0635447093 0.255972401097 24.3513646384 0.000932220600858 56.2056628881 0.601195597972 161.645188825 0.602402387047 -18.1435050834 0.000932220600307 56.2056629344 0.525047267703 -1.07506149699
11.325 0.277627761037 114.637624872 0.306694419909 -13.4386501768 0.684235089928 -58.6766087584 0.600558564534 159.121112807 0.306694419908 -13.4386501767 0.279304470828 114.868987944 0.682504311374 -58.5329764271 0.601749857876 -20.6629727069 0.684235089928 -58.6766087585 0.682504311374 -58.532976427 0.256954348697 17.7944741856 0.000941079881707 50.2490411619 0.600558564534 159.121112807 0.601749857876 -20.6629727069 0.000941079880992 50.2490412243 0.52652256841 -3.53787803171
11.35 0.278788300145 112.009279118 0.307477845198 -15.9306094261 0.683970072824 -63.1770468448 0.599918652077 156.597854881 0.307477845196 -15.9306094259 0.28052054057 112.251180383 0.682228939713 -63.0304353337 0.60109319523 -23.1813100122 0.683970072824 -63.1770468448 0.682228939713 -63.0304353336 0.25839818333 11.2357541435 0.000950246298892 44.1954409029 0.599918652077 156.597854881 0.60109319523 -23.1813100122 0.000950246298017 44.1954409821 0.528000149519 -6.0009616651
11.375 0.279887755625 109.325283701 0.30852368184 -18.3976175003 0.683610712731 -67.7082302097 0.599275940208 154.075332365 0.308523681838 -18.3976175001 0.281678891448 109.579320885 0.681858705895 -67.55840095 0.60043238624 -25.6985600936 0.683610712731 -67.7082302098 0.681858705894 -67.55840095 0.260330687755 4.68444179546 0.0009598045666 38.0375288942 0.599275940209 154.075332365 0.60043238624 -25.6985600936 0.000959804565593 38.0375289888 0.529479879637 -8.46435919143
11.4 0.280899247024 106.580337244 0.309871871329 -20.8415127408 0.683149318915 -72.2729653474 0.598630512348 151.553458592 0.309871871327 -20.8415127405 0.282752950135 106.848288606 0.681385896353 -72.1196559745 0.599767420358 -28.2147648962 0.683149318914 -72.2729653474 0.681385896353 -72.1196559745 0.262778552215 -1.84961873625 0.000969852245319 31.7672295594 0.598630512349 151.553458592 0.599767420359 -28.2147648962 0.000969852244231 31.7672296653 0.53096161702 -10.9281177078
11.425 0.281791972946 103.768385232 0.311567317112 -23.2649073669 0.682577170195 -76.8744104836 0.597982455377 149.032142454 0.31156731711 -23.2649073665 0.283712245334 104.052244205 0.680801764384 -76.717331738 0.599098289543 -30.7299650974 0.682577170195 -76.8744104836 0.680801764383 -76.7173317379 0.265768303178 -8.35608231608 0.000980500873052 25.3756642024 0.597982455378 149.032142454 0.599098289543 -30.7299650974 0.000980500871972 25.3756643114 0.53244520866 -13.3922846406
11.45 0.282530459003 100.882368542 0.313660461548 -25.6713544826 0.681884298691 -81.5161289363 0.597331859187 146.511287897 0.313660461547 -25.6713544823 0.284521656017 101.184388697 0.680096313701 -81.3549610371 0.598424988428 -33.2441999798 0.68188429869 -81.5161289363 0.680096313701 -81.354961037 0.269326246349 -14.8242199334 0.000991876988179 18.8530906692 0.597331859187 146.511287897 0.598424988428 -33.2441999798 0.00099187698724 18.8530907673 0.533930489301 -15.856907772
11.475 0.283073547831 97.9138755253 0.316207901467 -28.0655425927 0.681059225148 -86.202151284 0.596678816091 143.990793359 0.316207901466 -28.0655425925 0.285140400401 98.2366295885 0.679258033657 -86.0365396723 0.597747514491 -35.7575072995 0.681059225148 -86.2021512841 0.679258033656 -86.0365396722 0.273478420387 -21.2430420957 0.00100412292392 12.1888452855 0.596678816092 143.990793359 0.597747514491 -35.7575072995 0.00100412292331 12.1888453507 0.53541728038 -18.3220352659
11.5 0.28337301493 94.8526548704 0.31927302735 -30.4535202093 0.680088634753 -90.9370479545 0.596023420091 141.470551142 0.31927302735 -30.4535202093 0.285520647941 95.1991131167 0.67827357505 -90.7665982796 0.597065868221 -38.269923147 0.680088634753 -90.9370479545 0.67827357505 -90.7665982796 0.278250554666 -27.6014231801 0.00101739719309 5.37128957802 0.596023420091 141.470551142 0.597065868221 -38.269923147 0.00101739719308 5.3712895781 0.536905388883 -20.7877156939
