! Generated from PyAEDT SolutionData; AEDT ExportNetworkData workaround
# GHz S MA R 50
9 0.328752370975 -7.0129250686 0.305673668824 -89.1240758008 0.620772679665 -25.6972145305 0.642749381133 45.2144173945 0.305673668824 -89.1240758008 0.328554018794 -7.1306759521 0.620814508421 -25.76230188 0.642810400551 -134.858579511 0.620772679665 -25.6972145305 0.620814508421 -25.76230188 0.478780339695 174.833038185 0.000112415685681 -124.704977075 0.642749381133 45.2144173945 0.642810400551 -134.858579511 0.000112415685681 -124.704977076 0.416734938971 -129.162056277
9.025 0.327506782818 -9.99945099661 0.30554836119 -92.6072512196 0.621876783367 -30.2191271603 0.642376754134 42.3367853455 0.30554836119 -92.6072512198 0.327304671238 -10.1118153885 0.621912846065 -30.283535653 0.642444676369 -137.735622517 0.621876783367 -30.2191271602 0.621912846065 -30.2835356531 0.475917488505 169.097306201 0.000118016205737 -125.925369449 0.642376754134 42.3367853454 0.642444676369 -137.735622517 0.000118016206237 -125.925369344 0.417872025849 -131.813640913
9.05 0.326311900161 -12.9773007274 0.305459835351 -96.0723187109 0.62293515389 -34.7272385679 0.642001024382 39.4670648502 0.305459835351 -96.0723187111 0.326105397836 -13.0841785792 0.622965470292 -34.7909507992 0.64207625593 -140.604771903 0.622935153891 -34.7272385678 0.622965470292 -34.7909507994 0.473150593513 163.375018231 0.000124314121951 -127.457700432 0.642001024382 39.46706485 0.64207625593 -140.604771903 0.000124314122813 -127.457700299 0.419014215595 -134.460125338
9.075 0.325164151086 -15.9469689856 0.305408663588 -99.5199082001 0.623949758825 -39.2216424527 0.641622225096 36.6051143798 0.305408663588 -99.5199082004 0.324952597575 -16.048267155 0.623974361981 -39.2846408194 0.641705151195 -143.466172369 0.623949758825 -39.2216424525 0.62397436198 -39.2846408196 0.470477376752 157.667269755 0.000131264372146 -129.301968658 0.641622225097 36.6051143796 0.641705151195 -143.466172369 0.000131264373236 -129.301968539 0.420161392103 -137.101607854
9.1 0.324060010926 -18.9089019841 0.305395200741 -102.950655525 0.624922610587 -43.7024547414 0.64124038614 33.7507949 0.305395200741 -102.950655525 0.32384271793 -19.004534438 0.624941546917 -43.7647214834 0.641331373418 -146.319965683 0.624922610588 -43.7024547412 0.624941546917 -43.7647214836 0.467895116394 151.975008413 0.000138821004077 -131.448292279 0.641240386141 33.7507948999 0.641331373417 -146.319965683 0.000138821005272 -131.448292195 0.421313445365 -139.738184871
9.125 0.322996010035 -21.8634989805 0.305419600036 -106.365198687 0.62585575416 -48.1698109149 0.640855534266 30.9039699139 0.305419600036 -106.365198687 0.322772262665 -21.9533870077 0.625869083521 -48.2313281592 0.640954932967 -149.166290717 0.62585575416 -48.1698109147 0.62586908352 -48.2313281594 0.465400701786 146.299043629 0.00014693930749 -133.880101531 0.640855534267 30.9039699138 0.640954932967 -149.166290717 0.000146939308686 -133.880101485 0.422470271293 -142.369950948
9.15 0.321968740799 -24.8111138074 0.30548182816 -109.764174495 0.626751255973 -52.6238635761 0.640467693362 28.0645054882 0.30548182816 -109.764174496 0.321737798898 -24.8951862392 0.626759051713 -52.6846133821 0.640575839174 -152.005283479 0.626751255974 -52.6238635759 0.626759051712 -52.6846133822 0.462990685963 140.640056469 0.000155577187082 -136.576860534 0.640467693363 28.0645054881 0.640575839174 -152.005283478 0.0001555771882 -136.576860521 0.423631771535 -144.996998852
9.175 0.320974864041 -27.7520563791 0.305581679529 -113.148215576 0.627611193884 -57.0647802527 0.640076884686 25.232270267 0.305581679529 -113.148215577 0.320735963546 -27.8302498148 0.627613542871 -57.1247446602 0.640194100196 -154.837077154 0.627611193885 -57.0647802525 0.62761354287 -57.1247446603 0.460661335048 134.998609536 0.000164695928909 -139.516175552 0.640076884687 25.2322702669 0.640194100195 -154.837077154 0.00016469592989 -139.516175563 0.424797853301 -147.619419598
9.2 0.320011114908 -30.6865941746 0.305718789726 -116.517947724 0.628437648175 -61.492741428 0.639683127094 22.4071354711 0.305718789726 -116.517947724 0.319763469257 -30.7588532095 0.628434650817 -61.5519025065 0.639809722903 -157.661802156 0.628437648175 -61.4927414279 0.628434650817 -61.5519025066 0.458408674187 129.375156704 0.000174260526106 -142.675304691 0.639683127095 22.407135471 0.639809722903 -157.661802156 0.000174260526913 -142.675304715 0.425968429194 -150.23730251
9.225 0.319074308335 -33.614953701 0.30589264809 -119.873987565 0.629232693517 -65.9079387893 0.63928643726 19.5889748879 0.30589264809 -119.873987565 0.318817109925 -33.681231155 0.629224463761 -65.9662786883 0.639422712783 -160.479586173 0.629232693518 -65.9079387892 0.629224463761 -65.9662786884 0.456228529779 123.770052543 0.000184239709218 -146.032161274 0.63928643726 19.5889748879 0.639422712783 -160.479586173 0.000184239709832 -146.032161302 0.427143417034 -152.850735265
9.25 0.318161344147 -36.5373219373 0.306102609462 -123.216940507 0.629998391828 -70.3105736809 0.638886829878 16.7776648504 0.306102609462 -123.216940507 0.31789376585 -36.5975790823 0.629985057134 -70.3680746823 0.639033073858 -163.290554225 0.629998391828 -70.3105736808 0.629985057133 -70.3680746823 0.45411656794 118.183561292 0.000194605793842 -149.565925975 0.638886829878 16.7776648503 0.639033073858 -163.290554225 0.000194605794262 -149.565925999 0.428322739697 -155.459803946
9.275 0.317269211864 -39.4538477624 0.306347905118 -126.547398964 0.630736785931 -74.7008557516 0.638484317857 13.9730842075 0.306347905118 -126.547398964 0.316990408588 -39.5080545456 0.630718487234 -74.7575003224 0.638640808621 -166.094828716 0.630736785931 -74.7008557516 0.630718487234 -74.7575003225 0.452068329226 112.61586529 0.000205334426045 -153.257375929 0.638484317857 13.9730842075 0.63864080862 -166.094828716 0.00020533442628 -153.257375945 0.429506324954 -158.064593092
9.3 0.316394995241 -42.3646433676 0.306627652917 -129.865940809 0.631449893975 -79.0790017805 0.638078912499 11.1751142877 0.306627652917 -129.865940809 0.31610410554 -42.4127786292 0.631426785622 -79.1347726271 0.638245917982 -168.8925295 0.631449893975 -79.0790017805 0.631426785622 -79.1347726271 0.450079259754 107.067072791 0.000216404279439 -157.089020017 0.638078912499 11.1751142877 0.638245917982 -168.8925295 0.00021640427951 -157.089020023 0.430694105309 -160.66518575
9.325 0.315535876572 -45.269785656 0.306940866694 -133.173128061 0.632139704514 -83.4452346682 0.637670623661 8.38363885593 0.306940866694 -133.173128061 0.315232024308 -45.3118373393 0.632111954177 -83.5001147908 0.637848401229 -171.683773933 0.632139704514 -83.4452346682 0.632111954177 -83.5001147908 0.448144738895 101.537225106 0.000227796738011 -161.045108173 0.637670623661 8.38363885594 0.637848401229 -171.683773933 0.000227796737942 -161.045108167 0.431886017845 -163.26166352
9.35 0.314689140778 -48.1693176285 0.307286464958 -136.469505763 0.632808172193 -87.7997825787 0.637259459907 5.59854406466 0.307286464958 -136.469505763 0.314371436831 -48.2052829807 0.632775960767 -87.8537553269 0.637448256002 -174.468676939 0.632808172193 -87.7997825788 0.632775960767 -87.8537553268 0.446260103796 96.0263030582 0.000239495585065 -165.111563568 0.637259459907 5.59854406467 0.637448256002 -174.468676939 0.000239495584886 -165.111563551 0.433082004072 -165.854106607
9.375 0.313852179302 -51.0632497583 0.30766327893 -139.755601053 0.63345721398 -92.1428782179 0.636845428639 2.81971840139 0.30766327893 -139.755601053 0.313519723317 -51.0931355199 0.633420735452 -92.1959273459 0.637045478267 -177.247351071 0.63345721398 -92.1428782179 0.633420735452 -92.1959273459 0.444420670967 90.5342327372 0.000251486709597 -169.275871353 0.636845428639 2.81971840142 0.637045478268 -177.247351071 0.000251486709337 -169.275871327 0.434282009779 -168.442593867
9.4 0.313022493795 -53.9515613528 0.308070059974 -143.031922387 0.63408870587 -96.4747582333 0.636428536217 0.0470526319779 0.308070059974 -143.031922387 0.312674375976 -53.9753839344 0.63404816716 -96.5268679563 0.636640062319 179.98009343 0.63408870587 -96.4747582333 0.63404816716 -96.5268679563 0.442621755241 85.0608905642 0.000263757835703 -173.526946359 0.636428536217 0.0470526320047 0.636640062319 179.98009343 0.000263757835391 -173.526946326 0.435485984884 -171.027202855
9.425 0.312197699629 -56.8342019039 0.308505486476 -146.298958928 0.63470448001 -100.795662723 0.63600878806 -2.71956025874 0.308505486476 -146.298958928 0.311833002557 -56.8519875476 0.6346601008 -100.846817773 0.63623200077 177.213548571 0.634704480009 -100.795662723 0.6346601008 -100.846817773 0.440858686364 79.6061076965 0.00027629827719 -177.854994099 0.636008788059 -2.71956025871 0.63623200077 177.213548571 0.000276298276855 -177.854994062 0.436693883299 -173.608009869
9.45 0.311375529196 -59.7110924239 0.308968170211 -149.557180053 0.635306322198 -105.105834838 0.635586188735 -5.48022512834 0.308968170211 -149.557180052 0.310993329682 -59.7228773492 0.635258334725 -105.156020519 0.635821284567 174.452908547 0.635306322198 -105.105834838 0.635258334725 -105.156020519 0.439126823479 74.1696738057 0.00028909871758 177.748626121 0.635586188735 -5.48022512831 0.635821284567 174.452908547 0.000289098717244 177.748626159 0.437905662781 -176.185089994
9.475 0.31055383503 -62.582126768 0.309456662248 -152.807034991 0.635895969708 -109.40552047 0.635160742034 -8.23504473981 0.309456662248 -152.807034991 0.310153205983 -62.5879572999 0.635844618534 -109.454722714 0.635407903005 171.698069683 0.635895969708 -109.40552047 0.635844618534 -109.454722714 0.437421567789 68.7513402736 0.000302151014574 173.291530893 0.635160742034 -8.23504473978 0.635407903005 171.698069683 0.000302151014259 173.29153093 0.439121284803 -178.758517146
9.5 0.309730592718 -65.4471729411 0.309969458443 -156.048952573 0.636475109386 -113.694968007 0.634732451028 -10.9841198254 0.309969458443 -156.048952573 0.309310605031 -65.4471056179 0.636420651148 -113.743173429 0.634991843747 168.948930371 0.636475109386 -113.694968007 0.636420651148 -113.743173429 0.4357383736 63.3508228589 0.000315448027554 168.780432526 0.634732451028 -10.9841198254 0.634991843747 168.94893037 0.000315448027275 168.78043256 0.440340714414 178.671635886
9.525 0.308903903618 -68.3060743867 0.310505004559 -159.283341064 0.637045376 -117.974428147 0.634301318118 -13.7275491508 0.310505004559 -159.283341063 0.308463628054 -68.3001760478 0.636988079124 -118.0216241 0.634573092857 166.205391014 0.637045376 -117.974428147 0.636988079125 -118.0216241 0.434072757978 57.9678038876 0.000328983466395 164.221247862 0.634301318118 -13.7275491508 0.634573092858 166.205391014 0.000328983466163 164.221247891 0.441563920113 176.1052974
9.55 0.308071997371 -71.158651257 0.31106170105 -162.510588098 0.637608350786 -122.244153768 0.633867345066 -16.4654295797 0.31106170105 -162.510588098 0.307610506452 -71.1469991085 0.637548495186 -122.290328395 0.634151634836 163.467353972 0.637608350786 -122.244153768 0.637548495186 -122.290328395 0.432420309212 52.6019340245 0.00034275175984 159.619195904 0.633867345066 -16.4654295797 0.634151634836 163.467353972 0.000342751759664 159.619195926 0.442790873717 173.542396742
9.575 0.307233234212 -74.0047016628 0.311637907546 -165.731060684 0.638165560188 -126.50439983 0.633430533019 -19.1978561371 0.311637907546 -165.731060684 0.306749604087 -73.9873833186 0.638103436927 -126.549542118 0.633727452658 160.734723502 0.638165560188 -126.50439983 0.638103436927 -126.549542118 0.430776694239 47.2528336819 0.000356747941678 154.978884642 0.633430533018 -19.1978561371 0.633727452658 160.734723502 0.000356747941562 154.978884658 0.444021550237 170.982864266
9.6 0.306386107077 -76.8440029004 0.312231947082 -168.945105273 0.638718474734 -130.755423315 0.632990882518 -21.9249220728 0.312231947082 -168.945105273 0.305879419375 -76.8211163984 0.638654385666 -130.799523147 0.633300527824 158.007405707 0.638718474734 -130.755423315 0.638654385666 -130.799523147 0.429137665191 41.9200941198 0.000370967553007 150.30438776 0.632990882518 -21.9249220728 0.633300527824 158.007405707 0.00037096755295 150.304387768 0.445255927755 168.426631302
9.625 0.305529243523 -79.6763126551 0.312842110087 -172.153047894 0.639268508052 -134.997483192 0.632548393502 -24.6467189229 0.312842110087 -172.153047894 0.304998587171 -79.6479664471 0.639202765435 -135.040531396 0.632870840409 155.285308483 0.639268508052 -134.997483192 0.639202765435 -135.040531396 0.427499065186 36.6032782906 0.000385406558949 145.599312046 0.632548393502 -24.6467189229 0.632870840409 155.285308483 0.000385406558949 145.599312046 0.446493987306 165.873630116
9.65 0.30466140745 -82.5013701797 0.313466658167 -175.355194339 0.639817015991 -139.230840396 0.632103065295 -27.3633365711 0.313466658167 -175.355194339 0.304105880449 -82.4676830932 0.639749942075 -139.272828795 0.63243836912 152.568341466 0.639817015991 -139.230840396 0.639749942075 -139.272828795 0.425856833466 31.3019214755 0.000400061278249 140.866856416 0.632103065295 -27.3633365711 0.63243836912 152.568341466 0.000400061278302 140.866856409 0.447735712755 163.32379388
9.675 0.303781500662 -85.3188974484 0.314103827705 -178.551830387 0.640365295834 -143.455757824 0.631654896593 -30.0748633072 0.314103827705 -178.551830387 0.303200211809 -85.2799986189 0.640297222417 -143.496679285 0.632003091356 149.856415987 0.640365295834 -143.455757824 0.640297222417 -143.496679285 0.424207009989 26.0155317565 0.000414928324245 136.109863414 0.631654896593 -30.0748633073 0.632003091356 149.856415987 0.000414928324343 136.109863401 0.448981090687 160.777056636
9.7 0.302888564249 -88.1286002852 0.314751833304 178.256777926 0.640914585587 -147.672500343 0.631203885437 -32.781385885 0.314751833304 178.256777926 0.302280634803 -88.0846290577 0.640845853549 -147.71234882 0.631564983275 147.149445021 0.640914585587 -147.672500343 0.640845853549 -147.71234882 0.422545739543 20.7435903629 0.00043000455577 131.33086403 0.631203885437 -32.781385885 0.631564983275 147.149445021 0.000430004555907 131.330864011 0.450230110293 158.233353267
9.725 0.301981779843 -90.9301694685 0.315408871077 175.070384011 0.641466063332 -151.881334794 0.630750029182 -35.4829895775 0.315408871077 175.070384011 0.30134634511 -90.8812752669 0.64139702214 -151.920105374 0.631124019864 144.447343139 0.641466063332 -151.881334794 0.64139702214 -151.920105374 0.420869275462 15.4855519237 0.000445287036646 126.532116616 0.630750029182 -35.4829895776 0.631124019864 144.447343139 0.000445287036813 126.532116592 0.451482763259 155.692619469
9.75 0.301060470732 -93.7232818128 0.316073121823 171.888760408 0.642020846634 -156.082530006 0.630293324462 -38.1797582314 0.316073121823 171.888760408 0.300396681579 -93.6696239763 0.641951853818 -156.120218953 0.630680175007 141.750026467 0.642020846634 -156.082530006 0.641951853818 -156.120218953 0.419173982996 10.2408446559 0.000460773002452 121.715640626 0.630293324462 -38.1797582315 0.630680175007 141.750026467 0.000460773002641 121.715640599 0.452739043657 153.154791718
9.775 0.300124102889 -96.5076012324 0.316742754076 168.711698438 0.642579991986 -160.276356808 0.629833767145 -40.8717743183 0.316742754076 168.711698438 0.299431127154 -96.4493488161 0.642511412591 -160.312961599 0.630233421571 139.057412638 0.642579991986 -160.276356808 0.642511412591 -160.3129616 0.4174563424 5.00887050767 0.000476459833374 116.883245818 0.629833767145 -40.8717743183 0.630233421571 139.057412638 0.000476459833576 116.883245788 0.453998947844 150.619807245
9.8 0.299172285902 -99.2827797881 0.317415927063 165.539007853 0.643144494294 -164.46308804 0.629371352289 -43.5591189846 0.317415927063 165.539007853 0.298449309719 -99.2201113276 0.643076700304 -164.498607408 0.629783731478 136.369420753 0.643144494294 -164.46308804 0.643076700304 -164.498607408 0.415712951791 -0.210994725303 0.000492345032013 112.036557495 0.629371352289 -43.5591189846 0.629783731478 136.369420753 0.00049234503222 112.036557464 0.455262474354 148.087604011
9.825 0.29820477387 -102.048458725 0.318090793571 162.370516473 0.643715286388 -168.642998558 0.62890607409 -46.2418720996 0.318090793571 162.370516473 0.297451002873 -101.981561963 0.643648656118 -168.677432524 0.629331075791 133.685971336 0.643715286388 -168.642998558 0.643648656118 -168.677432525 0.413940529815 -5.41940130099 0.000508426205116 107.177038332 0.62890607409 -46.2418720996 0.629331075791 133.685971336 0.000508426205322 107.177038301 0.4565296238 145.55812068
9.85 0.297221466247 -104.804269507 0.318765502724 159.206069815 0.644293238552 -172.816365241 0.628437925832 -48.9201123012 0.318765502724 159.206069814 0.296436126669 -104.733341082 0.644228156016 -172.849715151 0.628875424804 131.006986296 0.644293238552 -172.816365241 0.644228156016 -172.849715151 0.412135918183 -10.6170254423 0.000524701048319 102.306007224 0.628437925832 -48.9201123012 0.628875424804 131.006986296 0.000524701048518 102.306007193 0.457800398773 143.031296596
9.875 0.296222408694 -107.549834853 0.319438202706 156.045530731 0.64487915807 -176.983466992 0.627966899828 -51.5939170396 0.319438202706 156.045530731 0.295404748339 -107.475079944 0.644816012322 -177.015735544 0.628416748127 128.332388888 0.64487915807 -176.983466992 0.644816012322 -177.015735544 0.410296084117 -15.8045692582 0.000541167333065 97.424655589 0.627966899828 -51.5939170396 0.628416748127 128.332388888 0.000541167333253 97.4246555599 0.459074803746 140.50707176
9.9 0.295207793941 -110.284769793 0.320107043403 152.888779051 0.645473788787 178.855415262 0.627492987368 -54.2633626194 0.320107043403 152.888779051 0.29435708303 -110.206401726 0.645412973227 178.824223985 0.627955014779 125.662103672 0.645473788788 178.855415262 0.645412973227 178.824223985 0.408418122748 -20.9827606759 0.000557822895014 92.5340614778 0.627492987368 -54.2633626195 0.627955014779 125.662103672 0.000557822895187 92.5340614506 0.460352844979 137.985386811
9.925 0.294177962678 -113.008682743 0.320770179005 149.735711233 0.646077810673 174.69999857 0.627016178657 -56.9285242399 0.320770179005 149.735711233 0.293293494563 -112.92692255 0.646019722329 174.669879078 0.627490193284 122.996056476 0.646077810673 174.69999857 0.646019722329 174.669879078 0.406499259534 -26.1523533922 0.000574665623342 87.6352018135 0.627016178657 -56.92852424 0.627490193284 122.996056476 0.000574665623497 87.6352017887 0.461634530425 135.466183
9.95 0.293133404503 -115.721176618 0.321425770553 146.586240032 0.646691839387 170.54999796 0.626536462758 -59.589476033 0.321425770553 146.586240032 0.29221449625 -115.636252559 0.646636878168 170.520943332 0.627022251765 120.334174363 0.646691839387 170.54999796 0.646636878168 170.520943332 0.40453685273 -31.3141268517 0.000591693450474 82.728963043 0.626536462758 -59.589476033 0.627022251765 120.334174363 0.00059169345061 82.7289630209 0.462919869641 132.949402177
9.975 0.292074758931 -118.421850003 0.32207198846 143.440294191 0.64731642585 166.405126441 0.626053827535 -62.2462910998 0.32207198846 143.440294191 0.291120751761 -118.333997031 0.647264993763 166.377128304 0.626551158043 117.676385586 0.64731642585 166.405126441 0.647264993763 166.377128304 0.402528395967 -36.4688862637 0.0006089043419 77.8161504406 0.626053827535 -62.2462910998 0.626551158043 117.676385586 0.000608904342016 77.8161504214 0.464208873697 130.434986766
10 0.291002816459 -121.110298385 0.322707014995 140.297818152 0.647952055802 162.265094996 0.62556825959 -64.8990415461 0.322707014995 140.297818152 0.290013076062 -121.01975757 0.647904556146 162.238143513 0.626076879734 115.022619562 0.647952055802 162.265094996 0.647904556146 162.238143513 0.40047152101 -41.6174626728 0.000626296285825 72.8974962778 0.62556825959 -64.8990415461 0.626076879734 115.022619562 0.000626296285922 72.8974962615 0.465501555086 127.922879753
10.025 0.289918519718 -123.786115468 0.323329046765 137.158771801 0.648599149362 158.12961258 0.625079744206 -67.5477985149 0.323329046765 137.158771801 0.288892436419 -123.693133373 0.648555985881 158.103696432 0.625599384355 112.372806827 0.648599149362 158.12961258 0.648555985881 158.103696432 0.398364000736 -46.7607130969 0.000643867282549 67.9736670388 0.625079744206 -67.5477985149 0.625599384355 112.372806827 0.000643867282629 67.9736670254 0.466797927641 125.413024664
10.05 0.288822964663 -126.448894591 0.323936297188 134.023130243 0.64925806057 153.998386106 0.624588265288 -70.1926322192 0.323936297188 134.023130243 0.287759953468 -126.353722602 0.649219636582 153.973492485 0.625118639419 109.726879009 0.64925806057 153.998386106 0.649219636582 153.973492485 0.396203752398 -51.8995207502 0.000661615333525 63.045269838 0.624588265288 -70.1926322192 0.62511863942 109.726879009 0.000661615333588 63.0452698272 0.468098006449 122.905365555
10.075 0.287717401825 -129.098230273 0.324526998992 130.890883614 0.649929076923 149.871120423 0.624093805307 -72.833611972 0.324526998992 130.890883614 0.286616902331 -129.001123869 0.64989579441 149.847235025 0.624634612543 107.084768786 0.649929076923 149.871120423 0.64989579441 149.847235025 0.393988841249 -57.0347953653 0.000679538430164 58.112858169 0.624093805307 -72.833611972 0.624634612543 107.084768786 0.000679538430212 58.1128581606 0.469401807766 120.39984699
10.1 0.286603237568 -131.733719889 0.325099406736 127.762036936 0.650612418888 145.747518283 0.623596345243 -75.4708062158 0.325099406736 127.762036936 0.285464713757 -131.634937876 0.650584677555 145.724625307 0.624147271544 104.446409854 0.650612418888 145.747518283 0.650584677555 145.724625307 0.391717484576 -62.1674736341 0.000697634542524 53.1769370965 0.623596345243 -75.4708062158 0.624147271544 104.446409854 0.00069763454256 53.1769370903 0.470709348937 117.896414032
10.125 0.285482035339 -134.354965515 0.325651799396 124.636610016 0.651308239404 141.627280303 0.623095864524 -78.1042825505 0.325651799396 124.636610016 0.284304975259 -134.254769199 0.651286435699 141.605362452 0.623656584547 101.811736894 0.651308239404 141.627280303 0.651286435699 141.605362452 0.389388056224 -67.2985197798 0.000715901608068 48.23796798 0.623095864524 -78.1042825505 0.623656584547 101.811736894 0.000715901608093 48.2379679755 0.472020648311 115.395012227
10.15 0.28435551686 -136.961575954 0.32618248302 121.514637393 0.652016623359 137.510104905 0.622592340977 -80.7341077602 0.32618248302 121.514637393 0.283139432199 -136.860228274 0.652001149461 137.489143392 0.623162520083 99.1806855317 0.652016623359 137.510104905 0.652001149461 137.489143392 0.386999091691 -72.4289262769 0.000734337520739 43.2963728043 0.622592340977 -80.7341077602 0.623162520083 99.1806855317 0.000734337520755 43.2963728014 0.473335725165 112.895587591
10.175 0.283225563199 -139.553168966 0.326689793496 118.39616834 0.652737587045 133.395688244 0.622085750773 -83.3603478392 0.326689793496 118.39616834 0.281969988773 -139.450933573 0.652728829809 133.3756628 0.622665047189 96.5531923088 0.652737587045 133.395688244 0.652728829809 133.3756628 0.384549293846 -77.5597147311 0.000752940120614 38.3525381773 0.622085750773 -83.3603478392 0.622665047189 96.5531923088 0.000752940120624 38.3525381755 0.474654599623 110.398086598
10.2 0.282094215673 -142.129373725 0.327172099443 115.281266914 0.653471077586 129.283724117 0.621576068372 -85.983068017 0.327172099443 115.281266914 0.280798708835 -142.026514019 0.653469417452 129.264613011 0.622164135513 93.9291946427 0.653471077586 129.283724117 0.653469417452 129.264613011 0.382037539388 -82.6919369302 0.000771707184436 33.4068190403 0.621576068372 -85.983068017 0.622164135513 93.9291946427 0.000771707184441 33.4068190394 0.475977292577 107.902456169
10.225 0.280963676491 -144.689833524 0.327627805281 112.170012076 0.654216972342 125.173903859 0.621063266472 -88.6023327813 0.327627805281 112.170012076 0.279627816481 -144.586611646 0.654222782205 125.155683911 0.621659755404 91.3086307935 0.654216972342 125.173903859 0.654222782205 125.155683911 0.379462886091 -87.8266760753 0.000790636417285 28.4595421309 0.621063266472 -88.6023327813 0.621659755404 91.3086307935 0.000790636417287 28.4595421306 0.477303825609 105.408643659
10.25 0.279836309054 -147.234208738 0.328055354497 109.06249786 0.654975078281 121.065916207 0.620547315966 -91.2182059018 0.328055354497 109.06249786 0.278459696303 -147.130884523 0.654988722313 121.048562817 0.621151878017 88.6914398276 0.654975078281 121.065916207 0.654988722313 121.048562817 0.376824580964 -92.9650481957 0.000809725445681 23.5110092245 0.620547315966 -91.2182059018 0.621151878017 88.6914398276 0.000809725445681 23.5110092246 0.478634220913 102.91659685
10.275 0.278714637821 -149.76218008 0.328453233163 105.958833618 0.655745131318 116.959447154 0.620028185885 -93.8307504518 0.328453233163 105.958833618 0.277296893232 -149.659009971 0.655766963749 116.942934325 0.620640475398 86.0775615823 0.655745131318 116.959447154 0.655766963749 116.942934325 0.374122069397 -98.1082037523 0.000828971812345 18.561500179 0.620028185885 -93.8307504518 0.620640475398 86.0775615823 0.000828971812344 18.5615001792 0.479968501219 100.426263934
10.3 0.277601347624 -152.273452145 0.328819973746 102.859144321 0.656526795625 112.854179769 0.619505843361 -96.4400288293 0.328819973746 102.859144321 0.276142111845 -152.170688081 0.656557159479 112.838480147 0.620125520582 83.4669366291 0.656526795625 112.854179769 0.656557159479 112.838480147 0.371355005401 -103.257329424 0.000848372972842 13.6112757969 0.619505843361 -96.4400288293 0.620125520582 83.4669366291 0.000848372972841 13.6112757972 0.481306689717 97.937593512
10.325 0.276499282313 -154.767757274 0.329154159254 99.7635709408 0.657319662903 108.749793995 0.618980253582 -99.0461027774 0.329154159254 99.7635709408 0.274998215035 -154.66564555 0.657358888685 108.734878905 0.619606987679 80.8595062376 0.657319662903 108.749793995 0.657358888685 108.734878905 0.36852326306 -108.413650076 0.000867926294265 8.66058052183 0.618980253582 -99.0461027774 0.619606987679 80.8595062376 0.000867926294263 8.66058052214 0.482648809977 95.4505345783
10.35 0.275411442611 -157.244859727 0.329454427798 96.6722708904 0.65812325162 104.645966419 0.618451379754 -101.649033404 0.329454427798 96.6722708904 0.273868221898 -157.143639836 0.658171655951 104.631805911 0.619084851957 78.2552123382 0.65812325162 104.645966419 0.658171655951 104.631805911 0.365626949299 -113.578430885 0.000887629056088 3.70964497728 0.618451379754 -101.649033404 0.619084851957 78.2552123382 0.000887629056087 3.70964497751 0.483994885874 92.9650365145
10.375 0.274340983032 -159.704560183 0.329719477596 93.5854185484 0.658937006214 100.542370016 0.617919183061 -104.248881201 0.329719477596 93.5854185484 0.272755304719 -159.604463654 0.658994890412 100.528932915 0.618559089928 75.6539974852 0.658937006214 100.542370016 0.658994890412 100.528932915 0.36266641809 -118.75297963 0.00090747845328 -1.24131163994 0.617919183061 -104.248881201 0.618559089928 75.6539974852 0.00090747845328 -1.24131163981 0.485344941508 90.4810490804
10.4 0.273291207717 -162.146700566 0.32994807252 90.5032058514 0.659760296255 96.438673849 0.617383622643 -106.84570606 0.32994807252 90.5032058514 0.27166278489 -162.047949795 0.659827944864 96.4259278152 0.618029679423 73.0558048193 0.659760296255 96.438673849 0.659827944864 96.4259278152 0.359642286239 -123.938649088 0.000927471601712 -6.19207930232 0.617383622643 -106.84570606 0.618029679423 73.0558048193 0.000927471601712 -6.19207930228 0.486699001129 87.9985224061
10.425 0.272265565035 -164.571169174 0.330139048238 87.4258429652 0.660592415572 92.3345427517 0.61684465556 -109.439567293 0.330139048238 87.4258429652 0.27059412763 -164.473976276 0.66067009483 92.3224543394 0.617496599667 70.4605780293 0.660592415572 92.3345427517 0.66067009483 92.3224543394 0.356555450864 -129.136839534 0.000947605545883 -11.1424550193 0.61684465556 -109.439567293 0.617496599667 70.4605780293 0.000947605545885 -11.1424550194 0.488057089057 85.5174069839
10.45 0.271267640797 -166.977906121 0.330291319042 84.3535590312 0.661432581348 88.2296369585 0.61630223678 -112.030523647 0.330291319042 84.3535590312 0.269552935319 -166.882471794 0.661520537589 88.2181716893 0.616959831349 67.8682613142 0.661432581348 88.2296369585 0.661520537589 88.2181716893 0.353407108731 -134.349001291 0.000967877268979 -16.092240818 0.61630223678 -112.030523647 0.616959831349 67.8682613142 0.000967877268982 -16.0922408181 0.489419229598 83.037653661
10.475 0.270301149898 -169.366909045 0.330403885447 81.28660299 0.662279933169 84.1236117027 0.615756319158 -114.618633321 0.330403885447 81.28660299 0.268542939308 -169.273421485 0.662378391162 84.1127341418 0.616419356688 65.2787993445 0.662279933169 84.1236117027 0.662378391162 84.1127341418 0.350198777582 -139.576637273 0.000988283705258 -21.0412418224 0.615756319158 -114.618633321 0.616419356688 65.2787993445 0.000988283705261 -21.0412418224 0.490785446969 80.559213632
10.5 0.269369926237 -171.738239074 0.330475842664 78.2252444831 0.663133532043 80.0161167668 0.615206853437 -117.203953979 0.330475842664 78.2252444831 0.267567990004 -171.646872929 0.663242693258 80.0057906076 0.615875159495 62.6921372231 0.663133532043 80.0161167668 0.663242693258 80.0057906076 0.3469323196 -144.821305477 0.0010088217548 -25.9892644158 0.615206853437 -117.203953979 0.615875159495 62.6921372231 0.00100882175481 -25.9892644158 0.492155765208 78.0820384318
10.525 0.268477910728 -174.092027004 0.33050639005 75.169774829 0.663992359383 75.9067959838 0.614653788242 -119.786542767 0.33050639005 75.1697748289 0.26663204508 -174.002942398 0.664112400184 75.8969841406 0.615327225234 60.1082204464 0.663992359383 75.9067959838 0.664112400184 75.8969841406 0.343609967179 -150.084621331 0.00102948830076 -30.9361144685 0.614653788242 -119.786542767 0.615327225234 60.1082204464 0.00102948830076 -30.9361144684 0.493530208095 75.6060799286
10.55 0.26762913724 -176.428479626 0.330494841651 72.1205080757 0.664855315954 71.7952866842 0.614097070095 -122.366456328 0.330494841651 72.1205080757 0.265739155618 -176.341821266 0.664986385705 71.7859513924 0.614775541069 57.5269948641 0.664855315954 71.7952866842 0.664986385705 71.7859513924 0.340234351142 -155.368259815 0.00105028022915 -35.8815956096 0.614097070095 -122.366456328 0.614775541069 57.5269948641 0.00105028022916 -35.8815956094 0.494908799059 73.131290317
10.575 0.266827716276 -178.747886177 0.330440637989 69.0777821253 0.66572122079 67.6812190795 0.61353664343 -124.943750813 0.330440637989 69.0777821253 0.264893450013 -178.663782553 0.665863439875 67.6723220058 0.614220095924 54.9484066397 0.66572122079 67.6812190795 0.665863439875 67.6723220058 0.336808531559 -160.673957248 0.00107119445173 -40.8255075236 0.61353664343 -124.943750813 0.614220095924 54.9484066397 0.00107119445173 -40.8255075233 0.496291561092 70.657622111
10.6 0.266077816236 178.94937518 0.330343359215 66.0419599285 0.666588810069 63.5642155777 0.612972450625 -127.518481898 0.330343359215 66.0419599285 0.264099115454 179.030812481 0.666742267821 63.5557179385 0.613660880524 52.3724022101 0.666588810069 63.5642155777 0.666742267821 63.5557179385 0.333336031316 -166.003512613 0.00109222793205 -45.7676442477 0.612972450625 -127.518481898 0.613660880524 52.3724022101 0.00109222793206 -45.7676442474 0.497678516654 68.1850281375
10.625 0.265383642075 176.662830912 0.330202739812 63.0134307433 0.667456735962 59.4438900182 0.612404432036 -130.090704794 0.330202739812 63.0134307433 0.263360376817 176.741507768 0.667621488481 59.4357527085 0.613097887441 49.7989282451 0.667456735962 59.4438900182 0.66762148848 59.4357527085 0.329820872553 -171.35878826 0.00111337771569 -50.707792448 0.612404432036 -130.090704794 0.613097887441 49.7989282451 0.0011133777157 -50.7077924477 0.499069687574 65.7134615289
10.65 0.264749411203 174.391905784 0.330018685032 59.9926114533 0.668323565436 55.3198468158 0.611832526047 -132.660474264 0.330018685032 59.9926114533 0.262681472783 174.467745959 0.668499633301 55.3120305488 0.612531111141 47.227931606 0.668323565436 55.3198468158 0.668499633301 55.3120305488 0.326267616113 -176.741709819 0.00113464096521 -55.6457296521 0.611832526047 -132.660474264 0.612531111141 47.227931606 0.00113464096522 -55.6457296517 0.500465094955 63.2428757169
10.675 0.264179326446 172.135916742 0.329791289267 56.9799479364 0.669187779029 51.1916800011 0.611256669121 -135.227844634 0.329791289267 56.9799479364 0.262066629015 172.20886216 0.669375144882 51.1841454592 0.611960548024 44.6593593046 0.669187779029 51.1916800011 0.669375144882 51.1841454592 0.322681404069 177.845734888 0.00115601500117 -60.5812224168 0.611256669121 -135.227844634 0.611960548024 44.6593593046 0.00115601500118 -60.5812224165 0.501864759062 60.7732244248
10.7 0.263677545924 169.894067098 0.329520856602 53.9759164724 0.670047769556 47.0589721393 0.610676795869 -137.79286981 0.329520856602 53.9759164724 0.261520028235 169.964077954 0.670246375555 47.0516801379 0.611386196466 42.0931584614 0.670047769556 47.0589721393 0.670246375555 47.0516801379 0.319068005422 172.401498198 0.00117749735048 -65.5140244143 0.610676795869 -137.79286981 0.611386196466 42.0931584614 0.00117749735049 -65.514024414 0.503268699216 58.3044616606
10.725 0.26324814968 167.665441118 0.329207923823 50.9810251777 0.670901840779 42.9212931108 0.61009283911 -140.355603287 0.329207923823 50.9810251777 0.261045777016 167.732495834 0.671111585897 42.9142047748 0.610808056866 39.5292762626 0.670901840779 42.9212931108 0.671111585897 42.9142047748 0.315433864974 166.923476476 0.00119908580397 -70.4438744188 0.61009283911 -140.355603287 0.610808056866 39.5292762626 0.00119908580398 -70.4438744186 0.504676933678 55.8365417096
10.75 0.262895102907 165.448999112 0.328853286176 47.9958154455 0.671748205983 38.7781987293 0.609504729953 -142.91609817 0.328853286176 47.9958154455 0.260647869153 165.513094121 0.671968943144 38.771275685 0.610226131689 36.9676599182 0.671748205983 38.7781987293 0.671968943144 38.771275685 0.31178615536 161.409515863 0.00122077848514 -75.3704941853 0.609504729953 -142.91609817 0.610226131689 36.9676599182 0.00122077848514 -75.3704941852 0.506089479523 53.3694191265
10.775 0.262622215621 163.24357312 0.328458026255 45.0208633703 0.672584986464 34.6292291728 0.60891239786 -145.474407186 0.328458026255 45.0208633703 0.260330145425 163.304722499 0.672816519495 34.6224337555 0.609640425526 34.4082566173 0.672584986464 34.6292291728 0.672816519495 34.6224337555 0.308132832171 155.857420257 0.00124257393272 -80.2935862151 0.60891239786 -145.474407186 0.609640425526 34.4082566173 0.00124257393272 -80.2935862151 0.507506352513 50.9030487275
10.8 0.262433098632 161.047863289 0.328023546407 42.0567811261 0.673410209884 30.4739071958 0.608315770727 -148.030582701 0.328023546407 42.0567811261 0.260096249611 161.106098239 0.673652290262 30.4672026749 0.609050945148 31.8510134842 0.673410209884 30.4739071958 0.673652290262 30.4672026749 0.304482691985 150.264961981 0.00126447119991 -85.212831407 0.608315770727 -148.030582701 0.609050945148 31.8510134842 0.00126447119992 -85.2128314071 0.508927566959 48.4373855819
10.825 0.262331115644 158.860434999 0.327551605149 39.1042182576 0.674221808457 26.3117360876 0.607714774943 -150.584676736 0.327551605149 39.1042182576 0.25994958057 158.9158032 0.674474131825 26.3050869111 0.608457699578 29.2958775328 0.674221808457 26.3117360876 0.674474131825 26.3050869111 0.300845433075 144.629895607 0.00128646997368 -90.1278866053 0.607714774943 -150.584676736 0.608457699578 29.2958775328 0.00128646997368 -90.1278866054 0.510353135573 45.9723850031
10.85 0.262319331329 156.679716826 0.327044358133 36.1638628374 0.675017616905 22.1421973341 0.60710933545 -153.136740989 0.327044358133 36.1638628374 0.259893240223 156.732281683 0.675279819324 22.1355693945 0.607860700177 26.7427956198 0.675017616905 22.1421973341 0.675279819324 22.1355693945 0.29723171845 138.949975499 0.00130857071783 -95.038382057 0.60710933545 -153.136740989 0.607860700177 26.7427956198 0.00130857071783 -95.0383820569 0.511783069318 43.5080025395
10.875 0.26240045518 154.503999351 0.326504404307 33.2364424242 0.675795370113 17.9647479344 0.606499375782 -155.686826848 0.326504404307 33.2364424242 0.259929977235 154.553839177 0.676067024028 17.9581088581 0.607259960745 24.1917143967 0.675795370113 17.9647479344 0.676067024028 17.9581088581 0.293653240734 133.222977662 0.00133077484422 -99.943918804 0.606499375782 -155.686826848 0.607259960745 24.1917143967 0.00133077484422 -99.9439188037 0.51321737723 41.0441939642
10.9 0.262576780938 152.331434847 0.325934838018 30.3227247432 0.676552700385 13.7788173148 0.605884818087 -158.234985414 0.325934838018 30.3227247432 0.260062126181 152.378642007 0.676833310252 13.7721367781 0.606655497641 21.6425802594 0.676552700385 13.7788173148 0.676833310252 13.7721367781 0.290122788286 127.446726564 0.00135308491682 -104.84406604 0.605884818087 -158.234985414 0.606655497641 21.6425802594 0.00135308491683 -104.84406604 0.514656066252 38.5809152649
10.925 0.262850121354 150.160037799 0.325339307918 27.4235179864 0.677287134184 9.58380377331 0.605265583129 -160.781267521 0.325339307918 27.4235179865 0.260291541936 150.204717879 0.677576131715 9.57705384782 0.606047329934 19.095339297 0.677287134184 9.58380377331 0.677576131715 9.57705384782 0.286654311765 121.619127605 0.00137550489381 -109.738358471 0.605265583129 -160.781267521 0.606047329934 19.095339297 0.00137550489383 -109.73835847 0.516099141034 36.1181226321
10.95 0.263221737983 147.987686201 0.324722083711 24.539670607 0.677996088187 5.37907037602 0.604641590251 -163.325723754 0.324722083711 24.539670607 0.26061952899 148.029957266 0.678292827158 5.37222590756 0.605435479588 16.5499372367 0.677996088187 5.37907037602 0.678292827158 5.37222590757 0.283262990197 115.738205949 0.00139804041348 -114.626293724 0.604641590251 -163.325723754 0.605435479588 16.5499372367 0.00139804041351 -114.626293722 0.517546603728 33.6557724478
10.975 0.263692265648 145.812123505 0.324088131922 21.6720704434 0.678676864466 1.16394021436 0.604012757314 -165.868404466 0.324088131922 21.6720704434 0.26104676532 145.852115499 0.678980615027 1.15697923928 0.604819971678 14.0063193866 0.678676864466 1.16394021435 0.678980615027 1.15697923928 0.279965295365 109.802152413 0.0014206991302 -119.50732985 0.604012757314 -165.868404466 0.604819971678 14.0063193866 0.00142069913024 -119.507329848 0.518998453769 31.1938212722
11 0.264261631149 143.630961047 0.323443202088 18.8216429737 0.679326644536 -3.06230908455 0.603379000592 -168.409359803 0.323443202088 18.8216429738 0.26157322035 143.668815431 0.679636586935 -3.06940488037 0.604200834661 11.464430575 0.679326644536 -3.06230908456 0.679636586935 -3.06940488036 0.27677905315 103.809377046 0.00144349110742 -124.380882985 0.603379000592 -168.409359803 0.604200834661 11.4644305749 0.00144349110747 -124.380882982 0.520454687635 28.7322258301
11.025 0.264928965611 141.441680699 0.322793925032 15.9893484441 0.679942481959 -7.30045172003 0.602740234623 -170.948639717 0.322793925032 15.9893484441 0.262198066428 141.477550407 0.680257699595 -7.30769649343 0.603578100704 8.92421508486 0.679942481959 -7.30045172004 0.680257699595 -7.30769649342 0.273723500215 97.7585709456 0.00146642927521 -129.246325203 0.602740234623 -170.948639717 0.603578100704 8.92421508486 0.00146642927527 -129.246325199 0.521915298588 26.2709429967
11.05 0.265692509794 139.24163742 0.322147925152 13.1761775517 0.680521293102 -11.5513211005 0.602096372019 -173.48629398 0.322147925153 13.1761775517 0.262919583101 139.275687231 0.680840764793 -11.5587242875 0.602951806077 6.38561658488 0.680521293102 -11.5513211005 0.680840764793 -11.5587242875 0.270819334182 91.6487766367 0.00148952996069 -134.102982627 0.602096372019 -173.48629398 0.602951806077 6.38561658487 0.00148952996077 -134.102982623 0.523380276395 23.8099297815
11.075 0.26654951141 137.028061269 0.321513949007 10.383145286 0.681059845553 -15.8158184208 0.601447323221 -176.022372201 0.321513949007 10.383145286 0.263735053238 137.060468709 0.681382436888 -15.823384109 0.602321991622 3.8485780535 0.681059845553 -15.8158184208 0.681382436888 -15.823384109 0.26808875523 85.4794671136 0.001512813501 -138.950133834 0.601447323221 -176.022372201 0.602321991622 3.8485780535 0.00151281350109 -138.950133829 0.524849607031 21.349143312
11.1 0.267496113276 134.798058341 0.320902012891 7.61128242834 0.681554743577 -20.0949226407 0.60079299621 -178.556923829 0.320902012891 7.61128242838 0.264640649812 134.829015226 0.681879197195 -20.1026488665 0.601688703332 1.31304169745 0.681554743577 -20.0949226407 0.681879197195 -20.1026488665 0.26555549682 79.2506332299 0.00153630494926 -143.787008577 0.60079299621 -178.556923829 0.601688703332 1.31304169744 0.00153630494935 -143.787008572 0.52632327235 18.8885408161
11.125 0.268527230715 132.548609911 0.320323572586 4.86162409363 0.682002409838 -24.3897021078 0.600133296162 178.910001835 0.320323572586 4.86162409367 0.265631311768 132.578324661 0.682327334445 -24.3975800675 0.601051993025 -1.22105113759 0.682002409838 -24.3897021078 0.682327334445 -24.3975800675 0.263244843049 72.9628786587 0.00156003488607 -148.612786849 0.600133296162 178.910001835 0.601051993025 -1.2210511376 0.00156003488616 -148.612786845 0.527801249732 16.4280796029
11.15 0.269636416179 130.276568897 0.319791719018 2.13519454353 0.682399062417 -28.7013281159 0.599468125056 176.378355643 0.319791719018 2.13519454356 0.266700606928 130.305269766 0.682722920312 -28.7093412747 0.600411919163 -3.75376006478 0.682399062417 -28.701328116 0.682722920312 -28.7093412747 0.26118363 66.6175210287 0.00158404035121 -153.426598263 0.599468125056 176.378355643 0.600411919163 -3.75376006478 0.00158404035128 -153.426598259 0.529283511708 13.9677170428
11.175 0.270815708313 127.978652495 0.319321404262 -0.567012678269 0.682740685927 -33.031090745 0.598797381232 173.848088608 0.319321404263 -0.567012678258 0.267840579171 128.006591855 0.683061778764 -33.0392138258 0.599768547825 -6.28514576374 0.682740685927 -33.031090745 0.683061778764 -33.0392138258 0.259400228312 60.2166971325 0.00160836591292 -158.227521703 0.598797381233 173.848088608 0.599768547825 -6.28514576374 0.00160836591296 -158.227521702 0.530770025542 11.5074105465
11.2 0.272055461789 125.651429503 0.318929703118 -3.24406046379 0.683022995197 -37.3804173977 0.598120958903 171.31915191 0.318929703118 -3.24406046381 0.269041576231 125.678889362 0.683339447655 -37.3886152289 0.599121953863 -8.81527009941 0.683022995198 -37.3804173977 0.683339447655 -37.3886152289 0.257924504141 53.7634693132 0.0016330648963 -163.014585168 0.598120958903 171.31915191 0.599121953863 -8.81527009941 0.00163306489627 -163.01458517 0.532260752787 9.04711754221
11.225 0.273344152831 123.291300402 0.318636116416 -5.89510115628 0.683241389657 -41.7508945329 0.597438747622 168.791496923 0.318636116416 -5.89510115634 0.270292053075 123.318599318 0.683551130609 -41.7591207254 0.598472222282 -11.3441962535 0.683241389658 -41.7508945329 0.683551130609 -41.7591207254 0.256787755621 47.2619293082 0.00165820079732 -167.786765652 0.597438747622 168.791496923 0.598472222281 -11.3441962535 0.00165820079721 -167.786765658 0.533755648804 6.5867954521
11.25 0.274668153488 120.894467624 0.318462923363 -8.51941863486 0.683390896003 -46.1442931989 0.59675063172 166.26507524 0.318462923362 -8.51941863497 0.271578343962 120.921969206 0.683691636718 -46.152488621 0.597819449864 -13.8719888705 0.683390896003 -46.1442931988 0.683691636717 -46.152488621 0.256022621871 40.7172950441 0.00168384891582 -172.542988861 0.59675063172 166.26507524 0.597819449863 -13.8719888705 0.00168384891559 -172.542988872 0.53525466224 4.12640166716
11.275 0.2760114649 118.456892566 0.31843559149 -11.1164816318 0.68346609616 -50.5625991005 0.596056489704 163.73983871 0.318435591488 -11.1164816319 0.272884393545 118.485015763 0.683755304928 -50.5706901071 0.597163747113 -16.3987142191 0.68346609616 -50.5625991004 0.683755304928 -50.5706901071 0.255662961439 34.1359952137 0.00171009824968 -177.282128481 0.596056489704 163.73983871 0.597163747112 -16.3987142191 0.0017100982493 -177.282128498 0.536757734458 1.66589352096
11.3 0.277355395838 115.974234648 0.318583254325 -13.6860109123 0.683461036714 -55.0080480952 0.595356193633 161.215739487 0.318583254322 -13.6860109125 0.274191433438 116.003466013 0.683735909193 -55.0159444595 0.596505240541 -18.9244403726 0.683461036715 -55.0080480951 0.683735909192 -55.0159444596 0.255743696774 27.5257360372 0.00173705370437 177.996995404 0.595356193633 161.215739487 0.596505240541 -18.9244403725 0.00173705370379 177.996995379 0.538264798937 -0.794771737863
11.325 0.278678166867 113.441765892 0.318939268654 -16.2280634998 0.683369114954 -59.483168215 0.594649608474 158.692730086 0.31893926865 -16.2280635001 0.275477584877 113.472673979 0.683626539349 -59.4907606965 0.595844075389 -21.4492374078 0.683369114955 -59.4831682149 0.683626539348 -59.4907606967 0.256300620656 20.8955445047 0.00176483868754 173.295619235 0.594649608474 158.692730086 0.595844075388 -21.4492374078 0.00176483868674 173.295619203 0.539775780603 -3.25563697434
11.35 0.279954411767 110.854251813 0.319541865231 -18.7431377766 0.683182935301 -63.9908295681 0.59393659145 156.170763444 0.319541865225 -18.7431377769 0.276717359484 110.887503834 0.683419451319 -63.997987033 0.595180418833 -23.9731776271 0.683182935303 -63.990829568 0.683419451318 -63.9979870332 0.257370159445 14.2557827159 0.0017935981789 168.615040942 0.593936591449 156.170763444 0.595180418832 -23.973177627 0.00179359817786 168.615040901 0.541290595121 -5.71674519709
11.375 0.281154534677 108.20578543 0.320434909019 -21.2323040464 0.682894128151 -68.5343037966 0.593216991377 153.649793006 0.320434909011 -21.2323040468 0.27788101727 108.242166088 0.6831058784 -68.5408697849 0.594514463791 -26.4963358029 0.682894128153 -68.5343037964 0.683105878398 -68.5408697851 0.258989086307 7.61812869969 0.00182350239309 163.956627781 0.593216991377 153.649793006 0.59451446379 -26.4963358028 0.00182350239182 163.956627733 0.542809148126 -8.17813958932
11.4 0.282243861341 105.489555037 0.321668787437 -23.6973660181 0.682493120778 -73.1173351803 0.592490648016 151.129772805 0.321668787428 -23.6973660185 0.278933721294 105.529987201 0.682675793004 -73.1231237827 0.593846433421 -29.0187894483 0.682493120781 -73.1173351801 0.682675793002 -73.1231237829 0.261194175117 0.995520308068 0.00185475118932 159.321828199 0.592490648016 151.129772805 0.593846433419 -29.0187894482 0.00185475118787 159.321828146 0.544331334397 -10.6398635408
11.425 0.283181491691 102.69751686 0.323301447437 -26.1410596752 0.681968846879 -77.7442260039 0.591757391422 148.610657563 0.323301447427 -26.1410596755 0.279834397957 102.7430831 0.682117605044 -77.7490168736 0.593176586448 -31.5406191146 0.681968846882 -77.7442260037 0.682117605042 -77.7490168739 0.264021782571 -5.59793966304 0.00188757943057 154.712189157 0.591757391421 148.610657564 0.593176586446 -31.5406191145 0.00188757942904 154.712189103 0.545857036959 -13.1019606809
11.45 0.283918711699 99.8199284612 0.325399604234 -28.5672971529 0.681308377207 -82.4199394859 0.591017041319 146.092402801 0.325399604225 -28.5672971531 0.280534163745 99.8718912641 0.681417778951 -82.4234717571 0.592505223475 -34.0619087162 0.681308377209 -82.4199394857 0.681417778949 -82.4234717574 0.267507342096 -12.1471172222 0.00192226356068 150.129380829 0.591017041318 146.092402801 0.592505223473 -34.0619087161 0.00192226355927 150.129380781 0.547386126125 -15.5644749121
11.475 0.28439674272 96.8446737036 0.328040145422 -30.9814645726 0.680496448199 -87.1502244464 0.5902694065 143.574964956 0.328040145415 -30.9814645727 0.280974101674 96.9044898664 0.680560345649 -87.1521892618 0.591832694457 -36.5827458837 0.680496448201 -87.1502244462 0.680560345648 -87.1521892619 0.271684748912 -18.6360181679 0.00195912975744 145.575231171 0.5902694065 143.574964956 0.591832694456 -36.5827458837 0.00195912975648 145.575231139 0.54891845846 -18.0274504441
11.5 0.284543474334 93.7562678345 0.331311752714 -33.3907843369 0.679514858104 -91.9417670351 0.589514284257 141.05830151 0.331311752714 -33.3907843369 0.281082042257 93.8255878657 0.679526278283 -91.941798291 0.591159407568 -39.1032223441 0.679514858104 -91.9417670351 0.679526278283 -91.941798291 0.276585611484 -25.0479931912 0.00199856414308 141.051773708 0.589514284257 141.05830151 0.591159407568 -39.1032223441 0.00199856414309 141.051773708 0.550453875672 -20.490931829
