! Generated from PyAEDT SolutionData; AEDT ExportNetworkData workaround
# GHz S MA R 50
9 0.450778213299 17.0706283026 0.273011619089 -55.7775582962 0.570319678792 -9.29580734982 0.630078663534 43.775036472 0.273011619089 -55.7775582962 0.451243102576 17.1541158295 0.569506150445 -9.24464748633 0.630481611806 -136.158025502 0.570319678792 -9.29580734982 0.569506150445 -9.24464748633 0.59194420938 170.502040465 0.000511439063794 69.5703250001 0.630078663534 43.775036472 0.630481611806 -136.158025502 0.000511439063794 69.5703250001 0.453313967757 -144.637111991
9.025 0.448832072155 14.0343706455 0.272449689096 -59.4264812658 0.572523825016 -13.8836590005 0.629712080419 40.9095870413 0.272449689096 -59.4264812658 0.449299290158 14.1195605336 0.571703339797 -13.832725864 0.63012419558 -139.02331592 0.572523825016 -13.8836590005 0.571703339797 -13.832725864 0.587683759365 164.59919189 0.000507572223286 64.9437617481 0.629712080419 40.9095870413 0.63012419558 -139.02331592 0.000507572223308 64.9437617475 0.454319199207 -147.290571303
9.05 0.446933030923 11.0096278563 0.27192369713 -63.0594103735 0.574663193129 -18.4572286634 0.629341282558 38.0518597861 0.27192369713 -63.0594103735 0.447402353417 11.0965274873 0.573835889865 -18.4065126057 0.629762553974 -141.880900228 0.574663193129 -18.4572286634 0.573835889865 -18.4065126057 0.58350253286 158.712823714 0.000503605535146 60.337498299 0.629341282558 38.0518597861 0.629762553974 -141.880900228 0.000503605535173 60.3374982981 0.455333306695 -149.938751414
9.075 0.445079258211 7.99594145139 0.271433965752 -66.676794455 0.576740260568 -23.0166324588 0.628966300771 35.2017127224 0.271433965752 -66.676794455 0.445550461272 8.08455664664 0.575906279043 -22.9661241488 0.629396715291 -144.730920169 0.576740260568 -23.0166324588 0.575906279043 -22.9661241488 0.579398950815 152.843339374 0.000499543458405 55.7521191393 0.628966300771 35.2017127224 0.629396715291 -144.730920169 0.00049954345843 55.7521191384 0.456356128604 -152.581754103
9.1 0.443268783321 4.99287915616 0.270980755739 -70.2790926494 0.578757554567 -27.561998889 0.628587163651 32.3590072121 0.270980755739 -70.2790926494 0.44374164377 5.08321405942 0.57791703538 -27.5116893273 0.629026705973 -147.573514152 0.578757554567 -27.561998889 0.57791703538 -27.5116893273 0.575371077748 146.991093226 0.000495390549787 51.1882167998 0.628587163651 32.3590072121 0.629026705973 -147.573514152 0.000495390549805 51.1882167992 0.457387510051 -155.219678965
9.125 0.441499519036 2.00003544572 0.270564252026 -73.8667723847 0.580717639869 -32.0934684273 0.628203897653 29.523607856 0.270564252026 -73.8667723847 0.441973814876 2.09209240562 0.579870724289 -32.0433489594 0.628652550624 -150.408817367 0.580717639869 -32.0934684273 0.579870724289 -32.0433489594 0.571416656334 141.156392265 0.000491151472617 46.6463947952 0.628203897653 29.523607856 0.628652550624 -150.408817367 0.000491151472627 46.6463947949 0.458427302613 -157.85262348
9.15 0.439769282736 -0.982968067304 0.27018455366 -77.4403073028 0.582623107051 -36.611193104 0.627816527179 26.6953823886 0.27018455366 -77.4403073028 0.440244793578 -0.889188614992 0.581769936889 -36.561255435 0.628274272052 -153.236961886 0.582623107051 -36.611193104 0.581769936889 -36.561255435 0.567533140286 135.339497501 0.000486831005994 42.1272702768 0.627816527179 26.6953823886 0.628274272052 -153.236961886 0.000486831005996 42.1272702768 0.459475364061 -160.480683086
9.175 0.438075815973 -3.95648238292 0.269841667016 -81.0001751813 0.584476561491 -41.1153360913 0.627425074661 23.874201576 0.269841667016 -81.0001751813 0.438552323463 -3.86098203275 0.583617278981 -41.065572299 0.627891891294 -156.058076774 0.584476561491 -41.1153360913 0.583617278981 -41.065572299 0.563717725533 129.540625073 0.000482434054142 37.6314764104 0.627425074661 23.874201576 0.627891891294 -156.058076774 0.000482434054138 37.6314764106 0.460531558113 -163.103951248
9.2 0.436416802615 -6.9208309884 0.269535501676 -84.5468558895 0.586280612974 -45.6060712829 0.627029560639 21.0599391177 0.269535501676 -84.5468558895 0.436894090857 -6.82361348204 0.58541536066 -45.5564738315 0.627505427656 -158.872288184 0.586280612974 -45.6060712829 0.58541536066 -45.5564738315 0.559967379716 123.759947113 0.000477965655897 33.1596644883 0.627029560639 21.0599391177 0.627505427656 -158.872288184 0.000477965655889 33.1596644887 0.461595754202 -165.722519522
9.225 0.434789885676 -9.8763098455 0.269265868443 -88.0808294127 0.588037865927 -50.083582871 0.626630003843 18.2524715501 0.269265868443 -88.0808294127 0.435267741657 -9.77738118759 0.587166786554 -50.0341446248 0.627114898736 -161.679719456 0.588037865927 -50.083582871 0.587166786554 -50.0341446248 0.556278870032 117.997592427 0.000473430994339 28.7125057842 0.626630003843 18.2524715501 0.627114898736 -161.679719456 0.000473430994329 28.7125057847 0.46266782725 -168.336477624
9.25 0.433192682936 -12.8231874796 0.26903247907 -91.6025739662 0.589750910281 -54.5480649189 0.626226421265 15.4516781543 0.26903247907 -91.6025739662 0.433670896945 -12.7225560523 0.588874146703 -54.4987791556 0.626720320466 -164.480491211 0.589750910281 -54.5480649189 0.588874146703 -54.4987791556 0.552648789499 112.253647042 0.00046883540659 24.2906931541 0.626226421265 15.4516781543 0.626720320466 -164.480491211 0.000468835406581 24.2906931546 0.46374765746 -170.945913482
9.275 0.431622801438 -15.7617051611 0.268834947331 -95.1125642162 0.591422312953 -58.9997209304 0.625818828231 12.6574408657 0.268834947331 -95.1125642162 0.432101167488 -15.6593818373 0.590540008037 -58.9505813548 0.626321707136 -167.274721436 0.591422312953 -58.9997209304 0.590540008037 -58.9505813548 0.549073581711 106.528154642 0.000464184393852 19.8949423833 0.625818828231 12.6574408657 0.626321707136 -167.274721436 0.000464184393845 19.8949423836 0.464835130113 -173.550913306
9.3 0.430077850959 -18.6920771709 0.268672791142 -98.611269618 0.593054609932 -63.438763416 0.62540723847 9.86964418754 0.268672791142 -98.611269618 0.430556167205 -18.5880754251 0.592166906477 -63.3897641733 0.625919071425 -170.062525575 0.593054609932 -63.438763416 0.592166906477 -63.3897641733 0.54554956414 100.821116951 0.000459483631758 15.5259932726 0.62540723847 9.86964418754 0.625919071425 -170.062525575 0.000459483631753 15.5259932726 0.465930135382 -176.151561639
9.325 0.428555456529 -21.6144911412 0.268545435477 -102.099152879 0.594650298957 -67.8654134576 0.624991664181 7.08817510675 0.268545435477 -102.099152879 0.429033525681 -21.5088271584 0.593757339614 -67.8165491466 0.625512424436 -172.844016612 0.594650298957 -67.8654134576 0.593757339614 -67.8165491466 0.542072950076 95.1324940832 0.000454738981123 11.1846104512 0.624991664181 7.08817510675 0.625512424436 -172.844016612 0.000454738981122 11.1846104509 0.467032568144 -178.747941413
9.35 0.427053270075 -24.5291084657 0.268452215879 -105.576668546 0.596211832772 -72.2799002708 0.624572116091 4.31292301259 0.268452215879 -105.576668546 0.427530899809 -24.4218012484 0.595313759967 -72.2311659576 0.625101775719 -175.619305145 0.596211832772 -72.2799002708 0.595313759967 -72.2311659576 0.538639869272 89.4622049009 0.000449956499215 6.87158389497 0.624572116091 4.31292301259 0.625101775719 -175.619305145 0.000449956499217 6.87158389437 0.468142327813 178.659865995
9.375 0.425568981241 -27.4360647718 0.268392382395 -109.044261727 0.597741612936 -76.682460768 0.624148603515 1.54377961831 0.268392382395 -109.044261727 0.426045984607 -27.3271362433 0.596838568804 -76.6338519992 0.624687133304 -178.38849947 0.597741612936 -76.682460768 0.596838568804 -76.6338519992 0.53524638735 83.8101273903 0.000445142451606 2.58772911913 0.624148603515 1.54377961831 0.624687133304 -178.38849947 0.000445142451611 2.58772911819 0.469259318172 176.071780715
9.4 0.424100327459 -30.3354704493 0.2683651038 -112.502366931 0.599241984168 -81.0733391223 0.623721134409 -1.21936111471 0.2683651038 -112.502366931 0.424576523275 -30.224945555 0.598334110487 -81.0248519378 0.624268503729 178.848294348 0.599241984168 -81.0733391223 0.598334110487 -81.0248519378 0.531888524048 78.1760990859 0.000440303324727 -1.66611299282 0.623721134409 -1.21936111471 0.624268503729 178.848294348 0.000440303324734 -1.66611299406 0.470383447218 173.487724334
9.425 0.422645103311 -33.2274112296 0.268369472004 -115.951407035 0.600715229211 -85.452786333 0.62328971542 -3.97660305012 0.268369472003 -115.951407035 0.423120316554 -33.1153180344 0.599802667337 -85.4044172795 0.623845892068 176.090972408 0.600715229211 -85.452786333 0.599802667337 -85.4044172795 0.528562270363 72.5599175512 0.000435445839157 -5.88907677562 0.62328971542 -3.97660305012 0.623845892068 176.090972408 0.000435445839166 -5.88907677708 0.471514627006 170.907619844
9.45 0.421201169222 -36.1119488105 0.268404506543 -119.391792372 0.602163564189 -89.8210597951 0.622854351936 -6.72804794733 0.268404506543 -119.391792372 0.421675231406 -35.9983185931 0.601246454999 -89.7728059389 0.623419301958 173.339432897 0.602163564189 -89.8210597951 0.601246454999 -89.7728059389 0.525263604643 66.9613409251 0.000430576963713 -10.0802728452 0.622854351936 -6.72804794733 0.623419301958 173.339432897 0.000430576963723 -10.0802728468 0.472652773513 168.331391601
9.475 0.419766459546 -38.9891215214 0.268469159107 -122.823919922 0.603589134427 -94.1784228735 0.622415048126 -9.47379552978 0.268469159107 -122.823919922 0.420239209086 -38.873988865 0.602667618262 -94.1302818132 0.622988735629 170.593576032 0.603589134427 -94.1784228735 0.602667618262 -94.1302818132 0.521988507678 61.3800885399 0.000425703930334 -14.2387897117 0.622415048126 -9.47379552978 0.622988735629 170.593576032 0.000425703930344 -14.2387897134 0.473797806492 165.758965278
9.5 0.418338990059 -41.8589450247 0.268562318029 -126.248172622 0.60499401073 -98.5251444833 0.621971806981 -12.2139435509 0.268562318029 -126.248172622 0.418810272622 -41.7423479034 0.604068227338 -98.4771143622 0.62255419393 167.85330399 0.60499401073 -98.5251444833 0.604068227338 -98.4771143622 0.51873297685 55.81584161 0.000420834249724 -18.3636960283 0.621971806981 -12.2139435509 0.62255419393 167.85330399 0.000420834249734 -18.3636960299 0.474949649343 163.190267825
9.525 0.416916864905 -44.7214130482 0.268682812709 -129.664918768 0.606380186065 -102.861498677 0.62152463035 -14.9485878576 0.268682812709 -129.664918768 0.417386533743 -44.6033929099 0.605450274549 -102.813578196 0.622115676358 165.118520853 0.606380186065 -102.861498677 0.605450274549 -102.813578196 0.515493039379 50.2682439888 0.000415975727682 -22.4540435731 0.62152463035 -14.9485878576 0.622115676358 165.118520853 0.00041597572769 -22.4540435745 0.476108228989 160.625227423
9.55 0.415498283029 -47.5764981457 0.268829417948 -133.074511515 0.607749572658 -107.187764241 0.621073518972 -17.677822452 0.268829417948 -133.074511515 0.415966199289 -47.4570999902 0.606815671423 -107.139952669 0.62167318109 162.389132547 0.607749572658 -107.187764241 0.606815671423 -107.139952669 0.512264764717 44.7369029876 0.000411136481969 -26.5088710745 0.621073518972 -17.677822452 0.62167318109 162.389132547 0.000411136481976 -26.5088710755 0.477273475744 158.063773448
9.575 0.414081544114 -50.4241524812 0.269000858149 -136.477288461 0.609103999451 -111.504224302 0.620618472511 -20.4017395507 0.269000858149 -136.477288461 0.414547577134 -50.3034249339 0.608166246148 -111.45652149 0.621226705006 159.665046783 0.609103999451 -111.504224302 0.608166246148 -111.45652149 0.509044276126 39.2213902475 0.000406324959525 -30.5272090001 0.620618472511 -20.4017395507 0.621226705006 159.665046783 0.00040632495953 -30.5272090008 0.478445323204 155.505836431
9.6 0.412665054067 -53.264308633 0.269195811407 -139.873571313 0.610445209908 -115.811165941 0.620159489575 -23.1204296422 0.269195811407 -139.873571313 0.413129081638 -53.1423040144 0.609503741384 -115.763572333 0.620776243721 156.946173006 0.610445209908 -115.811165941 0.609503741384 -115.763572333 0.505827761501 33.7212426537 0.000401549953749 -34.5080854402 0.620159489575 -23.1204296422 0.620776243721 156.946173006 0.000401549953751 -34.5080854404 0.479623708129 152.951348021
9.625 0.411247330067 -56.0968804157 0.269412913437 -143.263665629 0.611774860151 -120.108879826 0.619696567744 -25.8339815421 0.269412913437 -143.263665629 0.411709238675 -55.9736548055 0.610829812395 -120.06139647 0.620321791615 154.232422343 0.611774860151 -120.108879826 0.610829812395 -120.06139647 0.502611483465 28.2359632805 0.000396820621513 -38.4505332225 0.619696567744 -25.8339815421 0.620321791615 154.232422343 0.000396820621514 -38.4505332222 0.480808570335 150.400240953
9.65 0.409827005212 -58.9217637166 0.26965076138 -146.647860619 0.613094517383 -124.397659851 0.619229703591 -28.542482447 0.26965076138 -146.647860619 0.410286690248 -58.7973770132 0.612146025472 -124.350288407 0.619863341865 151.523707549 0.613094517383 -124.397659851 0.612146025472 -124.350288407 0.499391788794 22.7650223524 0.000392146499481 -42.3535984017 0.619229703591 -28.542482447 0.619863341865 151.523707549 0.00039214649948 -42.3535984009 0.481999852585 147.852449008
9.675 0.408402832787 -61.7388373449 0.26990791745 -150.026429011 0.614405658603 -128.677802791 0.6187588927 -31.2460179861 0.26990791745 -150.026429011 0.408860198725 -61.6133533201 0.613453856642 -128.630545547 0.619400886472 148.819942959 0.614405658603 -128.677802791 0.613453856642 -128.630545547 0.496165117218 17.3078582098 0.000387537519201 -46.2163502639 0.6187588927 -31.2460179861 0.619400886472 148.819942959 0.000387537519199 -46.2163502626 0.483197500488 145.307906983
9.7 0.406973690183 -64.5479638918 0.270182912451 -153.399626973 0.615709669557 -132.949607972 0.618284129679 -33.9446722713 0.270182912451 -153.399626973 0.407428650729 -64.4214502394 0.614754690628 -132.90246785 0.618934416295 146.121044442 0.615709669557 -132.949607972 0.614754690628 -132.90246785 0.492928009637 11.8638782628 0.000383004020394 -50.0378929835 0.618284129679 -33.9446722713 0.618934416296 146.121044442 0.00038300402039 -50.0378929817 0.4844014624 142.766550658
9.725 0.405538582494 -67.3489906006 0.270474249154 -156.767694074 0.617007843939 -137.213376958 0.617805408178 -36.6385279455 0.270474249154 -156.767694074 0.405991060691 -67.2215189804 0.616049820036 -137.166357524 0.618463921086 143.426929355 0.617007843939 -137.213376958 0.616049820036 -137.166357524 0.489677115818 6.43245992135 0.000378556761711 -53.8173790521 0.617805408178 -36.6385279455 0.618463921086 143.426929355 0.000378556761707 -53.81737905 0.485611689327 140.22831677
9.75 0.404096645822 -70.1417502466 0.270780405547 -160.130853295 0.61830138279 -141.469413245 0.617322720895 -39.3276662297 0.270780405547 -160.130853295 0.40454657412 -70.013396323 0.617340444759 -141.42251872 0.617989389516 140.737516495 0.61830138279 -141.469413245 0.617340444759 -141.42251872 0.486409201612 1.01295148692 0.000374206928198 -57.5540245822 0.617322720895 -39.3276662297 0.617989389516 140.737516495 0.000374206928194 -57.5540245798 0.48682813483 137.693142976
9.775 0.402647150305 -72.9260620276 0.271099837967 -163.489311062 0.619591394094 -145.718021985 0.616836059588 -42.0121669678 0.271099837967 -163.489311062 0.403094470595 -72.7969055017 0.618627671567 -145.671257252 0.617510809215 138.05272606 0.619591394094 -145.718021985 0.618627671567 -145.671257252 0.483121155754 -4.39532700526 0.000369966134561 -61.2471265468 0.616836059588 -42.0121669678 0.617510809215 138.05272606 0.000369966134557 -61.2471265442 0.488050754935 135.16096783
9.8 0.401189502922 -75.7017324651 0.271430984117 -166.84325732 0.62087889255 -149.959509714 0.616345415081 -44.692108671 0.271430984117 -166.84325732 0.401634166522 -75.5718571021 0.61991251388 -149.912880327 0.617028166804 135.372479606 0.62087889255 -149.959509714 0.61991251388 -149.912880327 0.479809996293 -9.79308300643 0.000365846423288 -64.8960819756 0.616345415081 -44.692108671 0.617028166804 135.372479606 0.000365846423284 -64.896081973 0.489279508042 132.631730754
9.825 0.39972325007 -78.4685563203 0.271772265983 -170.192865623 0.622164799499 -154.194184103 0.61585077727 -47.3675685598 0.271772265983 -170.192865623 0.400165217665 -78.3380499702 0.621195891683 -154.147696295 0.61654144793 132.696700004 0.622164799499 -154.194184103 0.621195891683 -154.147696295 0.476472876716 -15.1810507464 0.000361860256605 -68.5004090615 0.61585077727 -47.3675685598 0.61654144793 132.696700004 0.000361860256601 -68.5004090589 0.490514354843 130.10537201
9.85 0.39824807996 -81.2263175262 0.272122092668 -173.538293238 0.623449942986 -158.422353725 0.615352135127 -50.0386226052 0.272122092668 -173.538293238 0.398687321501 -81.0952721389 0.622478631598 -158.376014417 0.6160506373 130.025311402 0.623449942986 -158.422353725 0.622478631598 -158.376014417 0.473107091825 -20.5599906072 0.000358020501184 -72.0597700528 0.615352135128 -50.0386226052 0.6160506373 130.025311402 0.000358020501181 -72.0597700504 0.491755258231 127.58183268
9.875 0.39676382485 -83.974790141 0.27247886314 -176.879681265 0.624735057958 -162.64432784 0.614849476703 -52.7053455686 0.27247886314 -176.879681265 0.397200319401 -83.843301775 0.623761467065 -162.598144646 0.615555718719 127.358239185 0.624735057958 -162.64432784 0.623761467065 -162.598144646 0.469710083427 -25.9306885858 0.00035434040453 -75.5739957128 0.614849476703 -52.7053455686 0.615555718719 127.358239185 0.000354340404528 -75.5739957107 0.493002183223 125.061054635
9.9 0.395270463127 -86.713739328 0.272840968921 179.782845237 0.626020786563 -166.860416198 0.614342789126 -55.3678110398 0.272840968921 179.782845237 0.395704198665 -86.5819081525 0.625045038644 -166.81439743 0.615056675127 124.695409941 0.626020786563 -166.860416198 0.625045038644 -166.81439743 0.466279445895 -31.2939558521 0.000350833561979 -79.0431110111 0.614342789126 -55.3678110398 0.615056675127 124.695409941 0.000350833561978 -79.0431110093 0.494255096875 122.542980516
9.925 0.393768121275 -89.4429223671 0.273206796725 176.449177133 0.627307678557 -171.070928855 0.613832058606 -58.0260914752 0.273206796725 176.449177133 0.394199094431 -89.3108526574 0.62632989442 -171.025083533 0.614553488632 122.036751419 0.627307678557 -171.070928855 0.62632989442 -171.025083533 0.462812931668 -36.650628408 0.000347513873336 -82.4673615861 0.613832058606 -58.0260914752 0.614553488632 122.036751419 0.000347513873335 -82.4673615848 0.495513968203 120.027553709
9.95 0.392257075715 -92.1620897066 0.273574731056 173.119221086 0.628596191795 -175.276176014 0.613317270434 -60.6802582329 0.273574731056 173.119221086 0.392685291474 -92.0298898325 0.627616490486 -175.230513869 0.614046140551 119.382192494 0.628596191795 -175.276176014 0.627616490486 -175.230513869 0.459308456754 -42.0015668498 0.000344395488281 -85.8472403782 0.613317270434 -60.6802582329 0.614046140551 119.382192494 0.00034439548828 -85.8472403774 0.496778768107 117.514718325
9.975 0.390737754553 -94.8709860626 0.273943156795 169.792899458 0.629886692808 -179.476467876 0.612798408979 -63.3303816086 0.273943156795 169.792899458 0.391163225892 -94.7387684693 0.628905191516 -179.430999357 0.613534611446 116.731663136 0.629886692808 -179.476467876 0.628905191516 -179.430999357 0.455764106306 -47.3476562362 0.000341492739915 -89.1835136867 0.612798408979 -63.3303816086 0.613534611446 116.731663136 0.000341492739914 -89.1835136863 0.498049469294 115.00441918
10 0.389210739219 -97.5693515751 0.274310461772 166.470150208 0.631179457442 176.327885479 0.612275457692 -65.9765308689 0.274310461772 166.470150208 0.389633486691 -97.4372327566 0.630196271403 176.373149204 0.613018881158 114.085094369 0.631179457442 176.327885479 0.630196271403 176.373149204 0.452178140323 -52.6898060632 0.000338820066061 -92.4772457638 0.612275457692 -65.9765308689 0.613018881158 114.085094369 0.00033882006606 -92.4772457639 0.499326046199 112.496601771
10.025 0.387676766002 -100.256923032 0.274675039368 163.150926829 0.632474671571 172.136574209 0.611748399097 -68.6187742846 0.274675039368 163.150926829 0.388096817272 -100.125023496 0.631489913967 172.181621245 0.612498928848 111.442418242 0.632474671571 172.136574209 0.631489913967 172.181621245 0.448548999557 -58.0289503438 0.000336391918303 -95.7298209332 0.611748399097 -68.6187742846 0.612498928848 111.442418242 0.000336391918301 -95.7298209337 0.500608474913 109.991212261
10.05 0.386136727469 -102.933435171 0.275035291141 159.835198293 0.633772431867 167.949288794 0.6112172148 -71.2571791626 0.275035291141 159.835198293 0.386554116786 -102.801879393 0.632786213717 167.994106515 0.611974733033 108.803567792 0.633772431867 167.949288794 0.632786213717 167.994106515 0.444875311695 -63.3660477902 0.000334222659188 -98.9429621187 0.6112172148 -71.2571791626 0.611974733033 108.803567792 0.000334222659186 -98.9429621196 0.501896733109 107.488197457
10.075 0.384591673744 -105.59862207 0.275389629516 156.522949036 0.63507274662 163.765720109 0.610681885482 -73.8918118768 0.275389629516 156.522949036 0.385006441364 -105.467538445 0.634085176675 163.810295156 0.611446271622 106.168477014 0.63507274662 163.765720109 0.634085176675 163.810295156 0.441155897862 -68.7020820942 0.0003323264485 -102.118744617 0.610681885482 -73.8918118768 0.611446271622 106.168477014 0.000332326448497 -102.118744618 0.50319079997 104.987504796
10.1 0.383042813625 -108.252218643 0.275736480557 153.214178972 0.636375536619 159.585559476 0.610142390903 -76.5227378981 0.275736480557 153.214178972 0.38345500518 -108.121739415 0.635386721246 159.629877754 0.610913521951 103.537080827 0.636375536619 159.585559476 0.635386721246 159.629877754 0.437389779539 -74.038062301 0.000330717120072 -105.259603949 0.610142390903 -76.5227378981 0.610913521951 103.537080827 0.000330717120068 -105.25960395 0.504490656112 102.489082322
10.125 0.381491515493 -110.893962242 0.276074286835 149.908903545 0.637680636079 155.408498693 0.6095987099 -79.1500218239 0.276074286835 149.908903545 0.381901181304 -110.764223436 0.636690679148 155.452545368 0.610376460819 100.909315043 0.637680636079 155.408498693 0.636690679148 155.452545368 0.433576185938 -79.375023267 0.000329408051182 -108.368336693 0.6095987099 -79.1500218239 0.610376460819 100.909315043 0.000329408051178 -108.368336694 0.505796283518 99.9928786776
10.15 0.379939307978 -113.5235944 0.276401510449 146.607153823 0.63898779362 151.234230051 0.609050820395 -81.7737274061 0.276401510449 146.607153823 0.380346502322 -113.394735733 0.637996796384 151.277989547 0.609835064526 98.2851163332 0.63898779362 151.234230051 0.637996796384 151.277989547 0.429714561914 -84.7140261938 0.000328412027133 -111.448093373 0.609050820395 -81.7737274061 0.609835064526 98.2851163332 0.000328412027128 -111.448093374 0.507107665461 97.4988430797
10.175 0.378387880313 -116.140862697 0.27671663619 143.308976632 0.640296673302 147.062446321 0.608498699392 -84.393917579 0.27671663619 143.308976632 0.378792660638 -116.01302748 0.639304734273 147.105902317 0.609289308902 95.6644222015 0.640296673302 147.062446321 0.639304734273 147.105902317 0.425804576471 -90.0561592256 0.000327741104147 -114.502362697 0.608498699392 -84.393917579 0.609289308902 95.6644222015 0.000327741104142 -114.502362698 0.508424786436 95.0069253099
10.2 0.376839082318 -118.745522791 0.277018174915 140.014434748 0.641606855712 142.892840722 0.60794232299 -87.0106544861 0.277018174915 140.014434748 0.377241508412 -118.618857815 0.640614070538 142.935976152 0.608739169344 93.0471709494 0.641606855712 142.892840722 0.640614070538 142.935976152 0.421846131915 -95.4025380969 0.000327406474109 -117.534946784 0.60794232299 -87.0106544861 0.608739169344 93.0471709494 0.000327406474104 -117.534946785 0.509747632086 92.5170756973
10.225 0.375294923929 -121.3373406 0.277304667146 136.72360713 0.642917839108 138.725106869 0.607381666384 -89.6239995062 0.277304667146 136.72360713 0.375695057051 -121.211996013 0.641924300445 138.767903919 0.608184620845 90.4333016478 0.642917839108 138.725106869 0.641924300445 138.767903919 0.417839373725 -100.754306813 0.000327418334992 -120.549927394 0.607381666384 -89.6239995062 0.608184620845 90.4333016478 0.000327418334987 -120.549927395 0.511076189135 90.029245105
10.25 0.373757574197 -123.916094668 0.277574686941 133.436589211 0.64422904063 134.558938693 0.606816703881 -92.2340132788 0.277574686941 133.436589211 0.374155476168 -123.792223828 0.643234838015 134.601378798 0.607625638026 87.8227541061 0.64422904063 134.558938693 0.643234838015 134.601378798 0.413784701179 -106.112638343 0.000327785770887 -123.55162362 0.606816703881 -92.2340132788 0.607625638026 87.8227541061 0.000327785770882 -123.551623621 0.512410445307 87.543384916
10.275 0.372229359652 -126.481578704 0.277826846071 130.153493249 0.645539797579 130.394030334 0.606247408908 -94.8407557292 0.277826846071 130.153493249 0.372625091915 -126.359338022 0.644545017302 130.436094178 0.607062195168 85.2154688428 0.645539797579 130.394030334 0.644545017302 130.436094178 0.409682778799 -111.478735304 0.000328516645467 -126.54454197 0.606247408908 -94.8407557292 0.607062195168 85.2154688428 0.000328516645463 -126.544541971 0.513750389265 85.0594470203
10.3 0.370712761932 -129.033604313 0.278059798556 126.874448731 0.646849368776 126.230076008 0.605673754027 -97.4442860928 0.278059798556 126.874448731 0.371106384589 -128.913153074 0.645854093747 126.271743522 0.606494266236 82.6113870558 0.646849368776 126.230076008 0.645854093747 126.271743522 0.405534548638 -116.853830603 0.000329617512396 -129.533320176 0.605673754027 -97.4442860928 0.606494266236 82.6113870558 0.000329617512392 -129.533320177 0.515096010529 82.5773838018
10.325 0.369210414572 -131.57200392 0.278272245597 123.599602844 0.648156936001 122.066769845 0.605095710958 -100.044662939 0.278272245597 123.599602844 0.369601985397 -131.453504087 0.647161245622 122.108020203 0.605921824906 80.0104505926 0.648156936001 122.066769845 0.647161245622 122.108020203 0.401341243462 -122.239188006 0.000331093545644 -132.522666464 0.605095710958 -100.044662939 0.605921824906 80.0104505926 0.00033109354564 -132.522666464 0.516447299407 80.0971481261
10.35 0.367725098824 -134.096633894 0.278462940975 120.329121006 0.649461605528 117.903805687 0.604513250594 -102.641944193 0.278462940975 120.329121006 0.368114672275 -133.980249889 0.648465575563 117.944617309 0.605344844595 77.4126019215 0.649461605528 117.903805687 0.648465575563 117.944617309 0.39710440084 -127.636102603 0.000332948491981 -135.51729629 0.604513250594 -102.641944193 0.605344844595 77.4126019215 0.000332948491978 -135.517296291 0.517804246919 77.6186933285
10.375 0.366259738405 -136.607377858 0.278630696945 117.063187459 0.65076240977 113.740876861 0.603926343032 -105.236187162 0.278630696945 117.063187459 0.366647364626 -136.493276325 0.649766112218 113.781227404 0.604763298477 74.8177841019 0.65076240977 113.740876861 0.649766112218 113.781227404 0.39282587816 -133.045901098 0.000335184647043 -138.521868723 0.603926343032 -105.236187162 0.604763298477 74.8177841019 0.000335184647041 -138.521868723 0.519166844723 75.1419732022
10.4 0.36481739302 -139.104150203 0.278774390725 113.80200594 0.652058309033 109.577675898 0.603334957598 -107.827448555 0.278774390725 113.80200594 0.365203116857 -138.992499744 0.651061812006 109.617542259 0.604177159512 72.225940756 0.652058309033 109.577675898 0.651061812006 109.617542259 0.388507868578 -138.469941899 0.000337802855436 -141.540924647 0.603334957598 -107.827448555 0.604177159512 72.225940756 0.000337802855434 -141.540924647 0.520535085037 72.6669419871
10.425 0.363401250551 -141.586899779 0.278892971617 110.545800401 0.653348193409 105.413894222 0.60273906288 -110.415784506 0.278892971617 110.545800401 0.363785110591 -141.477870672 0.652351561003 105.453252531 0.60358640046 69.637016039 0.653348193409 105.413894222 0.652351561003 105.453252531 0.384152917878 -143.909614916 0.00034080253439 -144.57882888 0.60273906288 -110.415784506 0.60358640046 69.637016039 0.000340802534388 -144.57882888 0.521908960558 70.1935543591
10.45 0.362014617777 -144.055613768 0.278985468849 107.294815816 0.654630884797 101.249221779 0.60213862677 -113.001250594 0.278985468849 107.294815816 0.362396645412 -143.949377656 0.653634176982 101.288047399 0.602990993903 67.0509546111 0.654630884797 101.249221779 0.653634176982 101.288047399 0.379763942218 -149.366341004 0.000344181719597 -147.639718025 0.60213862677 -113.001250594 0.602990993903 67.0509546111 0.000344181719595 -147.639718026 0.523288464387 67.7217654186
10.475 0.36066090947 -146.510321716 0.279051000232 104.04931904 0.655905139094 97.0833466214 0.6015336165 -115.583901869 0.279051000232 104.04931904 0.361041128014 -146.407051272 0.6549084116 97.121614139 0.60239091226 64.4677016078 0.655905139094 97.0833466214 0.6549084116 97.121614139 0.375344246708 -154.841570959 0.00034793713107 -150.727455541 0.6015336165 -115.583901869 0.60239091226 64.4677016078 0.000347937131068 -150.727455541 0.524673589944 65.2515306811
10.5 0.359343635751 -148.951099706 0.279088781704 100.809599747 0.657169648553 92.9159544213 0.600923998694 -118.16379287 0.279088781704 100.809599747 0.359722059614 -148.850968279 0.656172952765 92.9536376444 0.601786127801 61.8872026116 0.657169648553 92.9159544213 0.656172952765 92.9536376444 0.370897544736 -160.336783952 0.000352064256263 -153.845595087 0.600923998694 -118.16379287 0.601786127801 61.8872026116 0.000352064256261 -153.845595087 0.526064330884 62.7828060659
10.525 0.358066387553 -151.378074665 0.279098137888 97.5759714307 0.658423044323 88.7467279254 0.60030973942 -120.740977648 0.279098137888 97.5759714307 0.358443021486 -151.281255898 0.657426427184 88.7837998756 0.601176612661 59.3094036229 0.658423044323 88.7467279254 0.657426427185 88.7837998756 0.366427977933 -165.853485289 0.00035655744728 -156.997352773 0.60030973942 -120.740977648 0.601176612661 59.3094036229 0.000356557447278 -156.997352773 0.52746068101 60.3155478867
10.55 0.35683282004 -153.791428762 0.279078513768 94.3487724701 0.659663899204 84.5753463287 0.599690804246 -123.315509786 0.279078513768 94.3487724701 0.357207658474 -153.698096181 0.658667403129 84.611779233 0.600562338852 56.734251031 0.659663899204 84.5753463287 0.658667403129 84.611779233 0.361940136624 -171.393203341 0.000361410028762 -160.185588447 0.599690804246 -123.315509786 0.600562338852 56.734251031 0.00036141002876 -160.185588447 0.528862634185 57.8497128414
10.575 0.355646633833 -156.191403877 0.279029487623 91.1283672601 0.660890730607 80.4014845636 0.599067158307 -125.887442424 0.279029487623 91.1283672601 0.356019660322 -156.101730469 0.659894393407 80.4372498449 0.599943278269 54.1616915855 0.660890730607 80.4014845636 0.659894393407 80.4372498449 0.35743908058 -176.957485492 0.000366614413078 -163.412795805 0.599067158307 -125.887442424 0.599943278269 54.1616915855 0.000366614413077 -163.412795805 0.530270184239 55.3852580026
10.6 0.354511553871 -158.578306115 0.278950785368 87.9151473999 0.662102003769 76.2248124923 0.598438766372 -128.456828276 0.278950785368 87.9151473999 0.354882740663 -158.492463876 0.66110585859 76.2598807576 0.599319402701 51.5916723665 0.662102003769 76.2248124923 0.66110585859 76.2598807576 0.352930359813 177.452107096 0.000372162219548 -166.68110072 0.598438766372 -128.456828276 0.599319402701 51.5916723665 0.000372162219547 -166.68110072 0.531683324871 52.9221408074
10.625 0.353431305743 -160.952510316 0.278842296483 84.7095329356 0.663296135214 72.0449939898 0.597805592925 -131.023719656 0.278842296483 84.7095329356 0.353800613485 -160.870669788 0.662300210489 72.0793350166 0.598690683837 49.0241407562 0.663296135214 72.0449939898 0.662300210489 72.0793350166 0.348420035111 171.834006102 0.000378044394789 -169.992266921 0.597805592925 -131.023719656 0.598690683837 49.0241407562 0.000378044394788 -169.992266921 0.533102049554 50.4603190485
10.65 0.352409589282 -163.314464535 0.27870409171 81.5119736493 0.664471496486 67.8616859024 0.597167602246 -133.588168499 0.27870409171 81.5119736493 0.352776966884 -163.236794321 0.663475815907 67.8952686225 0.598057093269 46.4590444085 0.664471496486 67.8616859024 0.663475815907 67.8952686225 0.343914697932 166.186644303 0.000384251331643 -173.347708011 0.597167602246 -133.588168499 0.598057093269 46.4590444085 0.000384251331643 -173.347708011 0.534526351428 47.9997508639
10.675 0.351450049221 -165.664694437 0.278536442775 78.3229503838 0.665626418187 63.6745368658 0.596524758504 -136.15022638 0.278536442775 78.3229503838 0.351815433902 -165.591360711 0.664631000693 63.7073293459 0.597418602498 43.8963312203 0.665626418187 63.6745368658 0.664631000693 63.7073293459 0.339421489195 160.508465719 0.000390772984646 -176.74850465 0.596524758504 -136.15022638 0.597418602498 43.8963312203 0.000390772984647 -176.74850465 0.535956223193 45.5403947278
10.7 0.350556242704 -168.003807561 0.278339844362 75.1429763908 0.666759194311 59.4831859611 0.595877025853 -138.709944543 0.278339844362 75.1429763908 0.350919560223 -167.934973571 0.665764054106 59.5151553807 0.596775182936 41.3359493014 0.666759194311 59.4831859611 0.665764054106 59.5151553807 0.334948116394 154.797937952 0.000397598980489 179.804574232 0.595877025853 -138.709944543 0.596775182936 41.3359493014 0.000397598980491 179.804574232 0.537391656995 43.0822094411
10.725 0.349731603408 -170.332497404 0.278115038678 71.9725986841 0.667868086915 55.2872611888 0.595224368543 -141.26737392 0.278115038678 71.9725986841 0.350092768504 -170.268322975 0.666873233503 55.3183738136 0.596126805907 38.7778469439 0.667868086915 55.2872611888 0.666873233503 55.3183738136 0.330502868388 149.053567022 0.000404718722413 176.31104733 0.595224368543 -141.26737392 0.596126805907 38.7778469439 0.000404718722415 176.31104733 0.53883264431 40.6251541213
10.75 0.348979402076 -172.651547264 0.277863042936 68.8123993748 0.668951331133 51.0863777307 0.594566751031 -143.822565155 0.277863042936 68.8123993748 0.349338319133 -172.592188307 0.66795676939 51.1165988823 0.59547344265 36.2219725926 0.668951331133 51.0863777307 0.66795676939 51.1165988823 0.326094627071 143.273915028 0.000412121487971 172.770695004 0.594566751031 -143.822565155 0.59547344265 36.2219725926 0.000412121487974 172.770695004 0.540279175818 38.1691881932
10.775 0.348302703259 -174.961833783 0.277585180182 65.6629969588 0.670007140548 46.8801359715 0.593904138108 -146.375568631 0.277585180182 65.6629969588 0.348659267201 -174.907441821 0.669012870824 46.9094299916 0.594815064316 33.6682748135 0.670007140548 46.8801359715 0.669012870824 46.9094299916 0.321732875003 137.457620994 0.000419796520014 169.18353239 0.593904138108 -146.375568631 0.594815064316 33.6682748135 0.000419796520018 169.18353239 0.541731241272 35.714271379
10.8 0.347704318101 -177.264330138 0.277283113934 62.5250475182 0.671033712939 42.6681192409 0.593236495031 -148.926434494 0.277283113934 62.5250475182 0.348058415529 -177.215051855 0.670039731197 42.6964494501 0.594151641976 31.1167022631 0.671033712939 42.6681192409 0.670039731197 42.6964494501 0.317427697965 131.603425201 0.000427733111126 165.549782346 0.593236495031 -148.926434494 0.594151641976 31.1167022631 0.000427733111131 165.549782346 0.543188829363 33.2603636881
10.825 0.347186753055 -179.560108841 0.276958887203 59.399245787 0.672029236411 38.4498912352 0.592563787666 -151.475212677 0.276958887203 59.399245787 0.347538263625 -179.516085666 0.671035534413 38.4772198852 0.593483146614 28.5672036566 0.672029236411 38.4498912352 0.671035534413 38.4772198852 0.313189781252 125.710197366 0.000435920682083 161.869848903 0.592563787666 -151.475212677 0.593483146614 28.5672036566 0.000435920682088 161.869848903 0.54465192757 30.8074254072
10.85 0.346752154439 178.149655878 0.276614966538 56.2863260186 0.672991895916 34.2249930662 0.591885982644 -154.021952932 0.276614966538 56.2863260186 0.347100952496 178.188288147 0.671998461452 34.2512812838 0.592809549132 26.0197277357 0.672991895916 34.2249930662 0.671998461452 34.2512812838 0.309030398393 119.776968915 0.000444348855193 158.144291694 0.591885982644 -154.021952932 0.592809549132 26.0197277357 0.000444348855196 158.144291694 0.546120522012 28.3554170899
10.875 0.346402248758 175.86368609 0.276254291885 53.1870625754 0.673919880154 29.9929398763 0.591203047525 -156.566704853 0.276254291885 53.1870625754 0.346748205213 175.896797608 0.672926697334 30.0181476 0.592130820353 23.4742232355 0.673919880154 29.9929398763 0.672926697334 30.0181476 0.304961390888 113.802969597 0.000453007523605 154.373801741 0.591203047525 -156.566704853 0.592130820353 23.4742232355 0.000453007523606 154.373801741 0.547594597279 25.9042995459
10.9 0.346138278653 173.580598536 0.275880333142 50.1022701396 0.674811388871 25.7532169499 0.590514950978 -159.109517907 0.275880333142 50.1022701396 0.346481263102 173.608065665 0.673818438471 25.7773028557 0.59144693102 20.9306388516 0.674811388871 25.7532169499 0.673818438471 25.7773028557 0.300995137459 107.78766854 0.000461886917919 150.559178844 0.590514950978 -159.109517907 0.59144693102 20.9306388516 0.000461886917917 150.559178844 0.549074136263 23.4540338303
10.925 0.345960934186 171.29890323 0.275497154504 47.03280342 0.675664640494 21.5052752329 0.589821662968 -161.650441464 0.275497154504 47.03280342 0.346300817276 171.320608725 0.674671900385 21.5281966485 0.590757851806 18.388923205 0.675664640494 21.5052752329 0.674671900385 21.5281966485 0.297144511328 101.730819772 0.000470977671616 146.701310706 0.589821662968 -161.650441464 0.590757851806 18.388923205 0.000470977671611 146.701310707 0.550559119974 21.0045812322
10.95 0.345870278911 169.017002137 0.275109487856 43.9795561934 0.67647788011 17.2485261584 0.589123154967 -164.189524829 0.275109487856 43.9795561934 0.346206934944 169.032835244 0.675485325759 17.2702389647 0.590063553311 15.8490248071 0.67647788011 17.2485261584 0.675485325759 17.2702389647 0.293422824048 95.6325120436 0.000480270887043 142.80115387 0.589123154967 -164.189524829 0.590063553311 15.8490248071 0.000480270887035 142.801153871 0.55204952734 18.5559032632
10.975 0.345865669818 166.733187716 0.274722816727 40.943459486 0.677249387692 12.9823356535 0.588419400173 -166.726817274 0.274722816727 40.943459486 0.346198979588 166.743044171 0.676256992767 13.0027941705 0.589364006076 13.3108920233 0.677249387692 12.9823356535 0.676256992767 13.0027941705 0.289843754624 89.4932225802 0.000489758203912 138.859716412 0.588419400173 -166.726817274 0.589364006076 13.3108920233 0.0004897582039 138.859716413 0.553545335004 16.1079616455
11 0.345945669749 164.445641069 0.274343472602 37.9254786433 0.677977486506 8.7060171768 0.58771037375 -169.262368073 0.274343472602 37.9254786433 0.346275523606 164.449422991 0.676985223586 8.7251740318 0.588659180586 10.7744730349 0.677977486506 8.7060171768 0.676985223586 8.7251740318 0.286421262954 83.3138742077 0.000499431872511 134.878042337 0.58771037375 -169.262368073 0.588659180586 10.7744730349 0.000499431872494 134.878042339 0.555046517096 13.6607182992
11.025 0.346107950381 162.152429415 0.273978745756 34.9266089838 0.678660551561 4.41882360409 0.586996053088 -171.796226536 0.273978745756 34.9266089838 0.346434251514 162.150045074 0.677668392975 4.43662957892 0.587949047281 8.23971579986 0.678660551561 4.41882360408 0.677668392975 4.43662957892 0.283169487111 77.0958950112 0.000509284834133 130.857197531 0.586996053088 -171.796226536 0.587949047281 8.23971579986 0.000509284834112 130.857197532 0.556553044998 11.2141353298
11.05 0.346349183322 159.85150258 0.273637013197 31.9478696518 0.679297017909 0.119937737158 0.58627641809 -174.328442047 0.273637013197 31.9478696518 0.346671851248 159.84286603 0.678304936721 0.13634159157 0.587233576561 5.70656801179 0.679297017908 0.119937737156 0.678304936721 0.13634159157 0.2801026247 70.8412794691 0.000519310811595 126.798257077 0.58627641809 -174.328442047 0.587233576561 5.70656801179 0.000519310811572 126.798257079 0.558064887086 8.76817501412
11.075 0.34666491632 157.540688186 0.273327886863 28.9902951962 0.679885388526 -4.19153883728 0.585551451474 -176.859064106 0.273327886863 28.9902951962 0.346983890549 157.525718746 0.678893359697 -4.17659057084 0.586512738794 3.1749770564 0.679885388526 -4.19153883728 0.678893359697 -4.17659057083 0.277234799525 64.5526497799 0.000529504413121 122.70229374 0.585551451474 -176.859064106 0.586512738794 3.1749770564 0.000529504413096 122.702293743 0.559582008456 6.32279978698
11.1 0.347049430992 155.217685151 0.27306238589 26.0549242868 0.680424241405 -8.51659887852 0.58482113912 -179.388142365 0.27306238589 26.0549242868 0.347364674862 155.196306719 0.679432243152 -8.50316213338 0.58578650432 0.644889965889 0.680424241405 -8.51659887852 0.679432243152 -8.50316213338 0.274579916047 58.2333159515 0.000539861253435 118.570367338 0.58482113912 -179.388142365 0.58578650432 0.644889965887 0.000539861253411 118.57036734 0.561104370629 3.877972226
11.125 0.347495577868 152.880055086 0.272853137598 23.1427848422 0.680912235304 -12.8563450326 0.584085470438 178.084273325 0.272853137598 23.1427848422 0.347807082513 152.852195271 0.679920250709 -12.8444784859 0.585054843444 -1.88374662973 0.680912235304 -12.8563450326 0.679920250709 -12.8444784859 0.272151505785 51.887333182 0.000550378096553 114.403514706 0.584085470438 178.084273325 0.585054843444 -1.88374662973 0.000550378096531 114.403514708 0.562631931237 1.43365503648
11.15 0.347994583668 150.525211037 0.272714612941 20.2548746691 0.681348113432 -17.2120083078 0.583344438794 175.558132871 0.272714612941 20.2548746691 0.348302372112 150.490800087 0.68035613233 -17.201773705 0.584317726425 -4.41098655461 0.681348113432 -17.2120083078 0.68035613233 -17.201773705 0.269962571794 45.5195551756 0.00056105302554 110.202739916 0.583344438794 175.558132871 0.584317726425 -4.41098655461 0.000561053025522 110.202739917 0.564164643678 -1.01018896475
11.175 0.348535824673 148.150402881 0.272663403502 17.3921365011 0.681730703999 -21.5849701429 0.582598041969 173.03338589 0.272663403502 17.3921365011 0.348839956036 148.109372387 0.680738725211 -21.5764326788 0.583575123446 -6.93688414292 0.681730703999 -21.5849701429 0.680738725211 -21.5764326788 0.268025439886 39.1356823708 0.000571885645535 105.969004328 0.582598041969 173.03338589 0.583575123446 -6.93688414292 0.000571885645523 105.969004329 0.565702456751 -3.45359686621
11.2 0.349106558485 145.752698457 0.272718548868 14.5554260598 0.682058916173 -25.9767889009 0.581846282692 170.50998166 0.272718548868 14.5554260598 0.349407132307 145.704979798 0.681066950157 -25.9700176669 0.582827004556 -9.46149429904 0.682058916173 -25.9767889009 0.681066950157 -25.9700176669 0.266351628208 32.7423046442 0.000582877327503 101.70321602 0.581846282692 170.50998166 0.582827004556 -9.46149429904 0.0005828773275 101.70321602 0.567245314257 -5.89660567951
11.225 0.349691604361 143.328959201 0.272901925462 11.7454714317 0.682331729376 -30.3892318452 0.581089169242 167.987869067 0.272901925462 11.7454714317 0.349988765058 143.274481704 0.681339801376 -30.3843003574 0.582073339581 -11.9848725627 0.682331729376 -30.3892318452 0.681339801376 -30.3843003574 0.264951750545 26.3469389472 0.000594031501729 97.406218015 0.581089169242 167.987869067 0.582073339581 -11.9848725627 0.000594031501735 97.4062180134 0.56879315457 -8.33925235808
11.25 0.350272959373 140.875808681 0.273238710832 8.96282163946 0.682548172987 -34.824313953 0.580326716141 165.466996549 0.273238710832 8.96282163945 0.350566900871 140.814497436 0.681556326804 -34.8213007782 0.581314097988 -14.5070751794 0.682548172987 -34.824313953 0.681556326803 -34.8213007782 0.26383547333 19.9580635417 0.000605354011874 93.0787746255 0.580326716141 165.466996549 0.581314097988 -14.5070751794 0.000605354011889 93.0787746222 0.570345910172 -10.7815738168
11.275 0.350829333623 138.389591838 0.273757941207 6.20778176478 0.682707292313 -39.2843453127 0.579558944962 162.947312044 0.273757941207 6.20778176477 0.35112030423 138.321365106 0.681715594834 -39.2833348137 0.580549248674 -17.0281591769 0.682707292313 -39.2843453127 0.681715594834 -39.2833348137 0.263011552363 13.5851520381 0.0006168535428 88.7215550916 0.579558944962 162.947312044 0.580549248674 -17.0281591769 0.000616853542822 88.7215550866 0.571903507148 -13.2236069528
11.3 0.351335582164 135.866322003 0.274493185196 3.48033131082 0.682808094881 -43.7719893761 0.578785885275 160.428762921 0.274493185196 3.48033131081 0.351623889793 135.791088127 0.681816641563 -43.7730726035 0.57977875967 -19.548182447 0.682808094881 -43.7719893761 0.681816641563 -43.7730726035 0.262487983425 7.23871227105 0.000628542138259 84.3351134612 0.578785885275 160.428762921 0.579778759669 -19.548182447 0.000628542138287 84.3351134546 0.573465864639 -15.6653886674
11.325 0.351762003582 133.301611691 0.275483363184 0.780021630863 0.682849468538 -48.2903350423 0.578007575781 157.911295926 0.275483363184 0.780021630844 0.352048021469 133.219265389 0.681858390079 -48.2936108071 0.579002597722 -22.067203833 0.682849468538 -48.2903350423 0.681858390079 -48.2936108071 0.262272312504 0.930337132299 0.000640435828299 79.9198634177 0.578007575781 157.911295926 0.579002597722 -22.067203833 0.00064043582833 79.9198634099 0.575032894247 -18.106955889
11.35 0.352073464298 130.690581662 0.276773750948 -1.89415288045 0.68283005896 -52.8429865083 0.577224065668 155.394857108 0.276773750948 -1.89415288047 0.352357637441 130.600999521 0.681839529488 -52.8485626809 0.578220727722 -24.5852832217 0.68283005896 -52.8429865083 0.681839529488 -52.8485626809 0.262372168414 -5.32722327287 0.00065255539099 75.4760463945 0.577224065668 155.394857108 0.578220727722 -24.5852832217 0.000652555391019 75.4760463863 0.576604499387 -20.5483455981
11.375 0.352228292213 128.027740519 0.278417218107 -4.54391664269 0.682748088486 -57.4341761372 0.576435416271 152.879391759 0.278417218107 -4.54391664271 0.352511144857 127.930775467 0.681758335692 -57.4421712302 0.577433111927 -27.1024816373 0.682748088486 -57.4341761372 0.681758335692 -57.4421712302 0.262796106371 -11.5199564861 0.000664927279218 71.0036908399 0.576435416271 152.879391759 0.577433111927 -27.1024816373 0.000664927279241 71.0036908323 0.578180574582 -22.9895948522
11.4 0.352176860965 125.306823902 0.280475768359 -7.17191664426 0.682601089516 -62.0689074199 0.575641703118 150.364844336 0.280475768359 -7.17191664428 0.352459005616 125.202298313 0.681612407302 -62.0794525309 0.576639708949 -29.6188613335 0.682601089516 -62.0689074199 0.681612407302 -62.0794525309 0.263554891247 -17.6324357961 0.000677584751281 66.5025598458 0.575641703118 150.364844336 0.576639708949 -29.6188613335 0.000677584751296 66.5025598399 0.57976100469 -25.4307408143
11.425 0.351859753378 122.520577415 0.283022470756 -9.78197977623 0.682385512518 -66.753137662 0.574843018489 147.851158401 0.283022470756 -9.78197977624 0.352141902045 122.40827437 0.681398276945 -66.7663788778 0.57584047244 -32.1344858779 0.682385512518 -66.753137662 0.681398276945 -66.7663788778 0.264663412511 -23.6476062749 0.00069056925439 61.9720834655 0.574843018489 147.851158401 0.57584047244 -32.1344858779 0.000690569254396 61.9720834624 0.581345664059 -27.8718207806
11.45 0.351205343879 119.660459962 0.286143901688 -12.3794394187 0.682096148274 -71.4940136523 0.57403947466 145.338276547 0.286143901688 -12.3794394187 0.351488322615 119.540111966 0.681110837884 -71.5101150508 0.575035349442 -34.6494202208 0.682096148274 -71.4940136523 0.681110837884 -71.5101150508 0.266143524262 -29.5464933911 0.000703932123777 57.4112708116 0.57403947466 145.338276547 0.575035349442 -34.6494202208 0.000703932123776 57.4112708116 0.582934415611 -30.3128722121
11.475 0.350126565866 116.716232394 0.289943258844 -14.9715527058 0.681725271924 -76.3001787652 0.573231208065 142.826140341 0.289943258844 -14.9715527058 0.35041133422 116.587506524 0.680742493941 -76.3193261997 0.574224278369 -37.1637307345 0.681725271924 -76.3001787652 0.680742493941 -76.3193261997 0.268028268027 -35.3078221464 0.00071773667788 52.8185952956 0.573231208065 142.826140341 0.574224278369 -37.1637307345 0.000717736677876 52.8185952977 0.58452710982 -32.7539327659
11.5 0.348516516051 113.675377439 0.294544365044 -17.5680383408 0.681261365329 -81.1821774929 0.572418384725 140.314690281 0.294544365044 -17.5680383408 0.348804193952 113.537855338 0.680281889841 -81.2045834153 0.573407186611 -39.6774852077 0.681261365329 -81.1821774929 0.680281889841 -81.2045834153 0.270368205512 -40.9075453938 0.000732060813298 48.1918439224 0.572418384725 140.314690281 0.573407186611 -39.6774852077 0.000732060813294 48.1918439226 0.586123583606 -35.1950403299
