! Generated from PyAEDT SolutionData; AEDT ExportNetworkData workaround
# GHz S MA R 50
9 0.255087086258 146.988487881 0.547841499888 -174.905449303 0.455144333648 -87.9833915839 0.653944879156 47.0077224687 0.547841499888 -174.905449303 0.255108396626 147.16978774 0.455445827803 -87.9503225318 0.653726620927 -132.93051199 0.455144333648 -87.9833915839 0.455445827803 -87.9503225318 0.76512266745 -169.179060801 0.00019297279742 -1.18047169015 0.653944879156 47.0077224687 0.653726620927 -132.93051199 0.000192972797419 -1.18047168989 0.380785455183 -115.384928978
9.025 0.253012723316 143.987767767 0.547653671668 -177.758132938 0.457069825289 -92.3901115046 0.653565025715 44.1013881544 0.547653671668 -177.758132938 0.253072876981 144.1780806 0.457385503366 -92.3575415693 0.653320845971 -135.836829488 0.457069825289 -92.3901115046 0.457385503366 -92.3575415693 0.76281673962 -175.162750173 0.000189370854148 -3.22701943741 0.653565025715 44.1013881544 0.653320845971 -135.836829488 0.000189370854149 -3.2270194351 0.382131679385 -118.127450029
9.05 0.250946792073 140.991372867 0.547465335984 179.397016581 0.45897841882 -96.7899897023 0.653181669486 41.2030762311 0.547465335984 179.397016581 0.251044778119 141.19108498 0.459308585041 -96.7579592126 0.65291187731 -138.735062491 0.45897841882 -96.7899897023 0.459308585041 -96.7579592126 0.760512415993 178.859714882 0.000186527789568 -5.08675711101 0.653181669486 41.2030762311 0.65291187731 -138.735062491 0.000186527789571 -5.08675710822 0.383483748922 -120.864393443
9.075 0.248889147871 137.998905212 0.547275999913 176.559788852 0.460871140901 -101.18300139 0.652794783094 38.3126355114 0.547275999913 176.559788852 0.249023868763 138.208397331 0.461216088903 -101.151551771 0.652499715636 -141.625363418 0.460871140901 -101.18300139 0.461216088903 -101.151551771 0.758209513576 172.888643545 0.000184521243722 -6.78442055645 0.652794783094 38.3126355114 0.652499715636 -141.625363418 0.000184521243726 -6.78442055407 0.384841639067 -123.595859014
9.1 0.246839576448 135.009953802 0.547085077327 173.729978546 0.462749144669 -105.569132322 0.65240433749 35.4299185943 0.547085077327 173.729978546 0.247009848 135.229600371 0.463109157098 -105.538306022 0.652084359286 -144.507881015 0.462749144669 -105.569132322 0.463109157098 -105.538306022 0.755907427469 166.924317032 0.000183420976867 -8.3530446277 0.65240433749 35.4299185943 0.652084359286 -144.507881015 0.00018342097687 -8.35304462612 0.386205327567 -126.321944301
9.125 0.244797790385 132.024094927 0.546891888977 170.907386368 0.464613706281 -109.948379718 0.652010302272 32.5547817297 0.546891888977 170.907386368 0.245002341788 132.254263409 0.464989054422 -109.918220141 0.651665804567 -147.382760487 0.464613706281 -109.948379718 0.464989054422 -109.918220141 0.753605179355 160.966986848 0.000183285280226 -9.83297301338 0.652010302272 32.5547817297 0.651665804567 -147.382760487 0.000183285280228 -9.83297301263 0.387574794556 -129.042744727
9.15 0.2427634262 129.040892555 0.546695663427 168.091819935 0.466466220685 -114.320753158 0.651612645956 29.6870846885 0.546695663427 168.091819935 0.243000900108 129.281942736 0.46685716412 -114.291304586 0.651244046009 -150.250143632 0.466466220685 -114.320753158 0.46685716412 -114.291304586 0.751301460052 155.016872874 0.000184157821926 -11.2698919857 0.651612645956 29.6870846885 0.651244046009 -150.250143632 0.000184157821927 -11.2698919856 0.388950022468 -131.75835368
9.175 0.240736042053 126.059898778 0.546495538722 165.283094581 0.468308196666 -118.686275422 0.651211336195 26.8266906393 0.546495538722 165.283094581 0.241004994728 126.312182077 0.468714982972 -118.657582942 0.65081907656 -153.11016896 0.468308196666 -118.686275422 0.468714982972 -118.657582942 0.748994666421 149.074161324 0.000186065416556 -12.7120665064 0.651211336195 26.8266906393 0.65081907656 -153.11016896 0.000186065416555 -12.7120665066 0.390330995955 -134.468862611
9.2 0.23871511603 123.080654282 0.546290564624 162.481034105 0.470141251255 -123.044983284 0.650806339952 23.97346603 0.546290564624 162.481034105 0.23901401755 123.344513072 0.470564115726 -123.01709271 0.650390887739 -155.962971814 0.470141251255 -123.044983284 0.470564115726 -123.01709271 0.746682933047 143.139002631 0.000189017089247 -14.2071676295 0.650806339952 23.97346603 0.650390887739 -155.962971814 0.000189017089246 -14.2071676298 0.391717701803 -137.174361128
9.225 0.236700044957 120.102688848 0.546079705345 159.68547145 0.471967103543 -127.396928255 0.650397623649 21.1272804751 0.546079705345 159.68547145 0.237027279499 120.37845578 0.472406268955 -127.369886043 0.649959469736 -158.808684479 0.471967103543 -127.396928255 0.472406268955 -127.369886043 0.744364159145 137.211509304 0.00019300457954 -15.7991969048 0.650397623649 21.1272804751 0.649959469736 -158.808684479 0.000193004579539 -15.7991969051 0.393110128858 -139.874937086
9.25 0.2346901437 117.125521838 0.545861842648 156.896249333 0.473787567986 -131.742177266 0.64998515328 18.2880066479 0.545861842648 156.896249333 0.235044009894 117.413519177 0.474243244391 -131.71603044 0.649524811493 -161.647436293 0.473787567986 -131.742177266 0.474243244391 -131.71603044 0.742036031188 131.291753784 0.000198004163303 -17.5259855495 0.64998515328 18.2880066479 0.649524811493 -161.647436293 0.000198004163303 -17.5259855496 0.394508267946 -142.570676673
9.275 0.232684644893 114.148662674 0.545635779273 154.113220841 0.475604547255 -136.080813296 0.649568894505 15.4555201778 0.545635779273 154.113220841 0.233063356269 114.449201649 0.47607693181 -136.055609363 0.649086900744 -164.479353754 0.475604547255 -136.080813296 0.47607693181 -136.055609363 0.739696041766 125.379766341 0.000203979448124 -19.417585977 0.649568894505 15.4555201778 0.649086900744 -164.479353754 0.000203979448126 -19.417585977 0.395912111801 -145.261664502
9.3 0.230682699056 111.171611286 0.54540024259 151.336249968 0.47742002469 -140.412935952 0.649148812732 12.6296995521 0.54540024259 151.336249968 0.231084384583 111.48499145 0.477909301518 -140.388722815 0.648645724036 -167.304560611 0.47742002469 -140.412935952 0.477909301518 -140.388722815 0.737341505195 119.475533026 0.000210884681649 -21.4956489735 0.649148812732 12.6296995521 0.648645724036 -167.304560611 0.000210884681652 -21.4956489734 0.397321654988 -147.947983683
9.325 0.228683375034 108.193858519 0.545153888453 148.565212139 0.479236056417 -144.73866198 0.648724873185 9.81042602178 0.545153888453 148.565212139 0.229106079774 108.520367114 0.479742396501 -144.715487855 0.648201266731 -170.123177968 0.479236056417 -144.73866198 0.479742396501 -144.715487855 0.734969570369 113.578993699 0.000218668118373 -23.7736751463 0.648724873185 9.81042602178 0.648201266731 -170.123177968 0.000218668118378 -23.7736751462 0.398736893837 -150.629715912
9.35 0.226685660728 105.21488649 0.544895305193 145.799994692 0.481054763183 -149.058125724 0.648297040957 6.9975835119 0.544895305193 145.799994692 0.227127346607 105.554797829 0.481578324284 -149.036039054 0.647753512987 -172.935324365 0.481054763183 -149.058125724 0.481578324284 -149.036039054 0.732577231346 107.690040148 0.000227275088284 -26.2579016734 0.648297040957 6.9975835119 0.647753512987 -172.935324365 0.000227275088291 -26.2579016733 0.400157826371 -153.30694154
9.375 0.224688464052 102.234168876 0.544623017726 143.040497351 0.482878321946 -153.371479539 0.64786528107 4.19105853525 0.544623017726 143.040497351 0.225147010765 102.587743733 0.483419248553 -153.350528903 0.647302445737 -175.741115873 0.482878321946 -153.371479539 0.483419248553 -153.350528903 0.730161336108 101.808514298 0.000236650549608 -28.9485482905 0.64786528107 4.19105853525 0.647302445737 -175.741115873 0.000236650549617 -28.9485482905 0.401584452241 -155.97973965
9.4 0.222690614076 99.2511711412 0.544335491753 140.286632681 0.484708957262 -157.67889414 0.647429558522 1.39074010977 0.544335491753 140.286632681 0.223163820142 99.6186561477 0.48526738057 -157.659128166 0.646848046648 -178.540666172 0.484708957262 -157.67889414 0.48526738057 -157.659128166 0.727718593914 95.9342065182 0.000246741041421 -31.8411787101 0.647429558522 1.39074010977 0.646848046648 -178.540666172 0.000246741041431 -31.8411787103 0.40301677266 -158.648188127
9.425 0.220690862313 96.2653506737 0.544031138035 137.538326533 0.48654893251 -161.980558905 0.646989838339 -1.40348032093 0.544031138035 137.538326533 0.22117644629 96.6469777257 0.487124970416 -161.96202618 0.646390296074 178.665913368 0.48654893251 -161.980558905 0.487124970416 -161.96202618 0.725245581614 90.0668540222 0.000257496052647 -34.9280009422 0.646989838339 -1.40348032093 0.646390296074 178.665913368 0.000257496052657 -34.9280009425 0.404454790336 -161.312363728
9.45 0.21868788411 93.2761568445 0.543708316731 134.79551849 0.488400540969 -166.276682133 0.64654608562 -4.19170896401 0.543708316731 134.79551849 0.219183485986 93.6721425122 0.488994298095 -166.259431111 0.645929173011 175.878513613 0.488400540969 -166.276682133 0.488994298095 -166.259431111 0.722738749263 84.2061393528 0.00026886888439 -38.1990024759 0.64654608562 -4.19170896401 0.645929173011 175.878513613 0.0002688688844 -38.1990024763 0.405898509415 -163.972342142
9.475 0.216680280104 90.2830309689 0.543365341807 132.058162321 0.490266096764 -170.567491251 0.646098265594 -6.97404975123 0.543365341807 132.058162321 0.217183462874 90.6935759111 0.490877664495 -170.551570163 0.645464655035 173.097027591 0.490266096764 -170.567491251 0.490877664495 -170.551570163 0.720194425317 78.3516889431 0.000280817108027 -41.6428762859 0.646098265594 -6.97404975123 0.645464655035 173.097027591 0.000280817108036 -41.6428762864 0.407347935418 -166.62819806
9.5 0.214666577706 87.2854061706 0.543000485529 129.326226437 0.49214792571 -174.853232984 0.645646343672 -9.7506044101 0.543000485529 129.326226437 0.215174829158 87.7106945496 0.492777382252 -174.838689746 0.644996718252 170.321350424 0.49214792571 -174.853232984 0.492777382252 -174.838689746 0.717608821666 72.5030717402 0.000293302722773 -45.2477349372 0.645646343672 -9.7506044101 0.644996718252 170.321350424 0.000293302722781 -45.2477349378 0.408803075181 -169.280005227
9.525 0.212645232591 84.282707141 0.54261198303 126.59969437 0.494048356028 -179.13417348 0.645190285503 -12.5214725329 0.54261198303 126.59969437 0.213155967309 84.722906036 0.494695766477 -179.121055602 0.644525337229 167.551379263 0.494048356028 -179.13417348 0.494695766477 -179.121055602 0.714978038714 66.6597978753 0.000306292104263 -49.0016338117 0.645190285503 -12.5214725329 0.644525337229 167.551379263 0.000306292104269 -49.0016338122 0.410263936799 -171.927836505
9.55 0.210614630172 81.2743497905 0.542198037014 123.878565275 0.495969708949 176.589401597 0.644730057033 -15.2867516438 0.542198037014 123.878565275 0.211125191768 81.7296086049 0.496635125375 176.601047107 0.64405048494 164.787013221 0.495969708949 176.589401597 0.496635125375 176.601047107 0.712298070691 60.8213173625 0.000319755817966 -52.8929349631 0.644730057033 -15.2867516438 0.64405048494 164.787013221 0.00031975581797 -52.8929349634 0.411730529571 -174.571763928
9.575 0.208573087015 78.2597407843 0.54175682259 121.162854457 0.497914289188 172.317187016 0.644265624569 -18.0465372632 0.54175682259 121.162854457 0.209080750615 78.730190644 0.498597750726 172.327313741 0.643572132698 162.028153317 0.497914289188 172.317187016 0.498597750726 172.327313741 0.709564811341 54.9870188085 0.000333668353211 -56.9105450462 0.644265624569 -18.0465372632 0.643572132698 162.028153317 0.000333668353213 -56.9105450464 0.413202863945 -177.211858749
9.6 0.206518852212 75.2382769601 0.541286492294 118.452593935 0.499884375255 168.048857951 0.643796954846 -20.800922972 0.541286492294 118.452593935 0.207020827196 75.7240300985 0.500585908203 168.057420158 0.643090250095 159.274702416 0.499884375255 168.048857951 0.500585908203 168.057420158 0.706774060129 49.1562281102 0.000348007817605 -61.0440580137 0.643796954846 -20.800922972 0.643090250095 159.274702416 0.000348007817605 -61.0440580138 0.414680951464 -179.848191495
9.625 0.20445010867 72.2093446213 0.54078518135 115.747833047 0.501882209592 163.784069989 0.64332401509 -23.5500004727 0.54078518135 115.747833047 0.204943541695 72.7104937457 0.502601827513 163.791022722 0.642604804939 156.526565172 0.501882209592 163.784069989 0.502601827513 163.791022722 0.703921529067 43.3282071208 0.000362755618843 -65.283828478 0.64332401509 -23.5500004727 0.642604804939 156.526565172 0.000362755618841 -65.2838284779 0.416164804718 177.519167987
9.65 0.202364974323 69.1723187011 0.540251013206 113.048639098 0.503909988488 159.522459165 0.642846773095 -26.2938596499 0.540251013206 113.048639098 0.202846952631 69.6889363346 0.504647692312 159.527758339 0.64211576319 153.783647982 0.503909988488 159.522459165 0.504647692312 159.527758339 0.701002850269 37.5021522623 0.000377896151152 -69.6209964011 0.642846773095 -26.2938596499 0.64211576319 153.783647982 0.000377896151148 -69.6209964008 0.417654437291 174.890150488
9.675 0.200261503264 66.1265617904 0.539682105426 110.355098064 0.505969851729 155.263642027 0.642365197288 -29.0325886298 0.539682105426 110.355098064 0.2007290583 66.6586995836 0.506725629858 155.267244512 0.641623088898 151.045858928 0.505969851729 155.263642027 0.506725629858 155.267244512 0.698013584341 31.6771930615 0.000393416496642 -74.0474789397 0.642365197288 -29.0325886298 0.641623088898 151.045858928 0.000393416496637 -74.0474789392 0.419149863716 172.264687389
9.7 0.198137686789 63.0714230237 0.539076576001 107.667315351 0.508063871938 151.007215715 0.641879256805 -31.7662738378 0.539076576001 107.667315351 0.198587798134 63.6191110283 0.50883770034 151.009079437 0.641126744141 148.313107733 0.508063871938 151.007215715 0.50883770034 151.009079437 0.694949229705 25.8523905867 0.000409306146954 -78.5559411744 0.641879256805 -31.7662738378 0.641126744141 148.313107733 0.000409306146949 -78.5559411738 0.420651099429 169.642710627
9.725 0.195991454374 60.0062368136 0.538432550176 104.985416616 0.510194043545 146.752758085 0.641388921565 -34.4950000561 0.538432550176 104.985416616 0.196421054017 60.5694827095 0.510985885849 146.752842108 0.640626688964 145.585305715 0.510194043545 146.752758085 0.510985885849 146.752842108 0.691805232972 20.0267357648 0.000425556747388 -83.1397541825 0.641388921565 -34.4950000561 0.640626688964 145.585305715 0.000425556747382 -83.1397541818 0.42215816072 167.024152654
9.75 0.193820674584 56.9303214254 0.53774816786 102.309548655 0.512362271321 142.499827836 0.640894162338 -37.2188504792 0.53774816786 102.309548655 0.194226651542 57.5091096924 0.513172078898 142.498092456 0.640122881318 142.862365746 0.512362271321 142.499827836 0.513172078898 142.498092456 0.688577000501 14.1991475545 0.00044216186361 -87.7929463913 0.640894162338 -37.2188504792 0.640122881318 142.862365746 0.000442161863604 -87.7929463906 0.423671064695 164.408946399
9.775 0.19162315594 53.8429773804 0.537021591759 99.6398803673 0.514570358411 138.247964686 0.64039495082 -39.9379067702 0.537021591759 99.6398803673 0.192002361242 54.4372684019 0.515398070448 138.244371517 0.639615277002 140.144202207 0.514570358411 138.247964686 0.515398070448 138.244371517 0.685259911296 8.36847095492 0.000459116769815 -92.5101522722 0.64039495082 -39.9379067702 0.639615277002 140.144202207 0.000459116769809 -92.5101522715 0.425189829231 161.797025239
9.8 0.189396647764 50.7434856721 0.536251016324 96.976603783 0.516819993794 133.996689558 0.639891259698 -42.6522491151 0.536251016324 96.976603783 0.189745899819 51.3532147598 0.517665537349 133.991201618 0.639103829604 137.430730951 0.516819993794 133.996689558 0.517665537349 133.991201618 0.681849331427 2.53347482858 0.00047641825649 -97.2865610574 0.639891259698 -42.6522491151 0.639103829604 137.430730951 0.000476418256485 -97.2865610567 0.426714472939 159.188322967
9.825 0.18713884103 47.6311057813 0.535434677645 94.3199351811 0.519112739081 129.745504804 0.639383062719 -45.3619562771 0.535434677645 94.3199351811 0.187454931391 48.2561821037 0.519976029128 129.738086605 0.638588490447 134.721869268 0.519112739081 129.745504804 0.519976029128 129.738086605 0.678340630193 -3.30715048245 0.0004940644556 -102.117867185 0.639383062719 -45.3619562771 0.638588490447 134.721869268 0.000494064455595 -102.117867184 0.42824501512 156.582773761
9.85 0.184847369264 44.5050734672 0.534570864454 91.6701162773 0.521450014576 125.493894462 0.638870334752 -48.0671056505 0.534570864454 91.6701162773 0.18512706881 45.1453788666 0.522330954027 125.484512091 0.638069208536 132.017535849 0.521450014576 125.493894462 0.522330954027 125.484512091 0.674729198297 -9.15479576679 0.000512054680872 -107.000223485 0.638870334752 -48.0671056505 0.638069208536 132.017535849 0.000512054680868 -107.000223484 0.429781475735 153.980312156
9.875 0.182519809533 41.3645983116 0.533657930364 89.0274154953 0.523833084513 121.241324551 0.638353051843 -50.7677733142 0.533657930364 89.0274154953 0.18275987508 42.0199859872 0.524731564222 121.229945753 0.637545930508 129.317650755 0.523833084513 121.241324551 0.524731564222 121.229945753 0.671010468328 -15.0109357991 0.000530389280904 -111.930197646 0.638353051843 -50.7677733142 0.637545930508 129.317650755 0.000530389280901 -111.930197645 0.431323875364 151.380873024
9.9 0.180153683569 38.2088609843 0.532694307547 86.3921293135 0.526263041376 116.987243401 0.637831191267 -53.4640340845 0.532694307547 86.3921293135 0.180350864939 38.8791540183 0.527178940119 116.973837662 0.637018600586 126.622135385 0.526263041376 116.987243401 0.527178940119 116.973837662 0.667179937927 -20.8771324582 0.000549069502859 -116.904732186 0.637831191267 -53.4640340845 0.637018600586 126.622135385 0.000549069502858 -116.904732186 0.432872235174 148.784391547
9.925 0.177746459105 35.0370101935 0.531678522006 83.7645836868 0.528740789214 112.731082041 0.637304731577 -56.1559615686 0.531678522006 83.7645836868 0.177897506661 35.7219998913 0.529673973646 112.715620667 0.636487160538 123.930912451 0.528740789214 112.731082041 0.529673973646 112.715620667 0.663233196033 -26.7550381238 0.000568097364677 -121.921107935 0.637304731577 -56.1559615686 0.636487160538 123.930912451 0.000568097364676 -121.921107935 0.434426576886 146.190803196
9.95 0.17529555147 31.8481592764 0.530609210664 81.145135535 0.531267025861 108.472254634 0.636773652634 -58.8436282169 0.530609210664 81.145135535 0.175397224156 32.5476032864 0.532217350441 108.454710827 0.635951549645 121.243905953 0.531267025861 108.472254634 0.532217350441 108.454710827 0.65916595271 -32.6463993645 0.000587475533832 -126.976910909 0.636773652634 -58.8436282169 0.635951549645 121.243905953 0.000587475533832 -126.976910909 0.435986922745 143.600043713
9.975 0.172798325546 28.6413823736 0.529485140468 78.5341742894 0.533842223969 104.210158977 0.636237935642 -61.527105376 0.529485140468 78.5341742894 0.172847399432 29.3550025469 0.534809530864 104.19050791 0.635411704671 118.561041152 0.533842223969 104.210158977 0.534809530864 104.19050791 0.654974073087 -38.5530609295 0.000607207210839 -132.070002379 0.636237935642 -61.527105376 0.635411704671 118.561041152 0.00060720721084 -132.070002379 0.437553295489 141.012049094
10 0.170252098162 25.4157101201 0.528305229748 75.9321234836 0.536466610775 99.9441770715 0.635697563163 -64.2064633415 0.528305229748 75.9321234836 0.170245375543 26.1431900603 0.537450729725 99.9223959654 0.634867559847 115.882244553 0.536466610775 99.9441770715 0.537450729725 99.9223959654 0.650653616026 -44.4769700478 0.000627296015799 -137.198491881 0.635697563163 -64.2064633415 0.634867559847 115.882244553 0.0006272960158 -137.198491881 0.439125718319 138.426755573
10.025 0.167654141037 22.1701247698 0.527068572058 73.3394423705 0.539140146516 95.6736757807 0.635152519123 -66.8817714109 0.527068572058 73.3394423705 0.167588460095 22.911107015 0.54014089467 95.6497439714 0.634319046863 113.207443883 0.539140146516 95.6736757807 0.54014089467 95.6497439714 0.646200878214 -50.4201810388 0.000647745876421 -142.360712922 0.635152519123 -66.8817714109 0.634319046863 113.207443883 0.000647745876423 -142.360712922 0.440704214875 135.844099607
10.05 0.165001684388 18.9035546494 0.525774462754 70.7566275415 0.541862501422 91.3980075743 0.634602788805 -69.5530979365 0.525774462754 70.7566275415 0.164873929455 19.6576374157 0.542879683141 91.3719065828 0.63376609487 110.536568076 0.541862501422 91.3980075743 0.542879683141 91.3719065828 0.641612444436 -56.3848602265 0.000668560916058 -147.555201091 0.634602788805 -69.5530979365 0.63376609487 110.536568076 0.00066856091606 -147.555201091 0.442288809207 133.264017866
10.075 0.162291921331 15.614867817 0.524422428562 68.1842145172 0.544633031231 87.1165113844 0.634048358826 -72.2205103791 0.524422428562 68.1842145172 0.162099033784 16.381601216 0.545666437851 87.0882249825 0.633208630502 107.86954726 0.544633031231 87.1165113844 0.545666437851 87.0882249825 0.63688524488 -62.3732911429 0.000689745340393 -152.780674342 0.634048358826 -72.2205103791 0.633208630502 107.86954726 0.000689745340395 -152.780674342 0.443879525751 130.686447221
10.1 0.159522013233 12.3028647662 0.523012260389 65.6227792715 0.547450751177 82.8285135806 0.633489217101 -74.884075361 0.523012260389 65.6227792715 0.159261003053 13.0817463922 0.548500160739 82.7980278545 0.63264657791 105.206312739 0.547450751177 82.8285135806 0.548500160739 82.7980278545 0.632016620395 -68.3878799942 0.000711303321502 -158.036015176 0.633489217101 -74.884075361 0.63264657791 105.206312739 0.000711303321504 -158.036015176 0.445476389306 128.111324735
10.125 0.156689096172 8.96626998185 0.521544049633 63.0729396404 0.550314308428 78.5333290833 0.632925352781 -77.54385872 0.521544049633 63.0729396404 0.156357054213 9.7567397385 0.551379485368 78.5006324936 0.632079858815 102.546796988 0.550314308428 78.5333290833 0.551379485368 78.5006324936 0.627004396687 -74.4311613452 0.000733238878127 -163.320254513 0.632925352781 -77.54385872 0.632079858815 102.546796988 0.000733238878129 -163.320254513 0.447079425011 125.538587658
10.15 0.153790288705 5.60372210319 0.520018228225 60.5353565578 0.553221952978 74.2302626291 0.632356756177 -80.1999255638 0.520018228225 60.5353565578 0.153384399705 6.40515611031 0.554302647776 74.1953460691 0.631508392586 99.8909336428 0.553221952978 74.2302626291 0.554302647776 74.1953460691 0.621846968551 -80.5058039601 0.000755555751071 -168.632557018 0.632356756177 -80.1999255638 0.631508392586 99.8909336428 0.000755555751073 -168.632557018 0.448688658319 122.968173416
10.175 0.150822701138 2.21376239041 0.518435612627 58.0107350456 0.55617150701 69.9186102102 0.631783418652 -82.8523403236 0.518435612627 58.0107350456 0.150340257535 3.02546577097 0.557267455801 69.8814670604 0.630932096338 97.2386574898 0.55617150701 69.9186102102 0.557267455801 69.8814670604 0.616543395245 -86.6146167091 0.000778257272738 -173.972207697 0.631783418652 -82.8523403236 0.630932096338 97.2386574898 0.000778257272739 -173.972207697 0.450304114982 120.400019614
10.2 0.147783446552 -1.20517888982 0.516797451958 55.4998248737 0.55916033281 65.5976607042 0.631205332495 -85.5011668094 0.516797451958 55.4998248737 0.147221863151 -0.38398058985 0.560271256963 65.5582868839 0.630350885057 94.5899044648 0.55916033281 65.5976607042 0.560271256963 65.5582868839 0.611093508209 -92.7605544178 0.000801346229945 -179.338599574 0.631205332495 -85.5011668094 0.630350885057 94.5899044648 0.000801346229947 -179.338599574 0.451925821026 117.834064025
10.225 0.144669653839 -4.65479864353 0.515105480385 53.0034207872 0.56218529934 61.2666977165 0.630622490757 -88.1464682639 0.515105480385 53.0034207872 0.144026483405 -3.82496971534 0.563310904987 61.2250917328 0.62976467176 91.9446116465 0.56218529934 61.2666977165 0.563310904987 61.2250917328 0.605498032335 -98.9467234939 0.000824824719273 175.268777712 0.630622490757 -88.1464682639 0.62976467176 91.9446116465 0.000824824719275 175.268777712 0.453553802734 115.270244592
10.25 0.141478483058 -8.13694030893 0.513361973832 50.522362181 0.565242747623 56.9250016565 0.630034887061 -90.7883074175 0.513361973832 50.522362181 0.140751432898 -7.29944721614 0.56638272516 56.8811646493 0.629173367682 89.3027172548 0.565242747623 56.9250016565 0.56638272516 56.8811646493 0.599758722002 -105.17638711 0.000848693994339 169.850348546 0.630034887061 -90.7883074175 0.629173367682 89.3027172548 0.00084869399434 169.850348546 0.455188086624 112.708499429
10.275 0.138207143431 -11.6536171818 0.511569810981 48.0575320821 0.568328455179 52.5718520696 0.629442515371 -93.4267465424 0.511569810981 48.0575320821 0.137394093083 -10.8095434746 0.569482478726 52.525787854 0.628576882506 86.6641606478 0.568328455179 52.5718520696 0.569482478726 52.525787854 0.593878513049 -111.452969658 0.000872954304579 164.406461341 0.629442515371 -93.4267465424 0.628576882506 86.6641606478 0.00087295430458 164.406461341 0.45682869943 110.148766817
10.3 0.1348529144 -15.207040716 0.509732538391 45.6098552788 0.571437599783 48.2065302472 0.628845369725 -96.0618475063 0.509732538391 45.6098552788 0.133951934521 -14.3576051709 0.572605326622 48.1582453526 0.627975124622 84.0288823214 0.571437599783 48.2065302472 0.572605326622 48.1582453526 0.587861691754 -117.7800601 0.000897604725294 158.93739804 0.628845369725 -96.0618475063 0.627975124622 84.0288823214 0.000897604725295 158.93739804 0.458475668086 107.590985208
10.325 0.131413170158 -18.7996551049 0.507854439437 43.1802954125 0.574564722952 43.8283221383 0.628243443922 -98.6936718255 0.507854439437 43.1802954125 0.130422542777 -17.9462339258 0.575745792929 43.7778258431 0.627368001443 81.3968239068 0.574564722952 43.8283221383 0.575745792929 43.7778258431 0.581714081716 -124.161413745 0.000922642978975 153.443383219 0.628243443922 -98.6936718255 0.627368001443 81.3968239068 0.000922642978976 153.443383219 0.460129019707 105.035093228
10.35 0.127885408202 -22.4341798414 0.505940606563 40.7698508272 0.577703693588 39.4365215818 0.627636731168 -101.322280716 0.505940606563 40.7698508272 0.126803648514 -21.578334013 0.578897728496 39.383825946 0.626755419751 78.7679281697 0.577703693588 39.4365215818 0.578897728496 39.383825946 0.57544324925 -130.600951852 0.000948065248163 147.924592893 0.627636731168 -101.322280716 0.626755419751 78.7679281697 0.000948065248164 147.924592893 0.461788781565 102.48102968
10.375 0.12426728251 -26.1136624855 0.503997016088 38.3795489493 0.580847672373 35.0304338826 0.627025223671 -103.947735145 0.503997016088 38.3795489493 0.123093162467 -25.2571717137 0.582054275322 34.9755537761 0.626137286107 76.1421390071 0.580847672373 35.0304338826 0.582054275322 34.9755537761 0.5690587275 -137.102758304 0.000973865980431 142.381163112 0.627025223671 -103.947735145 0.626137286107 76.1421390071 0.000973865980432 142.381163112 0.463454981077 99.9287335469
10.4 0.120556642108 -29.8415445861 0.50203060458 36.0104389488 0.58398907757 30.6093797484 0.626408912181 -106.570095876 0.50203060458 36.0104389488 0.119289216129 -28.9864497275 0.585207832349 30.5523328758 0.625513507295 73.5194014431 0.58398907757 30.6093797484 0.585207832349 30.5523328758 0.56257225889 -143.671072432 0.00100003768644 136.813198437 0.626408912181 -106.570095876 0.625513507295 73.5194014431 0.00100003768644 136.813198437 0.465127645784 97.3781439995
10.425 0.11675157593 -33.6217446827 0.500049345409 33.6635824241 0.587119553037 26.172699602 0.625787785489 -109.189423514 0.500049345409 33.6635824241 0.115390209189 -32.7704012166 0.588350023483 26.1135065243 0.624883990834 70.8996616225 0.587119553037 26.172699602 0.588350023483 26.1135065243 0.555998054729 -150.310276845 0.0010265707324 131.220780337 0.625787785489 -109.189423514 0.624883990834 70.8996616225 0.0010265707324 131.220780337 0.466806803327 94.8292003992
10.45 0.112850465162 -37.458763677 0.498062323776 31.3400418368 0.590229939371 21.7197582812 0.625161829862 -111.805778548 0.498062323776 31.3400418368 0.111394865069 -36.6139096716 0.591471668746 21.6584424334 0.624248645527 68.2828668009 0.590229939371 21.7197582812 0.591471668746 21.6584424334 0.549353069733 -157.0248789 0.00105345312877 125.603975596 0.625161829862 -111.805778548 0.624248645527 68.2828668009 0.00105345312877 125.603975595 0.468492481433 92.2818423064
10.475 0.108852044573 -41.3578197572 0.496079808036 29.0408664347 0.593310249223 17.249950132 0.62453102843 -114.419221383 0.496079808036 29.0408664347 0.107302296312 -40.5226630599 0.594562759627 17.1865378372 0.623607382079 65.6689653312 0.593310249223 17.249950132 0.594562759627 17.1865378372 0.542657287825 -163.81948419 0.0010806703175 119.962844744 0.62453102843 -114.419221383 0.623607382079 65.6689653312 0.0010806703175 119.962844743 0.470184707888 89.736009487
10.5 0.104755474862 -45.3250227491 0.494113314698 26.7670754115 0.596349647977 12.7627044931 0.623895360523 -117.029812374 0.494113314698 26.7670754115 0.103112082223 -44.503353946 0.597612439807 12.6972249733 0.62296011375 63.0579066447 0.596349647977 12.7627044931 0.597612439807 12.6972249733 0.535934013828 -170.69876015 0.00110820496065 114.297450573 0.623895360523 -117.029812374 0.62296011375 63.0579066447 0.00110820496065 114.297450572 0.47188351052 87.1916419198
10.525 0.100560428785 -49.367601612 0.492175663951 24.5196380937 0.59933644109 8.25749156416 0.623254800961 -119.637611847 0.492175663951 24.5196380937 0.0988243620592 -48.5639419326 0.600608992558 8.18997694723 0.62230675707 60.449641226 0.59933644109 8.25749156416 0.600608992558 8.18997694723 0.529210163429 -177.667387645 0.00113603673395 108.607866739 0.623254800961 -119.637611847 0.62230675707 60.449641226 0.00113603673395 108.607866739 0.473588917168 84.6486798043
10.55 0.0962671949273 -53.4942043732 0.490281022075 22.2994510045 0.602258069515 3.7338286376 0.6226093193 -122.242680114 0.490281022075 22.2994510045 0.094439948445 -52.7140015714 0.603539836256 3.66431396067 0.621647232586 57.8441205812 0.602258069515 3.7338286376 0.603539836256 3.66431396067 0.522516541136 175.270001821 0.00116414212928 102.894186473 0.6226093193 -122.242680114 0.621647232586 57.8441205812 0.00116414212928 102.894186473 0.475300955664 82.107063569
10.575 0.091876804674 -57.7152979978 0.488444926569 20.1073117467 0.605101114725 -0.808713335204 0.621958879051 -124.845077479 0.488444926569 20.1073117467 0.0899604678071 -56.9651889645 0.606391529512 -0.880190125962 0.620981465649 55.2412971968 0.605101114725 -0.808713335204 0.606391529512 -0.880190125962 0.515888092761 168.108905744 0.00119249427085 97.1565313842 0.621958879051 -124.845077479 0.620981465649 55.2412971968 0.00119249427085 97.1565313839 0.4770196538 79.5667338794
10.6 0.0873911904981 -62.0437079101 0.486684289395 17.9438897741 0.607851314934 -5.37050288776 0.621303436869 -127.444864237 0.486684289395 17.9438897741 0.0853885378541 -61.3318754086 0.609149787517 -5.44390094082 0.620309387232 52.6411244892 0.607851314934 -5.37050288776 0.609149787517 -5.44390094082 0.509364115345 160.845049544 0.00122106275048 91.3950603414 0.621303436869 -127.444864237 0.620309387232 52.6411244892 0.00122106275048 91.3950603411 0.478745039302 77.0276316465
10.625 0.0828133877205 -66.4953553725 0.485017373367 15.8096942846 0.610493594114 -9.95184094961 0.62064294174 -130.042100653 0.485017373367 15.8096942846 0.0807279972659 -65.8320194869 0.611799511235 -10.0271165153 0.619630934749 50.0435567436 0.610493594114 -9.95184094961 0.611799511235 -10.0271165153 0.502988403475 153.474506905 0.00124981348784 85.6099783989 0.62064294174 -130.042100653 0.619630934749 50.0435567436 0.00124981348783 85.6099783986 0.480477139793 74.4896980351
10.65 0.0781477982904 -71.0902792927 0.483463736508 13.7050396759 0.613012105451 -14.5529535992 0.619977334171 -132.63684694 0.483463736508 13.7050396759 0.0759842109561 -70.4883846591 0.614324831029 -14.6300600405 0.618946052885 47.4485490404 0.613012105451 -14.5529535992 0.614324831029 -14.6300600405 0.496809306882 145.993843017 0.00127870862227 79.801545702 0.619977334171 -132.63684694 0.618946052885 47.4485490404 0.00127870862226 79.8015457017 0.482215982763 71.9528744721
10.675 0.0734005454753 -75.8540731643 0.482044139247 11.6300092492 0.615390290735 -19.1739847498 0.619306545413 -135.229163213 0.482044139247 11.6300092492 0.0711644876655 -75.3302652234 0.616709166283 -19.2528725561 0.618254694391 44.8560571683 0.615390290735 -19.1739847498 0.616709166283 -19.2528725561 0.490879670479 138.400281084 0.00130770644304 73.9700863106 0.619306545413 -135.229163213 0.618254694391 44.8560571683 0.00130770644303 73.9700863104 0.483961595525 69.4171026542
10.7 0.068579965394 -80.819937353 0.480780409583 9.58441812604 0.617610957103 -23.8149888766 0.618630496724 -137.819109439 0.480780409583 9.58441812604 0.0662786689427 -80.3959719073 0.618935302389 -23.8956056817 0.61755682085 42.2660375248 0.617610957103 -23.8149888766 0.618935302389 -23.8956056817 0.48525662504 130.691890686 0.00133676136531 68.1159968455 0.618630496724 -137.819109439 0.61755682085 42.2660375248 0.00133676136531 68.1159968453 0.485714005175 66.8823245558
10.725 0.0636973099762 -86.031657343 0.479695262098 7.5677766381 0.619656372284 -28.475923914 0.617949098721 -140.406745363 0.479695262098 7.5677766381 0.0613399864368 -85.7364689996 0.620985486262 -28.5582145162 0.61685240336 39.6784470006 0.619656372284 -28.475923914 0.620985486262 -28.5582145162 0.480001195575 122.86779424 0.00136582395913 62.2397548489 0.617949098721 -140.406745363 0.61685240336 39.6784470006 0.00136582395912 62.2397548488 0.487473238545 64.3484824358
10.75 0.0587677850608 -91.54799408 0.478812067738 5.5792557544 0.621508379182 -33.1566444648 0.617262250823 -142.992130428 0.478812067738 5.5792557544 0.0563663500132 -91.4207774683 0.622841541244 -33.2405508511 0.616141423129 37.0932428512 0.621508379182 -33.1566444648 0.622841541244 -33.2405508511 0.475177695787 114.928384624 0.00139484103857 56.3419267346 0.617262250823 -142.992130428 0.616141423129 37.0932428512 0.00139484103857 56.3419267345 0.489239322147 61.8155188443
10.775 0.0538121331497 -97.4492473156 0.478154572927 3.61765637878 0.623148530254 -37.8568954836 0.616569840828 -145.575323681 0.478154572927 3.61765637878 0.0513823446402 -97.5440998848 0.624485001807 -37.9423568566 0.615423871939 34.5103825534 0.623148530254 -37.8568954836 0.624485001807 -37.9423568566 0.470852882204 106.875543423 0.00142375581789 50.4231751813 0.616569840828 -145.575323681 0.615423871939 34.5103825534 0.00142375581789 50.4231751813 0.491012282121 59.2833766286
10.8 0.0488591221303 -103.847160583 0.477746568628 1.68138456566 0.624558241579 -42.5763066068 0.615871744659 -148.156383656 0.477746568628 1.68138456566 0.0464224187291 -104.240099499 0.625897267985 -42.6632594146 0.614699752454 31.9298236491 0.624558241579 -42.5763066068 0.625897267985 -42.6632594146 0.467094851401 98.7128453451 0.00145250814049 44.4842658141 0.615871744659 -148.156383656 0.614699752454 31.9298236491 0.00145250814049 44.4842658142 0.492792144164 56.7519989379
10.825 0.0439495698253 -110.899849298 0.477611512512 -0.231565185757 0.625718965945 -47.3143873136 0.615167826289 -150.735368266 0.477611512512 -0.231565185758 0.0415361050809 -111.699242311 0.627059778831 -47.4027652824 0.613969078335 29.351523578 0.625718965945 -47.3143873136 0.627059778831 -47.4027652824 0.463971679076 90.4457307201 0.00148103478563 38.526073002 0.615167826289 -150.735368266 0.613969078335 29.351523578 0.00148103478563 38.526073002 0.494578933465 54.2213292271
10.85 0.0391429944771 -118.833708648 0.477772110315 -2.12361642454 0.626612383579 -52.0705231059 0.614457937893 -153.312334665 0.477772110315 -2.12361642454 0.0367967036078 -120.194799664 0.627954203549 -52.1602572756 0.613231874138 26.7754395 0.626612383579 -52.0705231059 0.627954203549 -52.1602572756 0.461549820464 82.0816255482 0.00150926985603 32.5495845957 0.614457937893 -153.312334665 0.613231874138 26.7754395 0.00150926985603 32.5495845957 0.496372674619 51.6913112605
10.875 0.0345286808275 -127.972722115 0.478249865589 -3.99760509369 0.627220608401 -56.8439728952 0.613741920241 -155.887339117 0.478249865589 -3.99760509369 0.0323156147924 -130.113871093 0.628562648131 -56.934991657 0.612488174971 24.2015281128 0.627220608401 -56.8439728952 0.628562648131 -56.934991657 0.459892316696 73.6299879779 0.0015371452477 26.555905427 0.613741920241 -155.887339117 0.612488174971 24.2015281128 0.0015371452477 26.555905427 0.498173391546 49.1618891126
10.9 0.0302435843765 -138.766570221 0.479064610174 -5.85676019052 0.627526406873 -61.6338677777 0.613019603354 -158.460436866 0.479064610174 -5.85676019052 0.028264536227 -141.97244553 0.628867874604 -61.7260969148 0.611738025876 21.6297454658 0.627526406873 -61.6338677777 0.628867874604 -61.7260969148 0.459056878909 65.102262452 0.00156459120089 20.5462593938 0.613019603354 -158.460436866 0.611738025876 21.6297454658 0.00156459120089 20.5462593938 0.499981107385 46.6330071688
10.925 0.0264980332498 -151.776275013 0.480234030597 -7.70466980205 0.627513425747 -66.4392113625 0.612290807438 -161.031681992 0.480234030597 -7.70466980204 0.0249027605241 -156.337920267 0.628853529162 -66.5325740925 0.610981480941 19.0600467768 0.627513425747 -66.4392113625 0.628853529162 -66.5325740925 0.459093947441 56.5117284585 0.00159153692852 14.5219899675 0.612290807438 -161.031681992 0.610981480941 19.0600467768 0.00159153692853 14.5219899674 0.501795844394 44.1046101244
10.95 0.0235991395868 -167.495910312 0.481773207879 -9.54523235356 0.627166424249 -71.2588817954 0.6115553441 -163.601127295 0.481773207879 -9.54523235356 0.0225852081095 -173.488774334 0.628504374703 -71.3532988146 0.610218602123 16.4923862547 0.627166424249 -71.2588817954 0.628504374703 -71.3532988146 0.460044842934 47.8732398566 0.00161791131529 8.48455897729 0.6115553441 -163.601127295 0.610218602123 16.4923862547 0.00161791131529 8.48455897702 0.503617623818 41.5766429812
10.975 0.0219283502125 174.166422679 0.483694189647 -11.3825938192 0.626471505565 -76.0916355886 0.61081301785 -166.168824169 0.483694189647 -11.3825938192 0.0216857738844 167.252197196 0.62780652264 -76.1870251182 0.609449457804 13.9267169349 0.626471505565 -76.0916355886 0.62780652264 -76.1870251182 0.461940134893 39.2028622167 0.00164364367782 2.43554355388 0.61081301785 -166.168824169 0.609449457804 13.9267169349 0.00164364367782 2.43554355348 0.505446465766 39.0490510435
11 0.0218021270058 154.519551752 0.486005613747 -13.2210726105 0.625416341968 -80.9361133283 0.610063627865 -168.73482251 0.486005613747 -13.2210726105 0.0223998472847 147.788819107 0.626747658304 -81.0323911624 0.608674121083 11.3629905318 0.625416341968 -80.9361133283 0.626747658304 -81.0323911624 0.464798347937 30.5174278182 0.00166866457305 -3.62336885029 0.610063627865 -168.73482251 0.608674121083 11.3629905318 0.00166866457305 -3.62336885083 0.507282389051 36.521779911
11.025 0.023264396797 135.733540797 0.488712401536 -15.0650747908 0.623990387573 -85.7908472837 0.609306970004 -171.299170635 0.488712401536 -15.0650747907 0.0245979514343 130.15826658 0.625317253923 -85.8879268379 0.607892667855 8.80115731268 0.623990387573 -85.7908472837 0.625317253923 -85.8879268379 0.468625105308 21.834038684 0.00169290663906 -9.69038740528 0.609306970004 -171.299170635 0.607892667855 8.80115731269 0.00169290663906 -9.69038740595 0.509125411031 33.9947754706
11.05 0.0260551299595 119.379063126 0.491815536687 -16.919003053 0.622185072583 -90.6542708904 0.608542839031 -173.861915231 0.491815536687 -16.919003053 0.0279311409183 115.256790243 0.623506763018 -90.7520632522 0.607105174709 6.24116600008 0.622185072583 -90.6542708904 0.623506763018 -90.7520632522 0.473412775169 13.1695550992 0.0017163054502 -15.7636268036 0.608542839031 -173.861915231 0.607105174708 6.24116600008 0.0017163054502 -15.7636268044 0.51097554742 31.4679838854
11.075 0.0297990444254 105.762095067 0.495311941743 -18.7871634627 0.619993973018 -95.5247300258 0.607771031007 -176.423101335 0.495311941742 -18.7871634627 0.0320372775077 102.916102257 0.621309790218 -95.623144005 0.60631171671 3.68296370317 0.619993973018 -95.5247300258 0.621309790218 -95.623144005 0.479140642258 4.54010892607 0.00173880036602 -21.8411180542 0.607771031007 -176.423101335 0.60631171671 3.68296370317 0.00173880036601 -21.841118055 0.512832812088 28.9413515816
11.1 0.0341717719618 94.455415208 0.499194460055 -20.6736742194 0.617412950342 -100.400495933 0.606991345796 -178.982772347 0.499194460055 -20.6736742194 0.0366406422444 92.5841098633 0.618722230875 -100.499438113 0.605512365132 1.12649588294 0.617412950342 -100.400495933 0.618722230875 -100.499438113 0.485775582367 -4.03932271978 0.00176033535248 -27.9208210528 0.606991345796 -178.982772347 0.605512365132 1.12649588294 0.00176033535247 -27.9208210535 0.514697216829 26.414825233
11.125 0.038943337739 84.8890533521 0.503451945505 -22.5823806092 0.614440256062 -105.279779602 0.606203589617 178.459029915 0.503451945505 -22.5823806092 0.0415542472987 83.727104576 0.615742375579 -105.379154392 0.604707185206 -1.42829364888 0.614440256062 -105.279779602 0.615742375579 -105.379154392 0.493273176557 -12.5552563776 0.0017808597532 -34.0006387534 0.606203589617 178.459029915 0.604707185206 -1.42829364887 0.00178085975319 -34.000638754 0.516568771115 23.8883517428
11.15 0.0439606417862 76.5870152915 0.508069456937 -24.5167799038 0.611076597362 -110.160747355 0.605407577593 175.90226513 0.508069456937 -24.5167799038 0.0466541649332 75.9373181305 0.612370975607 -110.260457038 0.603896233969 -3.98146269734 0.611076597362 -110.160747355 0.612370975607 -110.260457038 0.501579171706 -20.9959381138 0.00180032898895 -40.078432715 0.605407577593 175.90226513 0.603896233969 -3.98146269734 0.00180032898895 -40.0784327154 0.518447481817 21.3618782229
11.175 0.0491215673096 69.2021454184 0.513028549038 -26.4799592599 0.607325160968 -115.041537349 0.604603136199 173.346894337 0.513028549038 -26.4799592599 0.0518565892574 68.9257241685 0.608611266526 -115.141482138 0.603079558274 -6.53307062061 0.607325160968 -115.041537349 0.608611266526 -115.141482138 0.510631177039 -29.3514728227 0.00181870516495 -46.1520397454 0.604603136199 173.346894337 0.603079558274 -6.53307062061 0.00181870516495 -46.1520397455 0.520333352898 18.8353519699
11.2 0.0543558811524 62.4915984731 0.518307646893 -28.4745487629 0.603191593816 -119.920276668 0.603790105562 170.792879772 0.518307646893 -28.4745487629 0.0571026649499 62.4913263074 0.6044689485 -120.020354751 0.60225719304 -9.08317823886 0.603191593816 -119.920276668 0.6044689485 -120.020354751 0.520360482979 -37.6138540909 0.00183595756793 -52.2192893273 0.603790105562 170.792879772 0.60225719304 -9.08317823886 0.00183595756794 -52.219289327 0.522226385075 16.308720439
11.225 0.0596132620957 56.286480443 0.523882487857 -30.5026907514 0.598683940494 -124.795098657 0.602968341536 168.240184655 0.523882487857 -30.5026907514 0.0623492777986 56.493868863 0.59995212331 -124.895206251 0.60142915978 -11.631847721 0.598683940494 -124.795098657 0.59995212331 -124.895206251 0.530693896981 -45.7769095923 0.00185206303806 -58.2780214802 0.602968341536 168.240184655 0.60142915978 -11.631847721 0.00185206303809 -58.2780214794 0.524126575446 13.7819312139
11.25 0.0648561304917 50.4682896784 0.529726612147 -32.5660255437 0.593812538949 -129.664160141 0.602137717483 165.688772948 0.529726612147 -32.5660255437 0.0675635688919 50.8342578088 0.595071189555 -129.764191535 0.600595465453 -14.1791424559 0.593812538949 -129.664160141 0.595071189555 -129.764191535 0.541555507493 -53.8361814047 0.00186700620471 -64.3261046938 0.602137717483 165.688772948 0.600595465453 -14.1791424559 0.00186700620475 -64.3261046925 0.526033917082 11.2549319748
11.275 0.0700553691384 44.9526711202 0.535811882477 -34.665692768 0.588589877282 -134.525658166 0.601298125711 163.138609089 0.535811882477 -34.665692768 0.0727196449837 45.4413815857 0.589838698898 -134.625505772 0.599756101667 -16.7251269147 0.588589877282 -134.525658166 0.589838698898 -134.625505772 0.552868307924 -61.7887618383 0.00188077957939 -70.3614535657 0.601298125711 163.138609089 0.599756101667 -16.7251269148 0.00188077957946 -70.3614535637 0.527948398569 8.72767046186
11.3 0.0751877362473 39.6786006263 0.542109013314 -36.8023467436 0.583030415795 -139.377845944 0.600449478522 160.589657686 0.542109013314 -36.8023467437 0.077796572102 40.2633795894 0.58426917751 -139.477400341 0.598911044216 -19.269866513 0.583030415795 -139.377845944 0.58426917751 -139.477400341 0.564555634026 -69.6331040267 0.00189338350413 -76.3820457823 0.600449478521 160.589657686 0.598911044217 -19.269866513 0.00189338350422 -76.3820457797 0.529870003517 6.20009443677
11.325 0.0802342699887 34.6012178693 0.548588091609 -38.9761838064 0.577150379454 -144.219047675 0.599591708828 158.041883208 0.548588091608 -38.9761838064 0.0827771252402 35.2618375763 0.578378917909 -144.31819765 0.598060252961 -21.8134274781 0.577150379454 -144.219047675 0.578378917909 -144.31819765 0.576542387994 -77.3688235664 0.00190482595774 -82.3859381068 0.599591708827 158.041883208 0.598060252961 -21.8134274781 0.00190482595787 -82.3859381037 0.531798710013 3.67215164007
11.35 0.0851792811086 29.6870378363 0.555219073039 -41.186979145 0.570967526783 -149.047671992 0.598724770327 155.495249645 0.555219073038 -41.1869791451 0.0876469897085 30.4078833141 0.572185747209 -149.146304586 0.597203671991 -24.3558767312 0.570967526783 -149.047671992 0.572185747208 -149.146304586 0.588756039187 -84.9965037553 0.00191512222758 -88.3712810675 0.598724770326 155.495249645 0.597203671991 -24.3558767312 0.00191512222774 -88.3712810639 0.533734490022 1.14378974577
11.375 0.0900096993468 24.9107072961 0.561972240523 -43.4341305903 0.564500901694 -153.862223808 0.597848637213 152.94972018 0.561972240523 -43.4341305903 0.0923942359602 25.679520254 0.565708778311 -153.960224351 0.596341230041 -26.8972817871 0.564500901694 -153.862223808 0.565708778311 -153.960224351 0.601127404337 -92.5175131885 0.00192429445763 -94.3363320867 0.597848637212 152.94972018 0.596341230042 -26.8972817871 0.00192429445782 -94.3363320828 0.535677308734 -1.38504368761
11.4 0.0947146354285 20.2527727137 0.56881861485 -45.7167068597 0.557770574999 -158.661314402 0.596963303431 150.405256841 0.56881861485 -45.7167068598 0.0970089617116 21.0597768427 0.558968150795 -158.758566555 0.595472841095 -29.4377106785 0.557770574999 -158.661314402 0.558968150795 -158.758566555 0.6135912193 -99.9338410574 0.00193237108777 -100.279466836 0.59696330343 150.405256841 0.595472841095 -29.4377106786 0.00193237108797 -100.279466832 0.537627123849 -3.91440126906
11.425 0.0992850755843 15.698119087 0.575730310406 -48.0334979582 0.550797382264 -163.443669636 0.596068781491 147.861820174 0.575730310406 -48.0334979583 0.101483036969 16.5354010978 0.551984768167 -163.540055423 0.594598405098 -31.9772319072 0.550797382264 -163.443669636 0.551984768167 -163.540055423 0.626086520452 -107.247952724 0.00193938620112 -106.199188665 0.59606878149 147.861820174 0.594598405098 -31.9772319072 0.00193938620133 -106.199188661 0.539583884791 -6.44433583047
11.45 0.103713657907 11.2348607202 0.582680832002 -50.38306573 0.543602664318 -168.20813625 0.595165100857 145.319368912 0.582680832002 -50.38306573 0.105809912354 12.09592555 0.544780037815 -168.303536094 0.593717808732 -34.5159144228 0.543602664318 -168.20813625 0.544780037815 -168.303536094 0.638556857267 -114.462666063 0.00194537879839 -112.094135989 0.595165100857 145.319368912 0.593717808732 -34.5159144229 0.00194537879857 -112.094135986 0.541547531862 -8.97490048508
11.475 0.107994499234 6.8535413684 0.589645311541 -52.7637929067 0.536208016179 -172.953686248 0.594252305955 142.777859677 0.589645311541 -52.7637929067 0.109984466173 7.73298786182 0.537375619421 -173.047978999 0.592830926158 -37.0538276315 0.536208016179 -172.953686248 0.537375619421 -173.047978999 0.650950359164 -121.581047636 0.00195039201874 -117.963087613 0.594252305955 142.777859677 0.592830926158 -37.0538276316 0.00195039201885 -117.963087612 0.543517995308 -11.506148689
11.5 0.112123053113 2.54654957865 0.596600685608 -55.1739293632 0.528635049405 -177.679419415 0.593330453822 140.237246685 0.596600685608 -55.1739293632 0.114002874984 3.43983077134 0.529793186854 -177.772482384 0.591937619678 -39.591041431 0.528635049405 -177.679419415 0.529793186854 -177.772482384 0.663219679851 -128.606326905 0.00195447232686 -123.804965968 0.593330453822 140.237246685 0.591937619678 -39.591041431 0.00195447232686 -123.804965968 0.54549519431 -14.0381343055
