! Generated from PyAEDT SolutionData; AEDT ExportNetworkData workaround
# GHz S MA R 50
9 0.457923230691 114.548520074 0.533113988997 154.899631603 0.259222135023 -99.9747637711 0.662495037146 47.2527423489 0.533113988997 154.899631603 0.457596427566 114.51316589 0.259206773438 -99.9330850998 0.66272681613 -132.741124874 0.259222135023 -99.9747637711 0.259206773438 -99.9330850998 0.930384704752 -156.224488297 0.000185689470674 -60.1592389551 0.662495037146 47.2527423489 0.66272681613 -132.741124874 0.000185689470675 -60.1592389552 0.349132436846 -118.515872757
9.025 0.458441532431 111.461041525 0.534076250247 151.886278153 0.257092901568 -104.477283273 0.662192707857 44.3590789929 0.534076250247 151.886278153 0.458128364145 111.427465954 0.257079832529 -104.434421335 0.662414886611 -135.634575635 0.257092901568 -104.477283273 0.257079832529 -104.434421335 0.931559453115 -162.186025096 0.000186103372564 -65.0368110446 0.662192707857 44.3590789929 0.662414886611 -135.634575635 0.000186103372564 -65.036811045 0.350296851885 -121.226684031
9.05 0.45900011537 108.37681798 0.535032558265 148.876268689 0.254885682639 -108.977227678 0.661887813778 41.4733890439 0.535032558265 148.876268689 0.458700395305 108.345124415 0.254874984034 -108.933153388 0.662100308228 -138.519996229 0.254885682639 -108.977227678 0.254874984034 -108.933153388 0.932767834106 -168.145698116 0.000186462024075 -69.8764225742 0.661887813778 41.4733890439 0.662100308228 -138.519996229 0.000186462024074 -69.8764225748 0.35146632681 -123.932407035
9.075 0.459598931601 105.295604369 0.535982191144 145.869406311 0.252600390869 -113.474391473 0.661580338935 38.5955272158 0.535982191144 145.869406311 0.459312436111 105.265891746 0.252592137799 -113.429075189 0.661783144435 -141.397534431 0.252600390869 -113.474391473 0.252592137799 -113.429075189 0.934008135001 -174.102601301 0.000186775133963 -74.6739665552 0.661580338935 38.5955272158 0.661783144435 -141.397534431 0.000186775133961 -74.6739665559 0.352640808381 -126.633135074
9.1 0.460237861763 102.217161761 0.536924369937 142.865501642 0.250237007795 -117.968593464 0.661270266475 35.7253508768 0.536924369937 142.865501642 0.459964330017 102.189524172 0.250231272164 -117.922004849 0.661463447104 -144.26733503 0.250237007795 -117.968593464 0.250231272164 -117.922004849 0.935278648854 179.944070926 0.000187053230819 -79.4259015515 0.661270266475 35.7253508768 0.661463447104 -144.26733503 0.000187053230816 -79.4259015522 0.353820247302 -129.328959562
9.125 0.46091672106 99.1412577312 0.537858264411 139.864372843 0.247795580013 -122.45967536 0.66095757859 32.8627200913 0.537858264411 139.864372843 0.460655854976 99.1157840646 0.247792430145 -122.411783221 0.661141258191 -147.129539832 0.247795580013 -122.45967536 0.247792430145 -122.411783221 0.936577674199 173.995030641 0.000187307478841 -84.1292565324 0.66095757859 32.8627200913 0.661141258192 -147.129539832 0.000187307478838 -84.129256533 0.355004598083 -132.01997007
9.15 0.461635265025 96.0676666723 0.538782998576 136.865845573 0.245276215009 -126.947500506 0.660642256467 30.0074976468 0.538782998576 136.865845573 0.4613867293 96.0444402614 0.245275715297 -126.898272631 0.660816611225 -149.984287685 0.245276215009 -126.947500506 0.245275715297 -126.898272631 0.937903514042 168.050903262 0.000187549506712 -88.7816261285 0.660642256467 30.0074976468 0.660816611225 -149.984287685 0.00018754950671 -88.7816261291 0.356193818898 -134.706254379
9.175 0.462393195043 92.99617004 0.539697655955 133.869752909 0.24267907663 -131.431952791 0.660324280259 27.1595490674 0.539697655955 133.869752909 0.462156617283 92.9752683263 0.242681287216 -131.381355762 0.660489532608 -152.831714515 0.24267907663 -131.431952791 0.242681287216 -131.381355762 0.939254474366 162.112234143 0.000187791254888 -93.381158078 0.660324280259 27.1595490674 0.660489532609 -152.831714515 0.000187791254886 -93.3811580785 0.357387871458 -137.387898529
9.2 0.463190163627 89.9265565398 0.5406012846 130.875935223 0.240004380193 -135.912935707 0.660003629082 24.3187426151 0.5406012846 130.875935223 0.462965134581 89.9080507533 0.240009356675 -135.860934707 0.660160042766 -155.671953364 0.240004380193 -135.912935707 0.240009356675 -135.860934707 0.940628862379 156.179494792 0.000188044844543 -97.9265347441 0.660003629082 24.3187426151 0.660160042766 -155.671953364 0.000188044844542 -97.9265347444 0.358586720878 -140.064986867
9.225 0.464025779437 86.8586222588 0.541492901814 127.884240022 0.237252387206 -140.390371581 0.65968028103 21.4849492797 0.541492901814 127.884240022 0.463811853332 86.8425771146 0.23726018038 -140.336930175 0.659828157137 -158.505134447 0.237252387206 -140.390371581 0.23726018038 -140.336930175 0.942024984683 150.253088644 0.000188322469541 -102.416950549 0.65968028103 21.4849492797 0.659828157137 -158.505134447 0.000188322469539 -102.416950549 0.359790335552 -142.737602105
9.25 0.464899612053 83.7921707455 0.542371498599 124.894521752 0.234423399701 -144.864200953 0.6593542132 18.6580427603 0.5423714986 124.894521752 0.464696307047 83.7786441575 0.234434055332 -144.809280858 0.659493887027 -161.33138521 0.234423399701 -144.864200953 0.234434055332 -144.809280858 0.943441145532 144.333356316 0.000188636311044 -106.852087021 0.6593542132 18.6580427603 0.659493887027 -161.33138521 0.000188636311043 -106.852087021 0.360998687027 -145.40582537
9.275 0.465811196494 80.7270130397 0.543236043793 121.906641575 0.231517754188 -149.334382118 0.659025401738 15.8378994376 0.543236043793 121.906641575 0.465617995228 80.7160558534 0.231531312811 -149.277942941 0.659157240334 -164.150830393 0.231517754188 -149.334382118 0.231531312811 -149.277942941 0.944875645317 138.420580301 0.000188998473048 -111.23208692 0.659025401738 15.8378994376 0.659157240334 -164.150830393 0.000188998473048 -111.23208692 0.362211749883 -148.069736257
9.3 0.466760037479 77.6629676568 0.544085487886 118.920467117 0.228535815233 -153.800890795 0.658693821892 13.0243983392 0.544085487886 118.920467117 0.466576387754 77.6546234001 0.228552311991 -153.742889755 0.658818222161 -166.963592098 0.228535815233 -153.800890795 0.228552311991 -153.742889755 0.946326779368 132.514989091 0.000189420936006 -115.557528623 0.658693821892 13.0243983392 0.658818222161 -166.963592098 0.000189420936006 -115.557528623 0.363429501612 -150.729412879
9.325 0.467745613438 74.5998605285 0.544918766528 115.935872196 0.22547796869 -158.263719934 0.658359448071 10.2174210991 0.544918766528 115.935872196 0.467570929 74.5941651828 0.225497433192 -158.204111553 0.658476835313 -169.769789864 0.22547796869 -158.263719934 0.225497433192 -158.204111553 0.947792837153 126.616760714 0.000189915525016 -119.829401612 0.658359448071 10.2174210991 0.658476835313 -169.769789864 0.000189915525017 -119.829401612 0.364651922498 -153.384931924
9.35 0.468767380255 71.5375249035 0.545734803692 112.952736524 0.2223446146 -162.722879643 0.658022253918 7.41685191139 0.545734803692 112.952736524 0.468601041706 71.5345066952 0.222367070823 -162.661615406 0.658133080714 -172.569540732 0.2223446146 -162.722879643 0.222367070823 -162.661615406 0.949272101896 120.726025697 0.000190493888608 -124.049083591 0.658022253918 7.41685191139 0.658133080714 -172.569540732 0.000190493888608 -124.049083591 0.365878995506 -156.036368704
9.375 0.469824774766 68.4758012095 0.5465325145 109.970945398 0.21913615981 -167.178397218 0.657682212383 4.62257748004 0.5465325145 109.970945398 0.469666130583 68.4754804232 0.219161626019 -167.115425193 0.657786957729 -175.362959328 0.21913615981 -167.178397218 0.219161626019 -167.115425193 0.950762850635 114.842869484 0.000191167484017 -128.218319387 0.657682212383 4.62257748004 0.657786957729 -175.362959328 0.000191167484018 -128.218319387 0.367110706164 -158.683797203
9.4 0.470917217979 65.4145368819 0.547310807712 106.990389375 0.215853010341 -171.630317269 0.657339295801 1.83448696483 0.547310807712 106.990389375 0.470765585661 65.416925695 0.21588149905 -171.565581691 0.657438464418 -178.150157929 0.215853010341 -171.630317269 0.21588149905 -171.565581691 0.952263354676 108.967334336 0.000191947564926 -132.33920152 0.657339295801 1.83448696483 0.657438464418 -178.150157929 0.000191947564927 -132.339201521 0.368347042452 -161.327290132
9.425 0.472044118035 62.3535861595 0.54806858785 104.010963938 0.212495563564 -176.07870192 0.656993475975 -0.947528075434 0.54806858785 104.010963938 0.47189878537 62.3586884999 0.212527081515 -176.012142729 0.657087597724 179.068753457 0.212495563564 -176.07870192 0.212527081515 -176.012142729 0.953771880417 103.099420766 0.000192845167914 -136.414151994 0.656993475975 -0.947528075434 0.657087597724 179.068753457 0.000192845167915 -136.414151994 0.369587994691 -163.966918974
9.45 0.473204872898 59.2928098509 0.548804756976 101.032569155 0.209064200221 179.476368912 0.656644724259 -3.72357374193 0.548804756976 101.032569155 0.473065099342 59.3006212778 0.209098748402 179.544816596 0.656734353604 176.293667022 0.209064200221 179.476368912 0.209098748402 179.544816596 0.955286690471 97.2390885476 0.000193871094332 -140.445904644 0.656644724259 -3.72357374194 0.656734353604 176.293667022 0.000193871094333 -140.445904645 0.370833555431 -166.602754037
9.475 0.474398872766 56.2320750753 0.549518216116 98.055109334 0.205559276375 175.034797198 0.656293011642 -6.4937538565 0.549518216116 98.055109334 0.474263890954 56.242582684 0.205596850062 175.105203649 0.656378727116 173.524477087 0.205559276375 175.034797198 0.205596850062 175.105203649 0.956806044993 91.3862573541 0.000195035884894 -144.437487211 0.656293011642 -6.4937538565 0.656378727116 173.524477087 0.000195035884895 -144.437487211 0.372083719345 -169.234864491
9.5 0.475625502203 53.1712549784 0.550207866318 95.0784926806 0.201981115329 170.596466431 0.655938308833 -9.25817002329 0.550207866318 95.0784926806 0.47549451957 53.1844373296 0.202021704154 170.66890797 0.656020712463 170.761080029 0.201981115329 170.596466431 0.202021704154 170.66890797 0.958328203129 85.5408070841 0.000196349784977 -148.392202155 0.655938308833 -9.25817002329 0.656020712463 170.761080029 0.000196349784977 -148.392202155 0.373338483121 -171.863318425
9.525 0.476884141983 50.1102284286 0.550872609355 92.1026309525 0.198329999585 166.161241227 0.655580586343 -12.0169216912 0.550872609355 92.1026309525 0.476756342506 50.1260555024 0.198373587636 166.235800956 0.655660303006 168.003374215 0.198329999585 166.161241227 0.198373587636 166.235800956 0.959851424488 79.7025779289 0.000197822699422 -152.313605251 0.655580586343 -12.0169216912 0.655660303006 168.003374215 0.000197822699422 -152.313605252 0.374597845359 -174.488182883
9.55 0.478174170642 47.0488796939 0.551511348084 89.1274391258 0.194606162909 161.728966913 0.65521981457 -14.7701062163 0.551511348084 89.1274391258 0.478048716698 47.0673128695 0.194652728854 161.805735544 0.655297491252 165.251259937 0.194606162909 161.728966913 0.194652728854 161.805735544 0.961373970516 73.8713702338 0.0001994641365 -156.205481009 0.65521981457 -14.7701062163 0.655297491252 165.251259937 0.0001994641365 -156.20548101 0.375861806459 -177.109523908
9.575 0.479494965725 43.9870981049 0.552122986435 86.1528350669 0.190809782577 157.299469104 0.654855963881 -17.5178189245 0.552122986435 86.1528350669 0.479371000064 44.0080901659 0.190859299811 157.3785459 0.654932268818 162.50463935 0.190809782577 157.299469104 0.190859299811 157.3785459 0.962894105682 68.0469442067 0.000201283141558 -160.071814156 0.654855963881 -17.5178189245 0.654932268818 162.50463935 0.000201283141558 -160.071814156 0.377130368526 -179.727406585
9.6 0.480845904732 40.9247777045 0.552706429075 83.1787392178 0.186940971842 152.87255328 0.65448900469 -20.2601531732 0.552706429075 83.1787392178 0.480722552556 40.9482728698 0.186993408668 152.954047123 0.654564626383 159.763416408 0.186940971842 152.87255328 0.186993408668 152.954047123 0.964410098371 62.2290195235 0.000203288221783 -163.916756642 0.65448900469 -20.2601531732 0.654564626383 159.763416408 0.000203288221782 -163.916756643 0.378403535262 177.658104918
9.625 0.48222636574 37.8618168886 0.553260580716 80.2050742953 0.182999772715 148.448004369 0.654118907537 -22.9972004128 0.553260580716 80.2050742953 0.482102736898 37.8877508704 0.183055092538 148.532034983 0.654194553629 157.027496808 0.182999772715 148.448004369 0.183055092538 148.532034983 0.965920221373 56.417274873 0.000205487264281 -167.74458995 0.654118907537 -22.9972004128 0.654194553628 157.027496808 0.00020548726428 -167.74458995 0.379681311867 175.046947316
9.65 0.483635727708 34.79811804 0.553784345109 77.2317650083 0.178986149102 144.025586338 0.653745643162 -25.7290502469 0.553784345109 77.2317650083 0.483510918986 34.8264181279 0.179044310657 144.112285694 0.653822039168 154.296787931 0.178986149102 144.025586338 0.179044310657 144.112285694 0.96742275191 50.6113474822 0.000207887450413 -171.559682864 0.653745643162 -25.7290502469 0.653822039168 154.296787931 0.000207887450412 -171.559682864 0.380963704937 172.439058166
9.675 0.485073370451 31.7335871601 0.554276623708 74.2587377963 0.174899980364 139.605041807 0.653369182584 -28.4557904917 0.554276623708 74.2587377963 0.484946467967 31.7641723314 0.174960937963 139.694555742 0.653447070479 151.571198795 0.174899980364 139.605041807 0.174960937963 139.694555742 0.968915971099 44.8108326562 0.000210495169787 -175.366445282 0.653369182584 -28.4557904917 0.653447070479 151.571198795 0.000210495169786 -175.366445283 0.38225072237 169.834375834
9.7 0.486538674268 28.6681334986 0.554736314033 71.2859205906 0.170741055363 135.186091676 0.652989497168 -31.1775072341 0.554736314033 71.2859205906 0.486408755961 28.7009145559 0.170804759162 135.27858176 0.653069633832 148.850639998 0.170741055363 135.186091676 0.170804759162 135.27858176 0.970398162799 39.0152833624 0.000213315937655 -179.169279023 0.652989497168 -31.1775072341 0.653069633832 148.850639998 0.000213315937654 -179.169279023 0.383542373262 167.23283946
9.725 0.488031019231 25.6016691875 0.55516230774 68.3132426021 0.166509067032 130.76843477 0.652606558695 -33.8942848881 0.555162307741 68.3132426021 0.487897157438 25.6365489223 0.166575463326 130.864080489 0.652689714218 146.135023669 0.166509067032 130.76843477 0.166575463326 130.864080489 0.971867611791 33.2242098826 0.000216354319446 177.027473044 0.652606558695 -33.8942848881 0.652689714218 146.135023669 0.000216354319445 177.027473044 0.384838667815 164.634388925
9.75 0.489549784116 22.5341088804 0.555553488416 65.3406341389 0.162203607539 126.351747497 0.652220339436 -36.6062062506 0.555553488416 65.3406341389 0.489411048236 22.5709822636 0.162272639075 126.4507488 0.652307295285 143.424263427 0.162203607539 126.351747497 0.162272639075 126.4507488 0.973322601251 27.4370795522 0.000219613865953 173.21957793 0.652220339436 -36.6062062506 0.652307295285 143.424263427 0.000219613865952 173.21957793 0.386139617238 162.038964821
9.775 0.491094344971 19.4653694012 0.555908729111 62.3680264544 0.157824164085 121.935683527 0.651830812208 -39.3133525546 0.555908729111 62.3680264544 0.490949804204 19.5041237998 0.157895770393 122.038263818 0.651922359273 140.71827433 0.157824164085 121.935683527 0.157895770393 122.038263818 0.974761409491 21.6533166007 0.000223097062128 169.402961798 0.651830812208 -39.3133525546 0.651922359273 140.71827433 0.000223097062127 169.402961798 0.387445233658 159.446508419
9.8 0.492664073317 16.3953694063 0.556226889641 59.3953516322 0.153370115386 117.519873457 0.651437950449 -42.0158035225 0.556226889641 59.3953516322 0.492512799477 16.4358848257 0.153444233137 117.626283141 0.65153488696 138.016972836 0.153370115386 117.519873457 0.153444233137 117.626283141 0.976182305962 15.872302102 0.000226805291729 165.573755757 0.651437950449 -42.0158035225 0.65153488696 138.016972836 0.000226805291728 165.573755757 0.388755530021 156.856961643
9.825 0.494258333975 13.3240290615 0.556506813662 56.4225425065 0.148840728884 113.103924486 0.65104172827 -44.7136374165 0.556506813662 56.4225425065 0.494099404366 13.3661784142 0.14891729226 113.21444518 0.651144857614 135.320276762 0.148840728884 113.103924486 0.14891729226 113.21444518 0.977583546516 10.0933740424 0.000230738819066 161.728336545 0.65104172827 -44.7136374165 0.651144857614 135.320276762 0.000230738819065 161.728336545 0.390070520005 154.27026704
9.85 0.495876482507 10.2512697398 0.556747325565 53.449532625 0.144235158735 108.687420054 0.650642120525 -47.4069310882 0.556747325565 53.449532625 0.495708982864 10.2949191385 0.144314099824 108.802369634 0.650752248947 132.628105243 0.144235158735 108.687420054 0.144314099824 108.802369634 0.978963367938 4.31582750554 0.000234896788094 157.863360675 0.650642120525 -47.4069310882 0.650752248947 132.628105243 0.000234896788094 157.863360675 0.391390217928 151.686367758
9.875 0.497517862284 7.17701374193 0.556947227195 50.476256254 0.139552444618 104.269919435 0.650239102865 -50.0957600272 0.556947227195 50.476256254 0.497340889752 7.22202281842 0.139633693827 104.389658131 0.650357037085 129.940378694 0.139552444618 104.269919435 0.139633693827 104.389658131 0.980319981782 -1.4610850232 0.000239277238035 153.975790983 0.650239102865 -50.0957600272 0.650357037085 129.940378694 0.000239277238035 153.975790983 0.392714638657 149.105207517
9.9 0.499181801149 4.1011840439 0.55710529444 47.5026484305 0.134791511416 99.8509572616 0.649832651798 -52.7801984078 0.55710529444 47.5026484305 0.498994467319 4.14740629116 0.1348749979 99.9758950587 0.649959196533 127.257018779 0.134791511416 99.8509572616 0.1348749979 99.9758950587 0.981651567532 -7.23815323781 0.000243877133715 150.062914958 0.649832651798 -52.7801984078 0.649959196533 127.257018779 0.000243877133715 150.062914957 0.394043797523 146.526730586
9.925 0.500867607706 1.02370407552 0.55722027371 44.528645064 0.129951169813 95.4300429198 0.649422744745 -55.4603191349 0.55722027371 44.528645064 0.500669041677 1.07098721399 0.130036821921 95.5606486342 0.64955870016 124.57794837 0.129951169813 95.4300429198 0.130036821921 95.5606486342 0.98295626514 -13.016208481 0.000248692408034 146.122354661 0.649422744745 -55.4603191349 0.64955870016 124.57794837 0.000248692408034 146.122354661 0.395377710234 143.950881764
9.95 0.5025745672 -2.0555024663 0.557290878354 41.5541830911 0.125030117862 91.0066597766 0.649009360097 -58.1361938881 0.557290878354 41.5541830911 0.502363918677 -2.00731609987 0.125117863605 91.1434722797 0.649155519179 121.903091516 0.125030117862 91.0066597766 0.125117863605 91.1434722797 0.984232166989 -18.796123107 0.000253718013352 142.152068525 0.649009360097 -58.1361938881 0.649155519179 121.903091516 0.000253718013352 142.152068525 0.396716392785 141.377606355
9.975 0.504301937028 -5.13651176523 0.55731578504 38.5792006863 0.120026943584 86.580264142 0.648592477266 -60.8078931662 0.55731578504 38.5792006863 0.504078379431 -5.0875848069 0.120116711116 86.7239063795 0.648749623139 119.232373412 0.120026943584 86.580264142 0.120116711116 86.7239063795 0.985477309335 -24.5788097433 0.000258947978275 138.150345669 0.648592477266 -60.8078931662 0.648749623139 119.232373412 0.000258947978275 138.150345669 0.398059861383 138.806850148
10 0.506048941841 -8.2193999899 0.55729363015 35.6036375327 0.114940128653 82.1502838602 0.648172076741 -63.4754863288 0.55729363015 35.6036375327 0.505811675434 -8.16989961651 0.115031846771 82.3014805457 0.648340979919 116.565720365 0.114940128653 82.1502838602 0.115031846771 82.3014805457 0.9866896633 -30.3652204543 0.000264375466248 134.115793738 0.648172076741 -63.4754863288 0.648340979919 116.565720365 0.000264375466248 134.115793738 0.399408132353 136.238559401
10.025 0.507814768286 -11.3042433505 0.557223006237 32.6274351562 0.109768053243 77.7161163553 0.647748140137 -66.1390416388 0.557223006237 32.6274351562 0.507563023306 -11.2543408274 0.109861651903 77.8757165656 0.64792955573 113.903059765 0.109768053243 77.7161163553 0.109861651903 77.8757165656 0.98786712548 -36.1563458119 0.000269992832561 130.047321438 0.647748140137 -66.1390416388 0.64792955573 113.903059765 0.000269992832561 130.047321438 0.400761222066 133.672680818
10.05 0.509598559362 -14.3911181026 0.557102458591 29.6505373261 0.104509002113 73.277125885 0.647320650247 -68.7986263034 0.557102458591 29.6505373261 0.509331599146 -14.3409883127 0.104604412959 73.4461322865 0.647515315117 111.244320056 0.104509002113 73.277125885 0.104604412959 73.4461322865 0.989007508253 -41.9532138735 0.000275791676798 125.944117101 0.647320650247 -68.7986263034 0.647515315117 111.244320056 0.000275791676798 125.944117101 0.402119146851 131.109161535
10.075 0.511399408432 -17.4801004941 0.55693048198 26.6728905283 0.0991611720056 68.8326396283 0.646889591088 -71.4543065143 0.55693048198 26.6728905283 0.511116532529 -17.4299214483 0.0992583289197 69.0122468214 0.647098220966 108.58943071 0.0991611720056 68.8326396283 0.0992583289197 69.0122468214 0.990108529869 -47.7568890673 0.000281762888308 121.8056246 0.646889591088 -71.4543065143 0.647098220966 108.58943071 0.000281762888308 121.805624599 0.403481922921 128.547949099
10.1 0.513216352888 -20.5712666491 0.556705517624 23.6944445122 0.0937226804696 64.3819420297 0.646454947948 -74.1061474882 0.556705517624 23.6944445122 0.512916900149 -20.52121898 0.0938215201297 64.5735876602 0.646678234516 105.938322192 0.0937226804696 64.3819420297 0.0938215201297 64.5735876602 0.99116780442 -53.5684709804 0.000287896682988 117.631517891 0.646454947948 -74.1061474882 0.646678234516 105.938322192 0.000287896682988 117.631517891 0.404849566292 125.98899146
10.125 0.515048367505 -23.6646923838 0.556425950477 20.715152918 0.0881915761946 59.9242664945 0.646016707431 -76.754213506 0.556425950477 20.715152918 0.514731719154 -23.6149588245 0.088292038652 60.1297006031 0.64625531537 103.290925942 0.0881915761946 59.9242664945 0.088292038652 60.1297006031 0.992182831787 -59.3890930462 0.000294182630367 113.421675328 0.646016707431 -76.754213506 0.64625531537 103.290925942 0.000294182630367 113.421675327 0.406222092705 123.432236946
10.15 0.516894357511 -26.7604529488 0.556090106907 17.7349739874 0.0825658509858 55.4587829628 0.645574857496 -79.3985679523 0.556090106907 17.7349739874 0.516559940168 -26.7112177972 0.0826678802532 55.6801639952 0.64582942151 100.647174346 0.0825658509858 55.4587829628 0.0826678802532 55.6801639952 0.993150987688 -65.2199211171 0.000300609670688 109.176154686 0.645574857496 -79.3985679523 0.64582942151 100.647174346 0.000300609670688 109.176154686 0.407599517549 120.877634257
10.175 0.518753151414 -29.8586226925 0.55569625285 14.7538713619 0.0768434534996 50.9845789089 0.645129387499 -82.0392733547 0.55569625285 14.7538713619 0.518400440079 -29.8100712622 0.076946998152 51.224609719 0.645400509316 98.0070007074 0.0768434534996 50.9845789089 0.076946998152 51.224609719 0.994069513954 -71.0621519129 0.000307166122329 104.895169696 0.645129387499 -82.0392733547 0.645400509316 98.0070007074 0.000307166122329 104.895169696 0.408981855791 118.325132448
10.2 0.520623493625 -32.959274638 0.555242592541 11.7718149734 0.0710223048812 46.500629515 0.644680288229 -84.6763914229 0.555242592541 11.7718149734 0.520252014609 -32.911592699 0.0711273186679 46.7627551832 0.644968533584 95.3703392294 0.0710223048812 46.500629515 0.0711273186679 46.7627551832 0.99493550917 -76.9170113248 0.000313839680448 100.579068613 0.644680288229 -84.6763914229 0.644968533584 95.3703392294 0.000313839680448 100.579068613 0.410369121892 115.774680914
10.225 0.522504036948 -36.0624799688 0.554727267953 8.78878203092 0.0651003164584 42.0057493574 0.644227551934 -87.3099830873 0.554727267953 8.78878203092 0.522113370741 -36.015853178 0.0652067589244 42.2944539286 0.644533447548 92.7371249871 0.0651003164584 42.0057493574 0.0652067589244 42.2944539286 0.995745919858 -82.7857525543 0.000320617408136 96.2283151948 0.644227551934 -87.3099830873 0.644533447548 92.7371249871 0.000320617408136 96.2283151947 0.411761329741 113.226229381
10.25 0.524393334995 -39.1683074158 0.554148359041 5.80475810633 0.0590754096626 37.4985111145 0.643771172358 -89.9401085389 0.554148359041 5.80475810633 0.523983119067 -39.1229207397 0.0591832467778 37.8197792257 0.644095202906 90.1072939069 0.0590754096626 37.4985111145 0.0591832467778 37.8197792257 0.996497532374 -88.6696540614 0.000327485721683 91.8434722767 0.643771172358 -89.9401085389 0.644095202906 90.1072939069 0.000327485721683 91.8434722766 0.413158492577 110.679727894
10.275 0.526289834621 -42.2768225404 0.553503884941 2.81973832312 0.0529455383787 32.9771022747 0.643311144756 -92.5668272679 0.553503884941 2.81973832312 0.525859766144 -42.2328596714 0.0530547431721 33.3391693985 0.643653749847 87.4807827445 0.0529455383787 32.9771022747 0.0530547431721 33.3391693985 0.997186965742 -94.5700172917 0.000334430371663 87.4251879832 0.643311144756 -92.5668272679 0.643653749847 87.4807827445 0.000334430371663 87.4251879832 0.414560622914 108.135126803
10.3 0.528191868473 -45.3880869058 0.552791806285 -0.166271350347 0.0467087139796 28.4390575858 0.642847465919 -95.1901981035 0.552791806285 -0.166271350347 0.527741706954 -45.345729674 0.0468192671741 28.8536963999 0.643209037087 84.8575290641 0.0467087139796 28.4390575858 0.0468192671741 28.8536963999 0.997810665655 -100.488164149 0.000341436421644 82.9741844969 0.642847465919 -95.1901981035 0.643209037087 84.8575290641 0.000341436421644 82.9741844969 0.415967732475 105.592376756
10.325 0.53009764777 -48.5021571311 0.552010028778 -3.15325270165 0.0403630334318 23.8807217838 0.642380134181 -97.8102792532 0.552010028777 -3.15325270165 0.529627217594 -48.461584914 0.0404749240735 24.3656011101 0.642761011901 82.2374712182 0.0403630334318 23.8807217838 0.0404749240735 24.3656011101 0.998364899918 -106.425434174 0.000348488226196 78.4912492378 0.642380134181 -97.8102792532 0.642761011901 82.2374712182 0.000348488226197 78.4912492378 0.41737983211 103.051428683
10.35 0.532005255468 -51.6190838231 0.551156408217 -6.14117376953 0.0339067112302 19.2960638118 0.64190914943 -100.427128343 0.551156408217 -6.14117376953 0.531514448329 -51.5804729544 0.0340199372934 19.8794681186 0.642309620172 79.6205483286 0.0339067112302 19.2960638118 0.0340199372934 19.8794681186 0.998845755638 -112.383181393 0.000355569409766 73.9772282468 0.64190914943 -100.427128343 0.642309620172 79.6205483286 0.000355569409766 73.9772282468 0.41879693173 100.512233795
10.375 0.533912639957 -54.738910379 0.550228757169 -9.12998723581 0.0273381171162 14.6737038718 0.641434513104 -103.040802459 0.550228757169 -9.12998723581 0.533401417179 -54.7024335591 0.0274526860374 15.4051572871 0.641854806439 77.0067002674 0.0273381171162 14.6737038718 0.0274526860374 15.4051572871 0.999249138506 -118.362770782 0.000362662847773 69.433021552 0.641434513104 -103.040802459 0.641854806439 77.0067002674 0.000362662847773 69.433021552 0.420219040231 97.9747435651
10.4 0.535817609478 -57.8616716574 0.54922485347 -12.1196287184 0.0206558263985 9.98796616409 0.640956228182 -105.651358182 0.54922485347 -12.1196287184 0.535286004207 -57.8274973673 0.0207717553423 10.9665836773 0.641396513958 74.3958676392 0.0206558263985 9.98796616409 0.0207717553423 10.9665836773 0.99957077455 -124.365574316 0.00036975065108 64.8595802992 0.640956228182 -105.651358182 0.641396513958 74.3958676392 0.00036975065108 64.8595802992 0.421646165418 95.438909726
10.425 0.537717827494 -60.9873925138 0.548142450791 -15.1100149729 0.0138587166116 5.16292277271 0.640474299171 -108.258851639 0.548142450791 -15.1100149729 0.53716594675 -60.9556844348 0.0139760313249 6.63676090426 0.640934684768 71.7879917638 0.0138587166116 5.16292277271 0.0139760313249 6.63676090426 0.999806214782 -130.392966534 0.00037681415475 60.2579054498 0.640474299171 -108.258851639 0.640934684768 71.7879917638 0.00037681415475 60.2579054498 0.423078313934 92.9046842584
10.45 0.539610809228 -64.116086199 0.546979291482 -18.1010420136 0.00694641658442 -0.181843061227 0.639988732077 -110.863338531 0.546979291482 -18.1010420136 0.539038835813 -64.0870026405 0.00706513457696 2.78195929739 0.640469259775 69.1830146591 0.00694641658442 -0.181843061226 0.00706513457696 2.78195929739 0.999950843208 -136.446319591 0.000383833911893 55.629047889 0.639988732077 -110.863338531 0.640469259775 69.1830146591 0.000383833911893 55.629047889 0.424515491181 90.3720193831
10.475 0.541493919665 -67.2477526223 0.545733121901 -21.0925831695 0.000202537361312 -118.4569364 0.63949953437 -113.464874184 0.545733121901 -21.0925831695 0.5409021139 -67.2214459603 0.000186649229293 76.1725558995 0.640000178844 66.5808790246 0.000202537361312 -118.4569364 0.000186649229293 76.1725558995 0.999999888686 -142.526997736 0.000390789693243 50.9741098312 0.63949953437 -113.464874184 0.640000178844 66.5808790246 0.000390789693243 50.9741098312 0.425957701246 87.8408675529
10.5 0.543364373309 -70.3823764832 0.54440171047 -24.0844870944 0.00723564808927 173.553248407 0.639006714939 -116.063513588 0.54440171047 -24.0844870944 0.542753074594 -70.3589926106 0.00711390893499 170.586332773 0.639527380903 63.9815282251 0.00723564808927 173.553248407 0.00711390893499 170.586332773 0.999948441177 -148.636351175 0.000397660493172 46.2942474583 0.639006714939 -116.063513588 0.639527380903 63.9815282251 0.000397660493172 46.2942474583 0.427404946822 85.3111814444
10.525 0.54521923602 -73.5199252774 0.542982868635 -27.0765757587 0.0144985140265 168.186891593 0.638510284035 -118.659311434 0.542982868635 -27.0765757587 0.544588864201 -73.4996030704 0.0143751152873 166.693640525 0.63905080407 61.3849062746 0.0144985140265 168.186891593 0.0143751152873 166.693640525 0.999791472931 -154.775709275 0.000404424542889 41.5906747756 0.638510284035 -118.659311434 0.63905080407 61.3849062746 0.000404424542889 41.5906747756 0.428857229122 82.7829139506
10.55 0.547055429306 -76.6603471905 0.541474474945 -30.0686424533 0.0218784671971 163.285948137 0.638010253204 -121.25232216 0.541474474945 -30.0686424533 0.546406485819 -76.6432179917 0.0217533431377 162.284892255 0.638570385789 58.79095782 0.0218784671971 163.285948137 0.0217533431377 162.284892255 0.99952386519 -160.946373063 0.00041105933184 36.8646687118 0.638010253204 -121.25232216 0.638570385789 58.79095782 0.00041105933184 36.8646687118 0.430314547806 80.2560181727
10.575 0.548869737423 -79.803568894 0.539874502378 -33.0604498475 0.0293738454993 158.488853976 0.637506635202 -123.842599991 0.539874502378 -33.0604498475 0.548202806213 -79.789756016 0.0292468941596 157.733896548 0.63808606299 56.1996281244 0.0293738454993 158.488853976 0.0292468941596 157.733896548 0.999140440955 -167.149607007 0.000417541638664 32.1175755188 0.637506635202 -123.842599991 0.63808606299 56.1996281244 0.000417541638663 32.1175755188 0.431776900885 77.7304474128
10.6 0.550658817698 -82.9494932671 0.538181049028 -36.051728148 0.0369828678483 153.722149258 0.636999443907 -126.430198978 0.538181049028 -36.051728148 0.549974565876 -82.9391115181 0.0368539699641 153.114740683 0.637597772262 53.6108630507 0.0369828678483 153.722149258 0.0368539699641 153.114740683 0.998636004375 -173.386630039 0.000423847573484 27.3508185483 0.636999443907 -126.430198978 0.637597772262 53.6108630507 0.000423847573484 27.3508185483 0.43324428464 75.2061551664
10.625 0.552419214465 -86.0979970714 0.536392372194 -39.0421734149 0.0447031908579 148.960935615 0.63648869421 -129.01517304 0.536392372194 -39.0421734149 0.551718392691 -86.0911523061 0.044572211672 148.451773258 0.637105450054 51.0246090433 0.0447031908579 148.960935615 0.044572211672 148.451773258 0.998005387241 -179.658605821 0.000429952633904 22.5659074811 0.63648869421 -129.01517304 0.637105450054 51.0246090433 0.000429952633904 22.5659074811 0.434716693523 72.6830951146
10.65 0.554147377013 -89.2489286166 0.534506925841 -42.0314461031 0.0525317928511 144.194288627 0.635974401895 -131.597576006 0.534506925841 -42.0314461031 0.553430819568 -89.2457173138 0.05239858235 143.75519191 0.636609032888 48.4408131099 0.0525317928511 144.194288627 0.05239858235 143.75519191 0.99724350302 174.033367741 0.000435831777582 17.7644490688 0.635974401895 -131.597576006 0.636609032888 48.4408131099 0.000435831777582 17.7644490688 0.436194120067 70.1612211171
10.675 0.55583968192 -92.4021054589 0.532523401278 -45.0191699027 0.060464899674 139.416575394 0.635456583503 -134.177461652 0.532523401278 -45.0191699027 0.555108306455 -92.4026143295 0.0603292925869 139.029930507 0.636108457602 45.8594228016 0.060464899674 139.416575394 0.0603292925869 139.029930507 0.996345408711 167.688269721 0.000441459514888 12.9481594097 0.635456583503 -134.177461652 0.636108457602 45.8594228016 0.000441459514888 12.9481594097 0.437676554777 67.6404872038
10.7 0.557492460109 -95.5573121871 0.530440770807 -48.0049309631 0.0684979212461 134.624557064 0.634935256186 -136.75488374 0.530440770807 -48.0049309631 0.556747267031 -95.5616178137 0.068359737049 134.278623252 0.635603661606 43.2803861916 0.0684979212461 134.624557064 0.068359737049 134.278623252 0.995306374706 161.305168083 0.00044681002557 8.11887772435 0.634935256186 -136.75488374 0.635603661606 43.2803861916 0.00044681002557 8.11887772437 0.439163986026 65.1208475674
10.725 0.559102028906 -98.714298357 0.528258333942 -50.9882775957 0.0766253936744 129.816232004 0.634410437546 -139.329896058 0.528258333942 -50.9882775957 0.558344100371 -98.7224668672 0.0764844366691 129.502793819 0.635094583165 40.703651852 0.0766253936744 129.816232004 0.0764844366691 129.502793819 0.994121962593 154.883232216 0.000451857303703 3.27858151946 0.634410437546 -139.329896058 0.635094583165 40.703651852 0.000451857303703 3.27858151947 0.440656399944 62.6022565554
10.75 0.560664729276 -101.872776644 0.52597576563 -53.9687205531 0.0848409266411 124.990313202 0.633882145454 -141.902552454 0.52597576563 -53.9687205531 0.559895227777 -101.884863421 0.0846969861375 124.703399553 0.634581161701 38.1291688289 0.0848409266411 124.990313202 0.0846969861375 124.703399553 0.992788110643 148.421746007 0.000456575335233 -1.57059706193 0.633882145454 -141.902552454 0.634581161701 38.1291688289 0.000456575335234 -1.57059706193 0.442153780292 60.0846686616
10.775 0.56217696833 -105.032421297 0.523593165738 -56.9457339933 0.0931371571137 120.145970283 0.633350397861 -144.472906878 0.523593165738 -56.9457339933 0.561397134829 -105.048470726 0.0929900077326 119.881107046 0.634063338113 35.5568866144 0.0931371571137 120.145970283 0.0929900077326 119.881107046 0.991301226399 141.920121336 0.000460938312172 -6.42635400924 0.633350397861 -144.472906878 0.634063338113 35.5568866144 0.000460938312173 -6.42635400924 0.443656108336 57.5680385176
10.8 0.563635267018 -108.19286697 0.52111110887 -59.9187572343 0.101505710939 115.282693658 0.632815212598 -147.041013408 0.52111110887 -59.9187572343 0.562846418608 -108.212912227 0.101355113046 115.036443667 0.633541055118 32.986755116 0.101505710939 115.282693658 0.101355113046 115.036443667 0.989658285475 135.377911841 0.000464920886782 -11.2861957462 0.632815212598 -147.041013408 0.633541055118 32.986755116 0.000464920886782 -11.2861957462 0.44516336271 55.0523208837
10.825 0.565036312778 -111.353708041 0.518530693388 -62.8871974077 0.10993717411 110.400219615 0.632276607155 -149.606926292 0.518530693388 -62.8871974077 0.56423983984 -111.377770922 0.109782874393 110.169886884 0.633014257607 30.4187246237 0.10993717411 110.400219615 0.109782874393 110.169886884 0.987856935302 128.794826793 0.000468498467954 -16.1474214851 0.632276607155 -149.606926292 0.633014257607 30.4187246237 0.000468498467954 -16.1474214851 0.446675519265 52.5374706397
10.85 0.566377016684 -114.514498495 0.515853588296 -65.8504331106 0.118421075616 105.498487641 0.631734598458 -152.170699975 0.515853588296 -65.8504331106 0.565574379524 -114.542589284 0.118262807806 105.281920164 0.632482893014 27.8527457723 0.118421075616 105.498487641 0.118262807806 105.281920164 0.985895602151 122.170744863 0.000471647560316 -21.0071062476 0.631734598458 -152.170699975 0.632482893014 27.8527457723 0.000471647560316 -21.0071062476 0.448192550917 50.0234427742
10.875 0.567654574424 -117.674752483 0.513082076481 -68.8078191459 0.12694588379 100.577615565 0.631189202631 -154.732389129 0.513082076481 -68.8078191459 0.566847299363 -117.706869869 0.126783369542 100.373069714 0.631946911699 25.288769501 0.12694588379 100.577615565 0.126783369542 100.373069714 0.983773599357 115.505727564 0.00047434614448 -25.8620852385 0.631189202631 -154.732389129 0.631946911699 25.288769501 0.000474346144479 -25.8620852385 0.449714427467 47.5101923748
10.9 0.568866530188 -120.833945644 0.510219092634 -71.7586924205 0.135499018008 95.6378847588 0.630640434753 -157.292048685 0.510219092634 -71.7586924205 0.568056205099 -120.870076672 0.135331967932 95.4439295531 0.631406267338 22.7267470081 0.135499018008 95.6378847588 0.135331967932 95.4439295531 0.981491234244 108.800032108 0.000476574094329 -30.7089402989 0.630640434753 -157.292048685 0.631406267338 22.7267470081 0.000476574094328 -30.7089402989 0.451241115422 44.9976746161
10.925 0.570010842286 -123.991517269 0.507268254048 -74.7023790476 0.144066877434 90.6797310178 0.630088308613 -159.849733859 0.507268254048 -74.7023790476 0.569199111561 -124.031637345 0.143894992284 90.4951789772 0.630860917316 20.166629702 0.144066877434 90.6797310178 0.143894992284 90.4951789772 0.979049910875 102.054123408 0.000478313624515 -35.5439891632 0.630088308613 -159.849733859 0.630860917316 20.166629702 0.000478313624513 -35.5439891631 0.452772577796 42.4858447483
10.95 0.571085949062 -127.146873399 0.504233882435 -77.638202666 0.152634888222 85.70373851 0.629532836462 -162.405500175 0.504233882435 -77.638202666 0.570274508025 -127.190946324 0.152457860236 85.5275946898 0.630310823124 17.6083691471 0.152634888222 85.70373851 0.152457860236 85.5275946898 0.976452225414 95.2686849233 0.000479549758517 -40.3632781919 0.629532836462 -162.405500175 0.630310823124 17.6083691471 0.000479549758515 -40.3632781917 0.454308773885 39.9746580838
10.975 0.572090833436 -130.299390882 0.501121014915 -80.5654939469 0.161187570245 80.7106351429 0.628974028774 -164.959403492 0.501121014915 -80.5654939469 0.571281422197 -130.347368938 0.161005084629 80.5420589025 0.629755950747 15.0519170044 0.161187570245 80.7106351429 0.161005084629 80.5420589025 0.973702050628 88.4446280675 0.000480270805131 -45.1625791446 0.628974028774 -164.959403492 0.629755950747 15.0519170044 0.000480270805128 -45.1625791444 0.455849659041 37.4640699836
11 0.573025084194 -133.448422446 0.4979354024 -83.4836012155 0.169708623933 75.701288287 0.628411894019 -167.511500023 0.4979354024 -83.4836012155 0.572219480987 -133.500246513 0.169520360482 75.5395641514 0.629196271044 12.4972249674 0.169708623933 75.701288287 0.169520360482 75.5395641514 0.970804605909 81.5830998711 0.00048046882926 -49.9373903933 0.628411894019 -167.511500023 0.629196271044 12.4972249674 0.000480468829257 -49.937390393 0.457395184409 34.9540358427
11.025 0.573888952016 -136.59330277 0.494683493808 -86.3919020589 0.178181037253 70.6767001356 0.627846438454 -170.06184636 0.494683493808 -86.3919020589 0.573088966032 -136.648902482 0.177986672095 70.5212152693 0.628631760116 9.94424469193 0.178181037253 70.6767001356 0.177986672095 70.5212152693 0.967766509206 74.6854886157 0.000480140101856 -54.6829427619 0.627846438454 -170.06184636 0.628631760116 9.94424469193 0.000480140101853 -54.6829427616 0.458945296648 32.4445110742
11.05 0.574683398122 -139.733355514 0.491372404829 -89.2898157364 0.186587212223 65.6380022108 0.627277665952 -172.610499488 0.491372404829 -89.2898157364 0.573890861907 -139.792649448 0.186386419655 65.4882287792 0.628062399642 7.39292772124 0.186587212223 65.6380022108 0.186386419655 65.4882287792 0.964595807399 67.7534271771 0.000479285513998 -59.3942099296 0.627277665952 -172.610499488 0.628062399642 7.39292772124 0.000479285513994 -59.3942099292 0.460499937633 29.9354510923
11.075 0.575410133452 -142.867901255 0.488009870351 -92.1768161506 0.194909109631 60.5864486939 0.62670557788 -175.157516808 0.488009870351 -92.1768161506 0.574626894915 -142.930797147 0.194701564053 60.4419298892 0.6274881772 4.84322540415 0.194909109631 60.5864486939 0.194701564053 60.4419298892 0.961301981992 60.7887938428 0.000477910941768 -64.0659230625 0.62670557788 -175.157516808 0.6274881772 4.84322540415 0.000477910941765 -64.0659230621 0.462059044114 27.4268112945
11.1 0.576071646389 -145.996266183 0.484604180183 -95.0524450828 0.203128409952 55.5234083763 0.626130173037 -177.702956154 0.484604180183 -95.0524450828 0.575299560505 -146.062661171 0.202913787845 55.3837472282 0.62690908654 2.29508880812 0.203128409952 55.5234083763 0.202913787845 55.3837472282 0.957895927534 53.7937104176 0.000476027551898 -68.6925890869 0.626130173037 -177.702956154 0.62690908654 2.29508880812 0.000476027551894 -68.6925890865 0.463622547364 24.9185470425
11.125 0.576671217268 -149.117791424 0.48116409825 -97.9163253472 0.211226687703 50.4503551358 0.6255514477 179.753124192 0.48116409825 -97.9163253472 0.575912137546 -149.187572313 0.211004669649 50.3152054644 0.626325127824 -0.251531373973 0.211226687703 50.4503551358 0.211004669649 50.3152054644 0.954389900879 46.7705374821 0.000473652043185 -73.2685118043 0.6255514477 179.753124192 0.626325127824 -0.251531373973 0.000473652043183 -73.2685118039 0.465190372777 22.4106136411
11.15 0.577212918221 -152.231842784 0.477698766118 -100.768173477 0.21918559583 45.3688569316 0.624969395787 177.21066548 0.477698766118 -100.768173477 0.576468688054 -152.304886324 0.21895586853 45.2379159648 0.625736307809 -2.79668492292 0.21918559583 45.3688569316 0.21895586853 45.2379159648 0.950797440287 39.721866733 0.000470806825384 -77.7878149406 0.624969395787 177.21066548 0.625736307809 -2.79668492292 0.000470806825382 -77.7878149403 0.466762439443 19.9029663168
11.175 0.57770159737 -155.337820692 0.474217592361 -103.60781153 0.226987056165 40.2805633893 0.624384009198 174.669608474 0.474217592361 -103.60781153 0.576974041348 -155.413993867 0.226749314433 40.1535656897 0.625142639973 -5.34042219809 0.226987056165 40.2805633893 0.226749314433 40.1535656897 0.947133254346 32.6505104062 0.000467520145393 -82.2444662558 0.624384009198 174.669608474 0.625142639973 -5.34042219809 0.000467520145392 -82.2444662557 0.468338659674 17.3955601947
11.2 0.578142846865 -158.43517007 0.470730129931 -106.435177603 0.234613451536 35.1871921225 0.623795278388 172.129893439 0.470730129931 -106.435177603 0.577433762175 -158.514330401 0.234367400244 35.0639045509 0.624544144573 -7.88279424818 0.234613451536 35.1871921225 0.234367400244 35.0639045509 0.943413081851 25.5594878564 0.000463826179965 -86.6323021023 0.623795278388 172.129893439 0.624544144573 -7.88279424818 0.000463826179966 -86.6323021025 0.469918938496 14.8883502741
11.225 0.57854295488 -161.523389892 0.467245944332 -109.250334634 0.242047814864 30.0905139984 0.623203193261 169.591460119 0.467245944332 -109.250334634 0.577854102905 -161.605385734 0.241793170801 29.9707315077 0.623940848631 -10.4238529274 0.242047814864 30.0905139984 0.241793170801 29.9707315077 0.939653524819 18.4520094474 0.000459765124368 -90.9450523892 0.623203193261 169.591460119 0.623940848631 -10.4238529274 0.00045976512437 -90.9450523897 0.471503173088 12.3812914022
11.25 0.578908842283 -164.602042121 0.463774475889 -112.053477128 0.249274010503 24.9923376089 0.622607744469 167.054247726 0.463774475889 -112.053477128 0.578241940498 -164.686712967 0.249010504125 24.8758797065 0.623332785831 -12.9636510171 0.249274010503 24.9923376089 0.249010504125 24.8758797065 0.935871857998 11.3314579802 0.000455383317305 -95.1763669132 0.622607744468 167.054247726 0.623332785831 -12.9636510171 0.000455383317307 -95.1763669142 0.473091252174 9.87433824785
11.275 0.579247985281 -167.670759786 0.460324899817 -114.844935499 0.256276903195 19.8944932491 0.622008925284 164.518194933 0.460324899817 -114.844935499 0.578604699561 -167.757936564 0.256004280256 19.7812010042 0.622719996329 -15.502242352 0.256276903195 19.8944932491 0.256004280256 19.7812010042 0.932085819144 4.20136796105 0.0004507334536 -99.319845625 0.622008925284 164.518194933 0.622719996329 -15.502242352 0.000450733453603 -99.3198456266 0.47468305536 7.3674452726
11.3 0.57956832596 -170.729253936 0.456905987974 -117.625177758 0.263042510398 14.7988167357 0.621406734211 161.983239876 0.456905987974 -117.625177758 0.578950263394 -170.818759311 0.262760533425 14.6885502303 0.622102526452 -18.0396819515 0.263042510398 14.7988167357 0.262760533425 14.6885502303 0.928313385231 -2.9345969296 0.000445874947388 -103.369077859 0.621406734211 161.983239876 0.622102526452 -18.0396819515 0.000445874947391 -103.369077861 0.476278452413 4.86056670157
11.325 0.579878173087 -173.777319288 0.453525976282 -120.394808442 0.269558134228 9.70713340982 0.620801178592 159.44932019 0.453525976282 -120.394808442 0.579286875374 -173.868967947 0.269266583835 9.59976955631 0.621480428298 -20.5760261544 0.269558134228 9.70713340982 0.269266583835 9.59976955631 0.92457254031 -10.0726677492 0.000440874519494 -107.317699232 0.620801178592 159.44932019 0.621480428298 -20.5760261544 0.000440874519497 -107.317699235 0.477877302473 2.35365649284
11.35 0.58018609592 -176.814838369 0.45019244157 -123.154564696 0.275812469999 4.62124266956 0.620192279528 156.916373085 0.45019244157 -123.154564696 0.579623033419 -176.908437317 0.275511146034 4.51667333209 0.620853759211 -23.1113327573 0.275812469999 4.62124266956 0.275511146034 4.51667333209 0.920881041138 -17.2089951338 0.000435807092342 -111.159480328 0.620192279527 156.916373085 0.620853759211 -23.1113327573 0.000435807092343 -111.159480332 0.479479453204 -0.153331693946
11.375 0.580500814043 -179.841784089 0.446912191305 -125.905309612 0.281795689149 -0.457096635417 0.619580078513 154.384335508 0.446912191305 -125.905309612 0.579967380523 -179.937132934 0.28148441166 -0.558966267645 0.620222581129 -25.6456611563 0.281795689149 -0.457096635417 0.28148441166 -0.558966267646 0.917256186745 -24.3396745891 0.000430757082124 -114.888469142 0.619580078513 154.384335508 0.62022258113 -25.6456611563 0.000430757082123 -114.888469147 0.481084739862 -2.66044452981
11.4 0.580831086301 177.141779342 0.443691169126 -128.648022982 0.287499495269 -5.52617964508 0.618964646287 151.853144456 0.443691169126 -128.648022982 0.580328594407 177.044888089 0.287178105296 -5.6254324729 0.619586959801 -28.1790724897 0.287499495269 -5.52617964508 0.287178105296 -5.6254324729 0.9137145979 -31.4607717487 0.000425820176525 -118.499220505 0.618964646287 151.853144456 0.619586959801 -28.1790724897 0.000425820176523 -118.49922051 0.482692984294 -5.16772904911
11.425 0.581185601849 174.135697111 0.440534378466 -131.383789748 0.292917152865 -10.5843675002 0.618346094433 149.322737522 0.440534378466 -131.383789748 0.580715279303 174.03747774 0.292585513062 -10.6810757523 0.618946963854 -30.7116297833 0.292917152865 -10.5843675002 0.292585513062 -10.6810757523 0.910272011971 -38.5683471272 0.000421105667906 -121.987161379 0.618346094433 149.322737522 0.618946963854 -30.7116297833 0.000421105667903 -121.987161385 0.484303993846 -7.67523268256
11.45 0.581572876145 171.139726059 0.437445825783 -134.113786518 0.298043489433 -15.6300977073 0.617724590241 146.793053867 0.437445825783 -134.113786518 0.58113586265 171.040399336 0.297701484525 -15.7243240281 0.61830266372 -33.2433980944 0.298043489433 -15.6300977073 0.297701484525 -15.7243240281 0.906943097978 -45.6584799223 0.000416739358777 -125.349161846 0.61772459024 146.793053867 0.61830266372 -33.2433980944 0.000416739358774 -125.349161851 0.485917560185 -10.1830032902
11.475 0.582001154338 168.153538345 0.434428484153 -136.839266571 0.302874872241 -20.6618926934 0.617100375002 144.264035837 0.434428484153 -136.839266571 0.581598499156 168.053331183 0.302522409331 -20.7536911055 0.617654130398 -35.7744446568 0.302874872241 -20.6618926934 0.302522409331 -20.7536911055 0.90374129575 -52.7272904632 0.000412866936143 -128.584407561 0.617100375002 144.264035837 0.617654130398 -35.7744446568 0.000412866936147 -128.584407565 0.487533458023 -12.6910891941
11.5 0.58247832411 165.176726378 0.431484277174 -139.561543824 0.307409161962 -25.6783664476 0.616473785035 141.735631656 0.431484277174 -139.561543824 0.582110984247 165.075871465 0.3070461707 -25.7677832061 0.617001434058 -38.3048390231 0.307409161962 -25.6783664476 0.3070461707 -25.7677832061 0.900678682095 -59.7709609583 0.000409657467331 -131.695697075 0.616473785035 141.735631656 0.617001434058 -38.3048390231 0.000409657467351 -131.695697077 0.489151443743 -15.1995392098
