! Touchstone file exported from HFSS 2025.2.4
!        File:           C:/Users/chaoy/Documents/single_magictee_v2_stageA/g2_4p60mm_lt_6p00mm/single_magictee_v2.aedt
!        Generated:      02:55:34 PM Sep 19, 2026
!        Design:         SingleMagicT_v2
!        Project:        single_magictee_v2
!
! Variables:
!        f_adapt = 10.2GHz
!        ridge_g1 = 7.672mm
!        ridge_g2 = 4.6mm
!        ridge_l1 = 9.872mm
!        ridge_l2 = 8.857mm
!        ridge_w = 4.572mm
!        terminal_ridge_len = 6mm
!        wg_a = 22.86mm
!        wg_b = 10.16mm
!
!Data is not renormalized
# GHz S MA
! Terminal data exported
! Port[1] = P1_CollinearMinusX
! Port[2] = P2_CollinearPlusX
! Port[3] = P3_HArm_Ridged
! Port[4] = P4_EArm
9                              0.190297111513241 -154.929512172931 0.540642799073241 -158.666915698862 0.482709651644276 102.688349820857 0.662181066906502 45.2660577078635 
                               0.540642799073236 -158.666915698862 0.190741586708056 -155.082875815822 0.482507646510565 102.653816022144 0.662200409218524 -134.786232079855 
                               0.482709651644276 102.688349820857 0.482507646510568 102.653816022144 0.730874574693367 -176.944559813708 0.000345449109396489 -38.0467945400234 
                               0.662181066906501 45.2660577078635 0.662200409218526 -134.786232079855 0.000345449109395961 -38.0467945399537 0.350723157670404 -108.865664719958 
9.025                          0.190341955959135 -157.528065960032 0.542293380463472 -161.596464513638 0.481462215363911 99.6376964224381 0.66172663254022 42.3567476851949 
                               0.54229338046343 -161.596464513637 0.190791023676175 -157.681488201802 0.481262528681852 99.6033100187835 0.661742571131073 -137.695347813329 
                               0.481462215363903 99.637696422436  0.481262528681863 99.6033100187857 0.732515433931706 179.799652330126 0.000345848021766077 -41.2322365723746 
                               0.661726632540189 42.3567476851955 0.661742571131084 -137.69534781333 0.000345848021758518 -41.2322365738202 0.3524398501881  -111.585122128097 
9.05                           0.190391028983   -160.120284816864 0.543943704149581 -164.517281269245 0.48020871158513 96.5917118628046 0.661268768476502 39.4553485124866 
                               0.543943704149516 -164.517281269244 0.190844659857827 -160.273739549768 0.480011330816635 96.5574735395708 0.66128131789995 -140.59654371176 
                               0.480208711585117 96.591711862801  0.480011330816652 96.5574735395747 0.73415674585116 176.545493049857 0.000346204715553465 -44.4191472131532 
                               0.661268768476452 39.4553485124876 0.661281317899968 -140.596543711761 0.000346204715540682 -44.4191472156788 0.354160218138318 -114.300318096566 
9.075                          0.190444528997834 -162.706410668553 0.545594060827324 -167.429556487758 0.478948729525366 93.5503508526734 0.660807440284077 36.5617249631933 
                               0.545594060827243 -167.429556487757 0.19090268126546 -162.859871295702 0.478753640591354 93.5162612831959 0.660816619888802 -143.48995485178 
                               0.478948729525348 93.5503508526688 0.478753640591374 93.5162612832007 0.735798888702412 173.293049875271 0.000346516914262108 -47.6071710238113 
                               0.660807440284015 36.5617249631945 0.660816619888824 -143.489954851782 0.000346516914245716 -47.6071710270426 0.355884202109413 -117.011319688614 
9.1                            0.1905026174517  -165.286683376904 0.54724472900246 -170.33347907203 0.477681874424332 90.5135674489532 0.660342616533698 33.6757424445816 
                               0.547244729002373 -170.333479072028 0.190965236890818 -165.440122798033 0.47748906159653 90.4796273435777 0.660348450507395 -146.375715690494 
                               0.477681874424313 90.5135674489481 0.477489061596551 90.479627343583  0.737442224605369 170.042409997074 0.000346782381741509 -50.7959548298151 
                               0.660342616533631 33.675742444583  0.660348450507419 -146.375715690496 0.000346782381722929 -50.7959548334348 0.357611749730563 -119.718192902872 
9.125                          0.190565420290412 -167.861340076145 0.54889597367291 -173.229235937312 0.476407769117514 87.4813154588406 0.659874268277517 30.7972672769324 
                               0.548895973672822 -173.229235937311 0.191032440175864 -168.014730679523 0.476217214923833 87.4475256109623 0.659876785691381 -149.253959786638 
                               0.476407769117494 87.4813154588355 0.476217214923854 87.4475256109677 0.739087096606425 166.793660372964 0.000346998927370555 -53.9851466829817 
                               0.659874268277451 30.7972672769338 0.659876785691405 -149.25395978664 0.000346998927351025 -53.9851466867256 0.359342815143118 -122.421002672918 
9.15                           0.190633029434128 -170.430614560599 0.550548045198202 -176.117011683773 0.475126055479034 84.4535487963305 0.659402368576619 27.9261669383403 
                               0.550548045198117 -176.117011683771 0.191104370497215 -170.583928220817 0.4749377406221  84.4199101255732 0.659401603429554 -152.124819556155 
                               0.475126055479016 84.4535487963255 0.474937740622121 84.4199101255783 0.740733826010044 163.546887798391 0.000347164411198576 -57.1743948007025 
                               0.659402368576557 27.9261669383416 0.659401603429577 -152.124819556157 0.000347164411179153 -57.1743948043557 0.361077358509265 -125.119812870892 
9.175                          0.190705504260635 -172.994736722127 0.552201178346864 -178.996988307455 0.473836395732455 81.4302217925523 0.658926892074563 25.0623102772985 
                               0.552201178346788 -178.996988307453 0.191181074657028 -173.147944803447 0.473650299020822 81.3967353852397 0.658922883336437 -154.988426059999 
                               0.473836395732437 81.4302217925479 0.473650299020841 81.3967353852443 0.742382709988914 160.302178942762 0.000347276749042336 -60.3633464881908 
                               0.658926892074507 25.0623102772997 0.658922883336459 -154.98842606    0.000347276749023906 -60.3633464915833 0.362815345556595 -127.814686314665 
9.2                            0.19078287308924 -175.553932035105 0.553855591512236 178.130655052738 0.472538473628607 78.4112894615352 0.65844781461463 22.205567695239  
                               0.55385559151217 178.130655052739 0.191262568374413 -175.707005400085 0.472354571920181 78.3779566086129 0.658440606267899 -157.844908821983 
                               0.472538473628592 78.4112894615314 0.472354571920197 78.3779566086169 0.744034019474932 157.059620352074 0.000347333917536809 -63.5516470494974 
                               0.658447814614582 22.20556769524   0.658440606267918 -157.844908821985 0.000347333917520092 -63.5516470524997 0.364556747157027 -130.50568477816 
9.225                          0.190865134660229 -178.108421086785 0.555511486087046 175.26574233441  0.471231995490136 75.3967077231613 0.657965112898377 19.3558113011602 
                               0.555511486086992 175.265742334411 0.191348837772479 -178.261330109882 0.471050263647285 75.3635299557386 0.65795475397742 -160.694395674558 
                               0.471231995490123 75.3967077231582 0.471050263647298 75.3635299557419 0.745687997331319 153.819298419141 0.000347333959137004 -66.7389386925941 
                               0.657965112898339 19.3558113011611 0.657954753977436 -160.694395674559 0.000347333959122567 -66.7389386951134 0.366301538938527 -133.192869004432 
9.25                           0.190952259605748 179.341580849112 0.55716904598712 172.408100739715 0.469916691122944 72.3864335852129 0.657478764183067 16.5129150404354 
                               0.557169045987078 172.408100739716 0.191439840857001 179.18886626327  0.469737101978794 72.3534127078958 0.657465308810575 -163.537012630399 
                               0.469916691122935 72.3864335852105 0.469737101978804 72.3534127078983 0.747344856804321 150.581299322783 0.00034727498706751 -69.924859433314 
                               0.657478764183039 16.512915040436  0.657465308810588 -163.5370126304  0.000347274987055775 -69.9248594352898 0.368049700927986 -135.876298721132 
9.275                          0.191044191908802 176.795864197658 0.558828437314603 169.557560894315 0.468592314595296 69.3804252865322 0.656988746015465 13.6767547998359 
                               0.558828437314574 169.557560894316 0.191535508983507 176.6433745916   0.468414838930652 69.3475634087243 0.656972253435263 -166.37288377779 
                               0.468592314595289 69.3804252865305 0.468414838930658 69.3475634087261 0.749004780251218 147.34570893746  0.000347155190215753 -73.1090420023875 
                               0.656988746015446 13.6767547998363 0.656972253435273 -166.372883777791 0.000347155190207008 -73.1090420037876 0.369801217223561 -138.556032658035 
9.3                            0.191140850347712 174.254225428854 0.56048980815121 166.713956979428 0.467258644885804 66.378642403413  0.656495035999533 10.8472084907499 
                               0.560489808151193 166.713956979428 0.191635748310243 174.101991765505 0.467083251416182 66.3459419687627 0.656475570605203 -169.202131197798 
                               0.4672586448858  66.3786424034121 0.467083251416186 66.3459419687636 0.750667918139656 144.112612715036 0.000346972837964371 -76.291112759206 
                               0.656495035999523 10.8472084907502 0.65647557060521 -169.202131197798 0.000346972837958781 -76.2911127600227 0.371556075694807 -141.232128566319 
9.325                          0.191242129924022 171.716467366595 0.562153288472134 163.87712683907  0.465915486402082 63.3810459214194 0.655997611595533 8.02415611250298 
                               0.562153288472128 163.87712683907  0.191740441235076 171.564520998689 0.465742141774293 63.3485097355904 0.655975242954244 -172.024874901342 
                               0.465915486402081 63.3810459214192 0.465742141774294 63.3485097355906 0.752334388311806 140.88209554044  0.000346726284957576 -79.4706906153082 
                               0.655997611595532 8.02415611250306 0.655975242954247 -172.024874901342 0.000346726284955196 -79.4706906155541 0.373314267708875 -143.904643239313 
9.35                           0.19134790327233 169.182399462338 0.563818990171464 161.046912064502 0.464562669372285 60.387598274885  0.655496449948093 5.20747979762    
                               0.56381899017147 161.046912064502 0.191849447814901 169.030772098296 0.464391338170033 60.3552295318295 0.655471252819065 -174.841232784316 
                               0.464562669372286 60.3875982748855 0.464391338170032 60.355229531829  0.754004275505343 137.654241563127 0.000346413975796033 -82.6473859698999 
                               0.655496449948098 5.2074797976199  0.655471252819065 -174.841232784316 0.000346413975796817 -82.6473859696045 0.375075787881049 -146.573632534459 
9.375                          0.191458022050933 166.651838035284 0.565487007190178 158.223158057793 0.463200050112276 57.3982633563876 0.654991527740831 2.3970638407888  
                               0.565487007190193 158.223158057793 0.191962607166494 166.500561701802 0.463030694870244 57.366065663294  0.654963582087888 -177.651320598986 
                               0.463200050112279 57.3982633563887 0.46303069487024 57.3660656632929 0.755677631121935 134.429134006315 0.00034603444965465 -85.8207996590202 
                               0.654991527740843 2.39706384078853 0.654963582087885 -177.651320598986 0.000346034449658469 -85.8207996582266 0.376840633847939 -149.239151396253 
9.4                            0.191572318312542 164.124606480758 0.567157415738002 155.405714076354 0.461827511171592 54.4130064985158 0.654482821075232 -0.407205286793374 
                               0.567157415738025 155.405714076354 0.19207973884811 163.97371348239  0.461660092397477 54.3809838996047 0.654452212072899 179.54474806     
                               0.461827511171598 54.4130064985174 0.461660092397471 54.380983899603  0.757354473232684 131.206854956057 0.000345586344817827 -88.9905219192322 
                               0.654482821075249 -0.407205286793775 0.654452212072894 179.544748060001 0.000345586344824475 -88.9905219179935 0.378608806061633 -151.901253879945 
9.425                          0.191690605854572 161.600535448467 0.568830274600742 152.594433260167 0.460444961361835 51.4317944302521 0.653970305371471 -3.20543893609271 
                               0.568830274600772 152.594433260167 0.19220064422139 161.450058324433 0.460279437565828 51.3999514295848 0.653937123404147 176.746861756611 
                               0.460444961361843 51.4317944302541 0.46027943756582 51.3999514295827 0.759034786808837 127.987485132256 0.0003450684031272 -92.1561313659791 
                               0.653970305371492 -3.20543893609323 0.653937123404139 176.746861756612 0.000345068403136415 -92.1561313643558 0.380380307603145 -154.559993175815 
9.45                           0.191812681548745 159.079462992151 0.570505625524932 149.78917264338  0.459052335671522 48.454595210289  0.65345395528906 -5.99774629041624 
                               0.570505625524968 149.789172643379 0.192325107793308 158.929434470626 0.45888866340273 48.4229367937509 0.653418295942767 173.954911202945 
                               0.459052335671531 48.4545952102914 0.458888663402721 48.4229367937484 0.760718524165115 124.771103643762 0.000344479474337848 -95.3171939859985 
                               0.653453955289084 -5.99774629041684 0.653418295942757 173.954911202946 0.000344479474349316 -95.3171939840556 0.382155144013552 -157.215421633839 
9.475                          0.191938326649869 156.561234692136 0.572183493671976 146.989793151805 0.457649595071837 45.4813781395697 0.652933744665192 -8.78423438566629 
                               0.572183493672016 146.989793151804 0.19245289853807 156.411687642249 0.457487728961163 45.449909796182  0.652895708711495 171.168789238691 
                               0.457649595071846 45.4813781395723 0.457487728961154 45.4499097961793 0.762405605602139 121.55778772971  0.0003438185203802 -98.4732621424451 
                               0.652933744665218 -8.78423438566698 0.652895708711483 171.168789238692 0.000343818520393573 -98.4732621402496 0.383933323141222 -159.867590788594 
9.5                            0.192067308083773 154.04570375219  0.573863888134258 144.196159587808 0.456236726218074 42.5121136553115 0.65240964646884 -11.5650081393295 
                               0.5738638881343  144.196159587807 0.192583771198926 153.896671133959 0.456076619027095 42.4808413980188 0.652369339840504 168.388390801879 
                               0.456236726218085 42.5121136553143 0.456076619027084 42.4808413980159 0.76409592023369 118.34761248926  0.000343084619526765 -101.623873590645 
                               0.652409646468867 -11.5650081393302 0.652369339840491 168.38839080188  0.000343084619541671 -101.623873588264 0.385714855003626 -162.516551384252 
9.525                          0.192199379714445 151.532731072019 0.575546802506006 141.408140603957 0.454813741051914 39.5467732087189 0.651881632768709 -14.3401703869443 
                               0.575546802506049 141.408140603956 0.192717467569946 151.384245884439 0.454655343727295 39.5157035947922 0.65183916652674 165.613612892192 
                               0.454813741051925 39.5467732087218 0.454655343727284 39.5157035947892 0.765789326983951 115.140650601864 0.000342276970465096 -104.768550501702 
                               0.651881632768736 -14.3401703869451 0.651839166526726 165.613612892193 0.00034227697048115 -104.768550499201 0.387499751662245 -165.16235339955 
9.55                           0.192334283590399 149.02218529668  0.577232215502028 138.625608666712 0.453380676309943 36.5853291285338 0.651349674713289 -17.1098219248782 
                               0.577232215502072 138.625608666711 0.192853717757772 148.874280524186 0.453223938042994 36.5544692797205 0.651305165005008 162.844354527987 
                               0.453380676309954 36.5853291285368 0.453223938042983 36.5544692797174 0.767485655739406 111.936972040173 0.000341394896281245 -107.906798490516 
                               0.651349674713315 -17.109821924879 0.651305165004994 162.844354527988 0.000341394896298061 -107.906798487956 0.389288027109171 -167.805046072608 
9.575                          0.192471751170335 146.513942844151 0.578920091617757 135.84844001137  0.451937592944128 33.6277544724983 0.650813742521351 -19.8740615583292 
                               0.578920091617801 135.848440011369 0.192992241423383 146.36665140164  0.451782461235075 33.5971120950412 0.650767310529204 160.080516698142 
                               0.451937592944139 33.6277544725013 0.451782461235064 33.5971120950381 0.769184708639737 108.736643777623 0.000340437848361402 -111.038105644161 
                               0.650813742521376 -19.87406155833  0.65076731052919 160.080516698143 0.0003404378483786 -111.038105641598 0.391079697164062 -170.444677925508 
9.6                            0.192611504528073 144.007887912197 0.580610381824365 133.076514589366 0.450484575460138 30.6740228687253 0.650273805481354 -22.6329861535514 
                               0.580610381824407 133.076514589365 0.193132749003832 143.861242588817 0.450330996186742 30.6436062733654 0.650225577362179 157.322002309698 
                               0.450484575460149 30.6740228687282 0.450330996186732 30.6436062733624 0.770886261491844 105.539729492692 0.000339405410223283 -114.161941546033 
                               0.650273805481378 -22.6329861535522 0.650225577362164 157.322002309699 0.000339405410240502 -114.161941543519 0.392874779380159 -173.081296788535 
9.625                          0.192753257536715 141.503912465678 0.582303024293037 130.309716008972 0.449021731179611 27.7241083488807 0.649729831958323 -25.3866906933872 
                               0.582303024293077 130.309716008971 0.193274942913859 141.357945867568 0.448869648669778 27.6939264709481 0.649679938772845 154.568716132253 
                               0.449021731179622 27.7241083488835 0.448869648669769 27.6939264709453 0.772590065291077 102.346289271726 0.000338297301293326 -117.277756290731 
                               0.649729831958344 -25.3866906933879 0.64967993877283 154.568716132254 0.000338297301310228 -117.27775628831 0.39467329295818 -175.714949824016 
9.65                           0.192896717031875 139.001916205371 0.583997945142824 127.547931470338 0.447549189432571 24.7779851749845 0.649181789406902 -28.1352683352684 
                               0.583997945142862 127.547931470338 0.193418518727189 138.856660697533 0.447398546540623 24.7480475946728 0.649130367039251 151.820564739912 
                               0.447549189432581 24.7779851749871 0.447398546540615 24.7480475946702 0.77429584783379 99.1563793121383 0.000337113380650648 -120.384979484253 
                               0.649181789406922 -28.135268335269 0.649130367039237 151.820564739913 0.000337113380666926 -120.384979481962 0.396475258666964 -178.345683549688 
9.675                          0.193041583953789 136.501806519359 0.585695059206815 124.791051695751 0.44606710068631 21.8356276615337 0.648629644389378 -30.8788104709267 
                               0.58569505920685 124.79105169575  0.193563166337252 136.357294166836 0.4459178388726  21.805944624445  0.648576833456474 149.077456451575 
                               0.446067100686319 21.8356276615362 0.445917838872592 21.8059446244425 0.776003315405534 95.9700516276971 0.000335853650764137 -123.483019223915 
                               0.648629644389396 -30.8788104709273 0.64857683345646 149.077456451576 0.000335853650779522 -123.483019221785 0.398280698769799 179.026456138473 
9.7                            0.193187554467942 134.003498417987 0.587394270811685 122.038970855907 0.444575635617067 18.897009994536  0.648073362597586 -33.6174067871352 
                               0.587394270811716 122.038970855907 0.193708571096946 133.859760926519 0.44442769503066 18.8675924325727 0.648019308348249 146.339301270245 
                               0.444575635617076 18.8970099945382 0.444427695030653 18.8675924325704 0.777712154529512 92.7873537574897 0.000334518261254818 -126.571261052283 
                               0.648073362597601 -33.6174067871358 0.648019308348236 146.339301270245 0.000334518261269081 -126.571261050336 0.400089636955479 176.401423943985 
9.725                          0.193334321063846 131.506914453408 0.589095474566006 119.291586492927 0.443074984130849 15.9621060489318 0.647512908877722 -36.3511453268688 
                               0.589095474566033 119.291586492926 0.193854414936956 131.363983109713 0.442928303694996 15.9329656016053 0.647457761081428 143.606010821949 
                               0.443074984130856 15.9621060489337 0.44292830369499 15.9329656016033 0.779422033760317 89.6083284800244 0.00033310751272177 -129.649066879517 
                               0.647512908877733 -36.3511453268693 0.647457761081416 143.606010821949 0.000333107512734728 -129.649066877768 0.401902098273192 173.77917514822  
9.75                           0.19348157363142 129.011984624656 0.590798556153016 116.548799440761 0.44156535433965 13.03088920576   0.646948247257189 -39.0801125503486 
                               0.590798556153039 116.548799440761 0.194000377462078 128.869890236516 0.441419871839816 13.0020382419749 0.646892160082411 140.877498294835 
                               0.441565354339656 13.0308892057617 0.44141987183981 13.0020382419732 0.781132605508546 86.4330135338127 0.000331621860676267 -132.715773868843 
                               0.646948247257199 -39.080112550349 0.6468921600824  140.877498294835 0.000331621860687779 -132.715773867301 0.403718109070425 171.159665589401 
9.775                          0.193629000514409 126.518646269224 0.592503393123861 113.810513743588 0.440046971499263 10.1033321703003 0.64637934097272 -41.8043933955038 
                               0.592503393123881 113.810513743588 0.194146137024859 126.377419105506 0.439902623673478 10.074783810666  0.646322472854821 138.153678378889 
                               0.440046971499269 10.1033321703018 0.439902623673474 10.0747838106644 0.782843507882455 83.2614413456277 0.000330061919635374 -135.7706932804  
                               0.646379340972727 -41.8043933955042 0.646322472854811 138.153678378889 0.000330061919645349 -135.770693279068 0.405537696933141 168.542851642277 
9.8                            0.193776289540144 124.026843942091 0.594209855687611 111.076636572721 0.438520076914695 7.17940679230136 0.645806152499074 -44.5240713374458 
                               0.594209855687628 111.07663657272  0.194291371775816 123.886513672852 0.438376799546028 7.15117493201441 0.645748665997791 135.434467206691 
                               0.4385200769147  7.1794067923026  0.438376799546024 7.15117493201315 0.784554366533608 80.0936387674944 0.00032842846743294 -138.813109269497 
                               0.645806152499079 -44.5240713374461 0.645748665997782 135.434467206692 0.000328428467441332 -138.813109268371 0.407360890627594 165.928690198481 
9.825                          0.193923129024907 121.536529283115 0.595917807494684 108.34707814249  0.436984926819019 4.2590838892761  0.645228643577775 -47.2392284466166 
                               0.595917807494697 108.34707814249  0.194435760689407 121.397124919936 0.436842654829977 4.23118322161098 0.645170705224318 132.719782295552 
                               0.436984926819023 4.25908388927711 0.436842654829975 4.23118322160996 0.78626479649421 76.9296268233232 0.000326722449812554 -141.842277636483 
                               0.645228643577779 -47.2392284466168 0.64517070522431 132.719782295553 0.000326722449819359 -141.842277635555 0.409187720043171 163.317138647598 
9.85                           0.194069208754102 119.047660873736 0.597627106410578 105.621751625525 0.435441791231272 1.34233307372197 0.64464677524537 -49.9499454453297 
                               0.597627106410588 105.621751625525 0.194578984564872 118.909210710417 0.43530045877996 1.31477911415811 0.644588555379239 130.009542491295 
                               0.435441791231275 1.34233307372276 0.435300458779958 1.31477911415731 0.787974403994751 73.7694204659464 0.000324944985373593 -144.857424526878 
                               0.644646775245372 -49.94994544533  0.644588555379233 130.009542491295 0.00032494498537885 -144.857424526135 0.411018216135772 160.708154858937 
9.875                          0.194214220936386 116.560204083909 0.599337605277131 102.900573067773 0.433890952798716 -1.5708774150056 0.644060507860821 -52.6563017624818 
                               0.599337605277138 102.900573067773 0.194720727001029 116.422735637651 0.433750493376592 -1.59806830399581 0.644002180456457 127.303667913925 
                               0.433890952798718 -1.57087741500501 0.433750493376591 -1.59806830399639 0.789682788251485 70.6130283451691 0.000323097370947825 -147.857745082334 
                               0.644060507860822 -52.656301762482 0.644002180456451 127.303667913925 0.00032309737095161 -147.857745081762 0.412852410871283 158.101697164019 
9.9                            0.194357861130894 114.074130910183 0.601049152658776 100.183461303575 0.432332705628502 -4.48058087355724 0.643469801131718 -55.3583755862594 
                               0.60104915265878 100.183461303575 0.194860675344075 113.937670863382 0.432193052159579 -4.50739145704197 0.643411543615128 124.602079905353 
                               0.432332705628504 -4.48058087355683 0.432193052159579 -4.50739145704238 0.791389543214285 67.4604525872986 0.000321181087489956 -150.842402045382 
                               0.643469801131718 -55.3583755862595 0.643411543615124 124.602079905353 0.000321181087492379 -150.842402044961 0.414690337168773 155.497724339786 
9.925                          0.194499829146709 111.589419805846 0.602761593571568 97.4703378710522 0.430767354113409 -7.38681229171044 0.642874614139047 -58.0562439147244 
                               0.60276159357157 97.4703378710521 0.194998521607446 111.453993948619 0.430628439054776 -7.41322443613977 0.642816607194616 121.904700979287 
                               0.43076735411341 -7.38681229171019 0.430628439054776 -7.41322443614003 0.793094259266428 64.3116885864623 0.000319197806570978 -153.810524323801 
                               0.642874614139045 -58.0562439147244 0.642816607194612 121.904700979287 0.000319197806572175 -153.810524323511 0.416532028843122 152.896195592512 
9.95                           0.194639829913707 109.106055504057 0.60447477019302 94.7611269280165 0.429195211755988 -10.2896085033797 0.642274905360353 -60.749982604198 
                               0.604474770193021 94.7611269280164 0.195133963362804 108.971688677615 0.429056967199514 -10.3156031497255 0.642217332728044 119.211454773377 
                               0.429195211755989 -10.2896085033796 0.429056967199515 -10.3156031497256 0.794796524868942 61.1667248078826 0.000317149397567981 -156.761205524043 
                               0.642274905360352 -60.749982604198 0.642217332728041 119.211454773377 0.000317149397568109 -156.761205523864 0.418377520546821 150.297070542421 
9.975                          0.194777574323984 106.624028834866 0.606188522551024 92.0557551685819 0.427616599995047 -13.1890083312683 0.641670632691187 -63.4396664154147 
                               0.606188522551023 92.0557551685818 0.195266704601265 106.490744875844 0.427478957770165 -13.2145654674553 0.641613680954389 116.522266003636 
                               0.427616599995047 -13.1890083312683 0.427478957770166 -13.2145654674553 0.796495928143196 58.0255426031324 0.000315037935648064 -159.693502467378 
                               0.641670632691185 -63.4396664154147 0.641613680954387 116.522266003636 0.000315037935647298 -159.693502467289 0.420226847710777 147.700309209006 
10                             0.194912780043105 104.143336537054 0.607902689190415 89.3541517406096 0.426031847038008 -16.0850527250231 0.641061753464772 -66.1253690574497 
                               0.607902689190413 89.3541517406096 0.195396456564033 104.011158222896 0.42589473881545 -16.1101513576473 0.64100561182909 113.837060421146 
                               0.426031847038008 -16.0850527250232 0.425894738815451 -16.1101513576472 0.79819205838654 54.8881160372557 0.00031286571064695 -162.60643370749 
                               0.64106175346477 -66.1253690574497 0.641005611829088 113.837060421146 0.000312865710645474 -162.606433707472 0.422080046483985 145.105871997024 
10.025                         0.195045172290509 101.663981065673 0.609617107815965 86.6562481640865 0.424441286702233 -18.977784892863 0.6404482244699  -68.8071632294668 
                               0.609617107815963 86.6562481640865 0.195522938541684 101.532930061174 0.424304644098628 -19.0024030181935 0.640393084533198 111.155764770976 
                               0.424441286702232 -18.9777848928631 0.424304644098629 -19.0024030181933 0.799884507516825 51.754411727501  0.000310635236944633 -165.498978074277 
                               0.640448224469898 -68.8071632294667 0.640393084533197 111.155764770976 0.000310635236942635 -165.49897807431 0.423937153671995 142.513719683169 
10.05                          0.195174484588503 99.1859703962013 0.611331615910821 83.9619782505061 0.422845257268006 -21.8672504267492 0.639830001967107 -71.4851206603587 
                               0.611331615910818 83.9619782505061 0.195645878641476 99.0560672013059 0.422709011951231 -21.8913650010093 0.63977605748116 108.478306753271 
                               0.422845257268005 -21.8672504267494 0.422709011951232 -21.8913650010091 0.801572871442758 48.6243886932924 0.000308349264440641 -168.370073275625 
                               0.639830001967105 -71.4851206603586 0.63977605748116 108.478306753271 0.000308349264438303 -168.370073275693 0.425798206674127 139.923813403401 
10.075                         0.195300459479388 96.709317826197  0.61304605132963 81.2712780232888 0.421244100345399 -24.7534974212669 0.639207041703221 -74.1593121463896 
                               0.613046051329626 81.2712780232888 0.195765014522127 96.5805817251334 0.421108184140588 -24.7770843301901 0.63915448832735 105.804614986375 
                               0.421244100345398 -24.7534974212672 0.421108184140589 -24.7770843301898 0.803256751358023 45.4979982169348 0.000306010790729931 -171.21861459717 
                               0.63920704170322 -74.1593121463895 0.639154488327351 105.804614986375 0.000306010790727429 -171.218614597258 0.427663243419447 137.336114640915 
10.1                           0.195422849210424 94.2340417753266 0.61476025286581 78.5840856392529 0.419638159756826 -27.6365765864713 0.638579298924403 -76.829807586968 
                               0.614760252865807 78.5840856392529 0.195880094095723 94.1064907871612 0.41950250475294 -27.6596106141264 0.638528333971518 103.134618971873 
                               0.419638159756825 -27.6365765864715 0.419502504752941 -27.6596106141261 0.80493575495816 42.3751837144363 0.000303623074576769 -174.043453749569 
                               0.638579298924402 -76.8298075869679 0.638528333971519 103.134618971873 0.000303623074574263 -174.043453749665 0.429532302301545 134.75058521474  
10.125                         0.195541416386477 91.7601655846242 0.616474060792623 75.9003413111247 0.418027780436634 -30.5165413550395 0.637946728387857 -79.4966760187071 
                               0.61647406079262 75.9003413111247 0.195990876196505 91.6338164153164 0.417892319093503 -30.5389961519136 0.637897550563337 100.46824906139  
                               0.418027780436633 -30.5165413550398 0.417892319093504 -30.5389961519133 0.80660949758011 39.2558806157237 0.000301189650777678 -176.843397923823 
                               0.637946728387856 -79.496676018707 0.637897550563339 100.46824906139  0.000301189650775311 -176.843397923916 0.431405422112179 132.167187268947 
10.15                          0.195655934590371 89.2877173158242 0.618187317377877 73.2199872310524 0.416413307348666 -33.3934479841443 0.637309284372399 -82.1599856479461 
                               0.618187317377873 73.2199872310524 0.196097131216504 89.1625853118491 0.416277972604403 -33.4152960344701 0.637262093506284 97.8054364249709 
                               0.416413307348665 -33.3934479841446 0.416277972604404 -33.4152960344698 0.808277603265272 36.1400162534242 0.000298714346495257 -179.617209127748 
                               0.637309284372399 -82.159985647946 0.637262093506285 97.8054364249707 0.000298714346493149 -179.617209127832 0.433282641973874 129.585883262456 
10.175                         0.195766188971173 86.8167295515813 0.619899867372295 70.5429674950723 0.414795084422296 -36.2673556525335 0.636666920688087 -84.819803881924 
                               0.619899867372292 70.5429674950723 0.196198641708182 86.6928286551864 0.414659809800994 -36.2885682408421 0.636621917461082 95.146113020849  
                               0.414795084422295 -36.2673556525337 0.414659809800995 -36.2885682408418 0.809939705747762 33.0275097592935 0.000296201299131704 177.63639610899  
                               0.636666920688087 -84.8198038819239 0.636621917461083 95.1461130208489 0.000296201299129948 177.636396108921 0.435164001271596 127.006635959421 
10.2                           0.195871976800807 84.3472391973631 0.621611558471721 67.8692280284575 0.413173453507026 -39.1383265533664 0.636019590685157 -87.476197358811 
                               0.621611558471719 67.8692280284574 0.196295202954426 84.2245819035159 0.413038173226641 -39.1588737302385 0.635976976348976 92.4902115663984 
                               0.413173453507025 -39.1383265533666 0.413038173226642 -39.1588737302383 0.811595449370342 29.9182719672871 0.000293654975793612 174.918746557771 
                               0.636019590685158 -87.4761973588109 0.635976976348978 92.4902115663983 0.000293654975792273 174.91874655772  0.437049539583627 124.429408420174 
10.225                         0.195973107999642 81.8792872857687 0.623322241753498 65.1987165118674 0.411548753345351 -42.0064259834091 0.635367247262519 -90.1292319768129 
                               0.623322241753497 65.1987165118674 0.196386623506459 81.7578846008495 0.411413402425682 -42.0262765303914 0.635327223355111 89.8376655100495 
                               0.41154875334535 -42.0064259834092 0.411413402425682 -42.0262765303912 0.81324448993122 26.812205322195  0.000291080194377177 172.231215520374 
                               0.635367247262519 -90.1292319768128 0.635327223355114 89.8376655100494 0.000291080194376293 172.231215520341 0.438939296611755 121.85416399273  
10.25                          0.196069405631894 79.4129187839894 0.625031772087487 62.5313823082038 0.409921318563212 -44.8717224292409 0.634709842876041 -92.7789729225714 
                               0.625031772087486 62.5313823082038 0.196472725690473 79.292780186272  0.409785832933874 -44.8908438228859 0.6346726109323  87.1884090039461 
                               0.409921318563212 -44.871722429241 0.409785832933874 -44.8908438228858 0.814886495465559 23.7092037926891 0.000288482146274466 169.575219323541 
                               0.634709842876042 -92.7789729225713 0.634672610932302 87.188409003946  0.000288482146274045 169.575219323527 0.440833312110937 119.280866304828 
10.275                         0.196160706371908 76.9481824050839 0.626740008522322 59.8671763900698 0.40829147867701 -47.7342876511668 0.634047329546931 -95.4254846990893 
                               0.626740008522321 59.8671763900698 0.196553346083984 76.8293158070453 0.408155795285312 -47.7526460261425 0.634013090805457 84.5423768771107 
                               0.40829147867701 -47.7342876511668 0.408155795285312 -47.7526460261424 0.816521146966093 20.6091527875779 0.000285866420665774 166.952214916048 
                               0.634047329546933 -95.4254846990892 0.634013090805459 84.5423768771106 0.000285866420665796 166.952214916052 0.442731625818544 116.709479256487 
10.3                           0.196246860942618 74.4851304236942 0.628446814647596 57.206051267723  0.406659557115813 -50.5941967655607 0.633379658870438 -98.0688311534115 
                               0.628446814647597 57.2060512677229 0.196628335963179 74.3675421361845 0.406523614034442 -50.6117568767684 0.633348613977016 81.8995046088868 
                               0.406659557115813 -50.5941967655607 0.406523614034441 -50.6117568767684 0.818148139047747 17.5119290740062 0.000283239030319182 164.363696382731 
                               0.633379658870439 -98.0688311534113 0.633348613977017 81.8995046088867 0.000283239030319602 164.363696382751 0.444634277383328 114.139967013099 
10.325                         0.196327734527725 72.0238184967774 0.630152058932789 54.547960917408  0.405025870257097 -53.4515283263953 0.632706782025172 -100.709075504291 
                               0.630152058932789 54.5479609174079 0.196697561722704 71.9075131950764 0.404889606791513 -53.4682535100187 0.632679130733592 79.2597283024251 
                               0.405025870257097 -53.4515283263952 0.404889606791513 -53.4682535100187 0.819767180561537 14.4174006963009 0.000280606438764972 161.811190166192 
                               0.632706782025173 -100.709075504291 0.632679130733593 79.2597283024251 0.000280606438765724 161.811190166227 0.446541306294199 111.572293999009 
10.35                          0.196403207159324 69.564305489874  0.631855615043798 51.8928607099515 0.40339072647407 -56.306364406729 0.632028649783293 -103.346280370067 
                               0.631855615043799 51.8928607099514 0.19676090526963 69.4492861816522 0.403254083269517 -56.3222165401269 0.632004590654192 76.6229846579846 
                               0.40339072647407 -56.306364406729 0.403254083269517 -56.3222165401269 0.821377995163369 11.3254268941229 0.00027797558864821 159.296248763114 
                               0.632028649783295 -103.346280370067 0.632004590654193 76.6229846579845 0.000277975588649208 159.296248763163 0.448452751808909 109.006424891616 
10.375                         0.196473174082972 67.1066533093701 0.633557362138041 49.2407073395011 0.401754425192372 -59.1587906809386 0.631345212521829 -105.980507796984 
                               0.633557362138042 49.240707339501  0.196818264393512 66.9929213045687 0.401617344340414 -59.173730141278 0.631324942620251 73.9892109458213 
                               0.401754425192371 -59.1587906809386 0.401617344340414 -59.1737301412781 0.822980321843566 8.2358580185646  0.000275353930986277 156.820442639366 
                               0.63134521252183 -105.980507796984 0.631324942620252 73.9892109458212 0.000275353930987423 156.820442639431 0.450368652882706 106.44232461596  
10.4                           0.19653754610237 64.6509267411529 0.635257185139106 46.5914587522941 0.400117255953734 -62.0088965084858 0.630656420235367 -108.61181928815 
                               0.635257185139107 46.591458752294  0.196869553114684 64.5384816237886 0.399979681098224 -62.0228821299977 0.630640134827744 71.3583449784505 
                               0.400117255953734 -62.0088965084857 0.399979681098223 -62.0228821299978 0.824573915423101 5.14853544481075 0.000272749454968303 154.385350087977 
                               0.630656420235368 -108.61181928815 0.630640134827745 71.3583449784504 0.000272749454969491 154.385350088059 0.452289048096981 103.879958339813 
10.425                         0.196596249906076 62.1971932959881 0.636954974992018 43.9450740753403 0.398479497483972 -64.8567750200097 0.62996222255037 -111.240275833364 
                               0.636954974992019 43.9450740753402 0.196914702013158 62.0860328978835 0.398341373926368 -64.8697640497324 0.629950114801662 68.7303250820715 
                               0.398479497483972 -64.8567750200096 0.398341373926367 -64.8697640497325 0.826158547022592 2.06329147997127 0.000270170717829335 151.992544738774 
                               0.62996222255037 -111.240275833364 0.629950114801663 68.7303250820714 0.000270170717830459 151.992544738877 0.45421397558791 101.319291469264 
10.45                          0.196649228378822 59.7455230618823 0.638650628900157 41.3015135449128 0.396841416762512 -67.7025232065261 0.629262568741324 -113.865937939983 
                               0.638650628900158 41.3015135449127 0.196953658540679 59.635643438317  0.39670269156647 -67.7144712583851 0.629254829413061 66.1050900669606 
                               0.396841416762512 -67.7025232065259 0.396702691566469 -67.7144712583852 0.827734004510055 -1.02005073530657 0.000267626874213342 149.643580420752 
                               0.629262568741324 -113.865937939983 0.629254829413062 66.1050900669605 0.000267626874214296 149.643580420881 0.456143472975043 98.760289644813  
10.475                         0.196696440900226 57.2959885636162 0.64034405054494 38.6607384347435 0.395203268090543 -70.5462420125033 0.628557407748953 -116.488865665021 
                               0.640344050544941 38.6607384347434 0.19698638731867 57.1873839708901 0.395063890185701 -70.557103019557 0.628554224898934 63.4825791966477 
                               0.395203268090543 -70.5462420125032 0.3950638901857  -70.5571030195571 0.829300092933332 -4.10167733283662 0.000265127704306101 147.33997308158  
                               0.628557407748952 -116.488865665021 0.628554224898934 63.4825791966477 0.000265127704306794 147.339973081742 0.458077577289759 96.2029187379658 
10.5                           0.196737863633855 54.8486646295677 0.642035150289314 36.0227109838306 0.393565292154726 -73.3880364335607 0.627846688200672 -119.109118648645 
                               0.642035150289316 36.0227109838304 0.19701287042499 54.7413275044617 0.393425212439629 -73.3977625982234 0.627848246885105 60.8627321557106 
                               0.393565292154726 -73.3880364335606 0.393425212439628 -73.3977625982235 0.830856634942913 -7.18178383187618 0.000262683639873163 145.083179487203 
                               0.627846688200671 -119.109118648645 0.627848246885105 60.8627321557106 0.000262683639873516 145.083179487406 0.460016324903438 93.6471448483537 
10.525                         0.196773489809737 52.4036282658629 0.64372384536615 33.3873943237725 0.391927715083367 -76.228015619512 0.62713035843348 -121.726756149207 
                               0.643723845366151 33.3873943237724 0.197033107672571 52.2975492069794 0.391786886527475 -76.2365573615445 0.627136840412342 58.2454890160339 
                               0.391927715083367 -76.2280156195119 0.391786886527474 -76.2365573615445 0.832403471210581 -10.2605752644481 0.000260305787182322 142.87457246335  
                               0.627130358433478 -121.726756149207 0.627136840412342 58.2454890160338 0.000260305787182281 142.874572463603 0.461959751455182 91.0929343013827 
10.55                          0.196803330003587 49.9609585378207 0.64541006005256 30.7547524055575 0.390290747491854 -79.0662929834419 0.626408366519441 -124.341837079951 
                               0.645410060052561 30.7547524055574 0.197047116883158 49.8561262887843 0.390149125236595 -79.0735988854799 0.626419949965857 55.6307902014032 
                               0.390290747491854 -79.0662929834418 0.390149125236594 -79.07359888548  0.833940460848982 -13.3382663123271 0.000258005945629457 140.715412505182 
                               0.626408366519439 -124.341837079951 0.626419949965857 55.6307902014031 0.00025800594562899 140.715412505493 0.463907891778816 88.540253646432  
10.575                         0.196827412416135 47.5207364585784 0.647093725831157 28.1247499257435 0.388654583514164 -81.9029863174671 0.625680660293911 -126.954420047501 
                               0.647093725831157 28.1247499257434 0.197054934159495 47.4171378930741 0.388512124973017 -81.9090030678359 0.625697519508349 53.0185764503196 
                               0.388654583514164 -81.902986317467 0.388512124973016 -81.9090030678359 0.835467481836776 -16.4150814569825 0.000255796620728537 138.606815677279 
                               0.625680660293908 -126.954420047501 0.625697519508349 53.0185764503195 0.000255796620727642 138.606815677655 0.465860779828885 85.9890696556194 
10.6                           0.196845783156054 45.0830448847121 0.648774781539193 25.4973522519841 0.387019399817235 -84.7382179157876 0.624947187386631 -129.56456339221 
                               0.648774781539193 25.497352251984  0.197056614159427 44.9806649933379 0.386876064774827 -84.7428902483281 0.624969492516728 50.4087887769449 
                               0.387019399817235 -84.7382179157875 0.386876064774826 -84.7428902483281 0.836984431453518 -19.4912551437211 0.000253691029981641 136.549717859121 
                               0.624947187386628 -129.56456339221 0.624969492516727 50.4087887769447 0.000253691029980344 136.549717859568 0.467818448605278 83.4393493231587 
10.625                         0.196858506530088 42.6479684185879 0.650453173506483 22.8725253478646 0.385385354595012 -87.572114705586 0.6242078952558  -132.172325230451 
                               0.650453173506483 22.8725253478645 0.197052230375468 42.5467902975    0.385241105305267 -87.5753853361965 0.624235812022628 47.8013684301078 
                               0.385385354595012 -87.572114705586 0.385241105305266 -87.5753853361965 0.838491226727858 -22.5670319612274 0.000251703100026557 134.544835565723 
                               0.624207895255798 -132.172325230451 0.624235812022628 47.8013684301077 0.000251703100024917 134.544835566244 0.469780930076042 80.8910598653345 
10.65                          0.196865665344085 40.2155933171104 0.65212885568294 20.2502356970302 0.383752586539056 -90.4048083862779 0.623462731225227 -134.777763498877 
                               0.652128855682939 20.2502356970301 0.197041875423517 40.1155981584387 0.383607387822413 -90.4066179458486 0.623496420656814 45.1962568503269 
                               0.383752586539056 -90.4048083862779 0.383607387822413 -90.4066179458485 0.839987804901958 -25.6426668376338 0.000249847453385232 132.592623791904 
                               0.623462731225224 -134.777763498877 0.623496420656813 45.1962568503268 0.000249847453383333 132.592623792495 0.471748255097902 78.3441687211255 
10.675                         0.196867361218705 37.7860074064593 0.653801789756453 17.6304502266042 0.382121213782643 -93.2364355775526 0.622711642524629 -137.380936000675 
                               0.653801789756452 17.6304502266041 0.197025661344421 37.6871744904778 0.38197503312243 -93.2367225409502 0.622751260697545 42.5933956248281 
                               0.382121213782642 -93.2364355775527 0.38197503312243 -93.2367225409501 0.841474123914333 -28.7184252541892 0.000248139383126285 130.693231591023 
                               0.622711642524626 -137.380936000674 0.622751260697544 42.5933956248279 0.000248139383124239 130.693231591678 0.473720453333912 75.7986435535107 
10.7                           0.196863714923644 35.3593000023403 0.655471945261789 15.0131362299099 0.380491332815407 -96.0671379765856 0.62195457633315 -139.981900453811 
                               0.655471945261788 15.0131362299098 0.197003719922217 35.2616066913769 0.380344140453464 -96.0658385873163 0.622000274122976 39.9927264405603 
                               0.380491332815406 -96.0671379765857 0.380344140453463 -96.0658385873162 0.842950162902514 -31.7945834775153 0.000246594813831666 128.846456399696 
                               0.621954576333148 -139.981900453811 0.622000274122975 39.99272644056   0.000246594813829601 128.8464564004   0.475697553167615 73.2544522514955 
10.725                         0.196854866734279 32.9355618352088 0.657139299681062 12.3982612885284 0.378863017365708 -98.8970625247228 0.621191479826148 -142.580714541222 
                               0.657139299681062 12.3982612885283 0.19697620302289 32.8389835692906 0.37871478639738 -98.8941107148799 0.621243402667617 37.3941910352407 
                               0.378863017365708 -98.8970625247229 0.378714786397379 -98.8941107148797 0.844415922726038 -34.8714288113525 0.000245230247444685 127.051698447358 
                               0.621191479826146 -142.580714541221 0.621243402667616 37.3941910352405 0.000245230247442745 127.051698448089 0.477679581613003 70.7115629329014 
10.75                          0.196840976814703 30.5148849798626 0.658803838536247 9.78579319374181 0.377236317248033 -101.726361583871 0.620422300225268 -145.177435962903 
                               0.658803838536247 9.78579319374167 0.196943282957593 30.4193952740965 0.377087023716721 -101.721688888947 0.62048058788289 34.7977311464829 
                               0.377236317248032 -101.726361583872 0.37708702371672 -101.721688888947 0.845871426509348 -37.9492598686046 0.000244062692895858 125.307916924529 
                               0.620422300225267 -145.177435962903 0.62048058788289 34.7977311464827 0.000244062692894189 125.307916925261 0.479666564219505 68.1699439479619 
10.775                         0.196822225631184 28.0973627887462 0.660465555474078 7.17569986743112 0.375611257172938 -104.555193122742 0.619646984851856 -147.772122489808 
                               0.660465555474078 7.17569986743098 0.196905152874293 28.002933232448  0.375460880164399 -104.548728590855 0.619711771201806 32.2032884590926 
                               0.375611257172938 -104.555193122742 0.375460880164397 -104.548728590855 0.847316720203162 -41.0283868643775 0.000243109578870755 123.613589898894 
                               0.619646984851855 -147.772122489808 0.619711771201805 32.2032884590924 0.000243109578869499 123.613589899591 0.481658524971159 65.6295638837786 
10.8                           0.196798814400108 25.6830898282494 0.662124452343577 4.56794928251373 0.37398783551724 -107.383720913001 0.618865481183696 -150.364832019435 
                               0.662124452343578 4.56794928251357 0.196862027181886 25.5896900858463 0.373836357253886 -107.375391008076 0.618936894007731 29.6108045506381 
                               0.373987835517239 -107.383720913001 0.373836357253885 -107.375391008076 0.848751873161779 -44.1091319305959 0.00024238864970806 121.966680228609 
                               0.618865481183695 -150.364832019435 0.618936894007731 29.6108045506379 0.000242388649707344 121.966680229231 0.483655486179059 63.0903915696866 
10.825                         0.196770965574596 23.2721618172419 0.663780539266334 1.96250938302811 0.372366023052377 -110.212114735315 0.618077736915096 -152.955622632982 
                               0.663780539266335 1.96250938302794 0.196814142010899 23.1797596309852 0.372213428987888 -110.201843233701 0.618155897707277 27.0202208354334 
                               0.372366023052376 -110.212114735315 0.372213428987887 -110.201843233701 0.850176978732584 -47.1918294526422 0.000241917845189946 120.364609886416 
                               0.618077736915096 -152.955622632981 0.618155897707276 27.0202208354332 0.000241917845189873 120.36460988692  0.48565746836609 60.5523960835888 
10.85                          0.196738923374009 20.8646755670372 0.665433834699525 -0.640651996009846 0.370745761629152 -113.040550595136 0.617283700020321 -155.544552653879 
                               0.665433834699526 -0.640651996010035 0.196761755714966 20.7732367615837 0.370592040543726 -113.028258475155 0.617368723807251 24.4314785070963 
                               0.370745761629152 -113.040550595136 0.370592040543724 -113.028258475155 0.851592154852809 -50.2768264283201 0.000241715165887026 118.804245132516 
                               0.617283700020322 -155.544552653879 0.617368723807251 24.431478507096  0.000241715165887665 118.804245132858 0.487664490142921 58.0155467593218 
10.875                         0.196702954360684 18.4607289219439 0.667084365491556 -3.24156720883619 0.369126962817332 -115.869210948015 0.616483318820353 -158.131680707531 
                               0.667084365491558 -3.24156720883639 0.196705149417364 18.3702174108786 0.36897210691399 -115.854816271888 0.616575313995681 21.8445184798707 
                               0.369126962817331 -115.869210948015 0.368972106913989 -115.854816271888 0.852997544647214 -53.3644828492814 0.000241798526701895 117.281894818553 
                               0.616483318820355 -158.131680707531 0.61657531399568 21.8445184798705 0.000241798526703273 117.28189481869  0.489676568074115 55.4798131951136 
10.9                           0.196663348068372 16.0604206995305 0.668732166930056 -5.84026887908846 0.367509506498928 -118.698284934098 0.615676542052993 -160.717065782024 
                               0.668732166930058 -5.8402688790887 0.196644627607029 15.9707984939286 0.367353511501331 -118.681702721662 0.615775610226847 19.259281328933  
                               0.367509506498927 -118.698284934098 0.367353511501329 -118.681702721662 0.854393317018931 -56.4551721048736 0.000242185602253002 115.793323739877 
                               0.615676542052995 -160.717065782024 0.615775610226846 19.2592813289327 0.000242185602255102 115.793323739774 0.491693716533223 52.9451652632081 
10.925                         0.196620417686979 13.663850629702  0.670377282781848 -8.43678997969676 0.36589323941435 -121.527968621329 0.614863318946275 -163.300767289572 
                               0.670377282781851 -8.43678997969701 0.196580518788613 13.5750778488514 0.365736104666628 -121.509110714967 0.614969554810324 16.6757072299208 
                               0.365893239414349 -121.52796862133 0.365736104666626 -121.509110714967 0.855779667224188 -59.5492814081691 0.00024289366867012 114.333782367135 
                               0.614863318946277 -163.300767289572 0.614969554810324 16.6757072299205 0.000242893668672874 114.333782366767 0.493715947545599 50.4115731207239 
10.95                          0.196574500808414 11.2711192916685 0.672019765324378 -11.0311639123135 0.364277973661016 -124.358465256812 0.614043599295204 -165.882845128423 
                               0.672019765324382 -11.0311639123138 0.196513176191335 11.1831541761002 0.364119702230216 -124.337240176945 0.614157090503972 14.0937358979586 
                               0.364277973661015 -124.358465256812 0.364119702230214 -124.337240176945 0.85715681741995 -62.647212243712 0.000243939447138135 112.898053495393 
                               0.614043599295207 -165.882845128422 0.614157090503972 14.0937358979583 0.00024393944714143 112.898053494751 0.495743270617682 47.8790072218263 
10.975                         0.196525960238586 8.88232804786729 0.673659675367949 -13.6234245860656 0.362663485144494 -127.189985525586 0.613217333541814 -168.463359744921 
                               0.673659675367952 -13.6234245860658 0.196442978541603 8.79512697487361 0.36250408392627 -127.166298316109 0.613338160610852 11.5133065264704 
                               0.362663485144493 -127.189985525586 0.362504083926268 -127.166298316109 0.858525017171785 -65.7493808362771 0.000245338955030397 111.480515393103 
                               0.613217333541817 -168.463359744921 0.613338160610853 11.51330652647   0.000245338955034078 111.480515392195 0.497775692551399 45.3474383312908 
11                             0.196475184880863 6.49757897389448 0.67529708226799 -16.2136064953914 0.361049511982734 -130.022747816   0.612384472858536 -171.042372195418 
                               0.675297082267993 -16.2136064953917 0.196370330904687 6.41109647574586 0.360888991811004 -129.996499878971 0.612512709080053 8.93435772610054 
                               0.361049511982734 -130.022747816   0.360888991811002 -129.996499878971 0.859884543907346 -68.8562186396588 0.000247107370631655 110.075219987409 
                               0.61238447285854 -171.042372195417 0.612512709080054 8.93435772610028 0.000247107370635537 110.075219986267 0.499813217242322 42.8168375395419 
11.025                         0.196422590696656 4.11697478349565 0.676932063926468 -18.8017447967108 0.359435752864554 -132.856978490681 0.611544969234919 -173.619944207672 
                               0.676932063926471 -18.8017447967111 0.196295665601045 4.03116356860503 0.3592741286259  -132.828067409578 0.611680680611383 6.35682746408696 
                               0.359435752864554 -132.856978490681 0.359274128625898 -132.828067409578 0.861235703298831 -71.9681728442061 0.000249258917205594 108.67598358313  
                               0.611544969234923 -173.619944207672 0.611680680611384 6.35682746408665 0.000249258917209473 108.67598358181  0.501855845460175 40.2871762792525 
11.05                          0.196368621749224 1.74061874766644 0.678564706781392 -21.387875383657 0.357821865364168 -135.692912161963 0.610698775567689 -176.196138241381 
                               0.678564706781393 -21.3878753836573 0.196219443203322 1.65542972498904 0.357659156117836 -135.661231512808 0.610842020763937 3.78065300445079 
                               0.357821865364167 -135.692912161963 0.357659156117835 -135.661231512808 0.862578829555612 -75.0857069014837 0.000251806771493719 107.276486688769 
                               0.610698775567692 -176.19613824138 0.610842020763938 3.7806530044505  0.00025180677149739 107.276486687353 0.503903574610246 37.7584263435942 
11.075                         0.196313751337266 -0.631385393079382 0.680195105783284 -23.9720349605853 0.35620746421429 -138.530791970475 0.609845845754227 -178.771017547443 
                               0.680195105783284 -23.9720349605856 0.196142153620552 -0.716003086079155 0.35604369331871 -138.49623112009 0.609996676068521 1.20577084939426 
                               0.356207464214289 -138.530791970475 0.356043693318709 -138.49623112009 0.863914285605865 -78.20930106406  0.000254763000667436 105.870378819157 
                               0.609845845754228 -178.771017547443 0.609996676068523 1.20577084939396 0.000254763000670717 105.870378817753 0.50595639847425 35.2305599062301 
11.1                           0.196258483225479 -2.99893352420906 0.681823364357336 -26.5542611140594 0.354592119541152 -141.370869865438 0.608986134789473 178.655353774448 
                               0.681823364357333 -26.5542611140597 0.19606431727665 -3.08303248964459 0.354427314787955 -141.33331375609 0.609144594143948 -1.36788331768583 
                               0.354592119541151 -141.370869865438 0.354427314787955 -141.33331375609 0.865242463143502 -81.3394529380098 0.000258138530366954 104.451383745289 
                               0.608986134789473 178.655353774448 0.609144594143951 -1.36788331768609 0.000258138530369704 104.451383744026 0.508014306929167 32.7035495431436 
11.125                         0.196203352979951 -5.3619212613562 0.683449594349875 -29.134592381997 0.352975355065687 -144.213406885013 0.608119598866363 176.082910720325 
                               0.68344959434987 -29.1345923819973 0.195986486391003 -5.44555580462905 0.352809548822292 -144.172735804699 0.608285723817229 -3.94037468713603 
                               0.352975355065685 -144.213406885013 0.352809548822292 -144.1727358047  0.866563782513998 -84.476678045248 0.000261943144861141 103.01340061715  
                               0.608119598866361 176.082910720326 0.608285723817233 -3.9403746871363 0.000261943144863284 103.013400616176 0.510077285642569 30.177368256403  
11.15                          0.196148929417075 -7.72024406409651 0.685073915957653 -31.7130683201502 0.351356646276166 -147.058673434891 0.60724619547985 173.511587329023 
                               0.685073915957645 -31.7130683201505 0.195909246369738 -7.80347015274411 0.351189875638029 -147.014762772503 0.607420015247702 -6.51176937548825 
                               0.351356646276164 -147.058673434891 0.35118987563803 -147.014762772503 0.867878692409756 -87.6215103922979 0.000266185518688618 101.550596700714 
                               0.607246195479846 173.511587329023 0.607420015247705 -6.51176937548852 0.000266185518690162 101.550596700187 0.512145315742972 27.6519894999585 
11.175                         0.196095816175621 -10.0737973601985 0.686696457638359 -34.289729565576 0.349735418578725 -149.906949563109 0.606365883534629 170.941316632281 
                               0.686696457638348 -34.2897295655763 0.195833217317223 -10.1566725773317 0.349567725532432 -149.859669547697 0.606547420055141 -9.0821344749358 
                               0.349735418578723 -149.906949563109 0.349567725532433 -149.859669547697 0.869187669342491 -90.7745030415157 0.000270873277534579 100.05748810661  
                               0.606365883534622 170.941316632281 0.606547420055145 -9.08213447493612 0.000270873277535633 100.057488106688 0.514218373463739 25.1273872075751 
11.2                           0.196044653422721 -12.422476681215 0.688317356000665 -36.8646178967476 0.348111045433506 -152.758525228873 0.60547862345669 168.372030608357 
                               0.688317356000651 -36.8646178967478 0.195759055678416 -12.5050601729328 0.347942477031901 -152.707740652256 0.605667891451948 -11.6515380993622 
                               0.348111045433502 -152.758525228873 0.347942477031904 -152.707740652256 0.87049121685676 -93.9362286801561 0.000276013084688894 98.5290057684248 
                               0.605478623456681 168.372030608358 0.605667891451953 -11.6515380993625 0.000276013084689675 98.5290057692566 0.516296429759116 22.6035358230014 
11.225                         0.195996119705784 -14.7661778102601 0.68993675567203 -39.4377762899421 0.346482846485586 -155.61370056297 0.604584377308833 165.80366013966  
                               0.689936755672012 -39.4377762899423 0.195687456023969 -14.848530226356 0.346313455036194 -155.559270484915 0.604781384379484 -14.2200494264212 
                               0.346482846485582 -155.61370056297 0.346313455036197 -155.559270484915 0.871789864445031 -97.1072801819445 0.000281610748317648 96.9605449518183 
                               0.60458437730882 165.80366013966  0.604781384379489 -14.2200494264215 0.000281610748318483 96.9605449535322 0.518379449890979 20.0804103324809 
11.25                          0.195950933963865 -17.1047969427946 0.691554809142385 -42.0092489715316 0.344850085701496 -158.472786117122 0.603683108910311 163.236134974895 
                               0.691554809142362 -42.0092489715318 0.195619152991407 -17.1869803699918 0.344679928969458 -158.414563552344 0.603887855648685 -16.7877387351548 
                               0.344850085701491 -158.472786117122 0.344679928969462 -158.414563552344 0.873084166120874 -100.288271155032 0.000287671344020162 95.3479976324364 
                               0.603683108910295 163.236134974895 0.603887855648691 -16.7877387351551 0.000287671344021472 95.3479976351246 0.520467392984957 17.5579862997092 
11.275                         0.19590985771369 -19.4382308612316 0.693171676581766 -44.5790814658003 0.3432119695239  -161.336103099426 0.602774783960797 160.669383696271 
                               0.693171676581738 -44.5790814658003 0.195554923397419 -19.5203087480966 0.343041110950693 -161.273934685663 0.602987264085082 -19.354677438626 
                               0.343211969523894 -161.336103099426 0.343041110950697 -161.273934685662 0.874374698602594 -103.47983646933 0.000294199346750924 93.6877680701759 
                               0.602774783960777 160.669383696272 0.602987264085089 -19.3546774386263 0.000294199346753197 93.6877680738811 0.522560211554646 15.0362399033416 
11.3                           0.195873697427501 -21.7663771241481 0.694787525629872 -47.1473206378946 0.341567645059044 -164.203983592773 0.601859370168865 158.103333692295 
                               0.69478752562984 -47.1473206378946 0.195495588538172 -21.8484141967408 0.341396153998168 -164.13770923923 0.60207957067838 -21.920938111026 
                               0.341567645059038 -164.203983592773 0.341396153998174 -164.13770923923 0.875662059055221 -106.682632755245 0.000301198766134403 91.9767727500377 
                               0.601859370168843 158.103333692295 0.602079570678386 -21.9209381110263 0.000301198766138146 91.9767727547392 0.524657850992687 12.5151479771578 
11.325                         0.195843307122143 -24.089134270891 0.696402531155487 -49.7140147315188 0.339916198313791 -167.076770752922 0.600936837385231 155.537911136688 
                               0.69640253115545 -49.7140147315188 0.195442016696797 -24.1711964381027 0.339744150284572 -167.0062232684  0.601164738736769 -24.4865945087132 
                               0.339916198313785 -167.076770752922 0.339744150284579 -167.006223268399 0.876946862334059 -109.897338864756 0.000308673279433564 90.2124265042845 
                               0.600936837385204 155.537911136689 0.601164738736776 -24.4865945087136 0.000308673279439232 90.2124265098838 0.526760249027598 9.99468805298731 
11.35                          0.195819591181362 -26.4064020423507 0.698016874983618 -52.2792134009722 0.338256652501499 -169.95481898265 0.600007157740978 152.973040974006 
                               0.698016874983578 -52.2792134009721 0.195395125879659 -26.4885562897698 0.338084129462032 -169.879823682711 0.600242734046175 -27.0517215846291 
                               0.338256652501492 -169.95481898265 0.338084129462039 -169.879823682711 0.87822973766804 -113.124656284588 0.000316626356873566 88.3926170557427 
                               0.600007157740949 152.973040974006 0.600242734046182 -27.0517215846294 0.000316626356881465 88.3926170620505 0.528867335145337 7.47483840649952 
11.375                         0.195803507436247 -28.7180816186857 0.69963074558821 -54.84296773713  0.336587966438728 -172.838494078173 0.599070305791063 150.408646912485 
                               0.699630745588169 -54.8429677371298 0.195355886805965 -28.8003958897034 0.336415057078828 -172.758868370768 0.599313525034635 -29.616395495532 
                               0.33658796643872 -172.838494078173 0.336415057078836 -172.758868370768 0.879511324715964 -116.365309489933 0.000325061374587662 86.515670433412  
                               0.599070305791033 150.408646912485 0.599313525034642 -29.6163954955323 0.000325061374597825 86.5156704401358 0.530979029974698 4.95557810596015 
11.4                           0.195796070532104 -31.0240758747919 0.701244337748205 -57.4053302869604 0.334909033057706 -175.728173343771 0.598126258663358 147.844651424709 
                               0.701244337748165 -57.4053302869602 0.195325326178488 -31.1066189375179 0.334735833112537 -175.643726292794 0.598377082942054 -32.1806936014851 
                               0.334909033057699 -175.728173343772 0.334735833112544 -175.643726292793 0.880792268923396 -119.620046225712 0.000333981711063177 84.580309734986  
                               0.598126258663328 147.84465142471  0.59837708294206 -32.1806936014853 0.000333981711075201 84.5803097417195 0.533095244635782 2.43688706405572 
11.425                         0.19579835561394 -33.3242896543366 0.70285785216473 -59.9663550661752 0.333218678062719 -178.624245670334 0.597174996213539 145.280975756645 
                               0.702857852164692 -59.9663550661749 0.195304530267017 -33.4071309527392 0.333045290647464 -178.534777536666 0.597433381995564 -34.7446944570329 
                               0.333218678062713 -178.624245670335 0.333045290647471 -178.534777536666 0.88207321610255 -122.889637700832 0.000343390823553516 82.5856095848869 
                               0.597174996213511 145.280975756645 0.597433381995569 -34.7446944570331 0.000343390823566364 82.5856095911009 0.535215880050934 -0.0812539071186908 
11.45                          0.195811502367126 -35.6186300632131 0.704471495037177 -62.5260975646069 0.331515658762093 178.472888426699 0.596216501186138 142.717539945608 
                               0.704471495037145 -62.5260975646066 0.195294648840398 -35.7018395507215 0.331342194727705 178.567586667003 0.596482399590755 -37.3084777935015 
                               0.331515658762087 178.472888426699 0.33134219472771 178.567586667003 0.883354806152093 -126.174878679136 0.00035329230143507 80.5309484044944 
                               0.596216501186115 142.717539945608 0.596482399590758 -37.3084777935016 0.00035329230144683 80.5309484095302 0.537340826217707 -2.59886303781285 
11.475                         0.195836719454935 -37.9070067833318 0.706085477595918 -65.0846147439094 0.329798663111231 175.562816814736 0.595250759382065 140.154262847733 
                               0.706085477595898 -65.0846147439092 0.195296899488045 -37.9906547369364 0.329625241420814 175.66296397537  0.595524116479028 -39.8721244918548 
                               0.329798663111227 175.562816814736 0.329625241420816 175.662963975371 0.884637665828506 -129.476587448923 0.000363689893890702 78.4159603158372 
                               0.59525075938205 140.154262847733 0.595524116479029 -39.8721244918548 0.00036368989389829 78.4159603189019 0.539469961443609 -5.11595753902612 
11.5                           0.19587528940045 -40.1893324077328 0.707700015589435 -67.6419650271831 0.328066309006203 172.6451158017   0.594277759832937 137.591062175505 
                               0.707700015589432 -67.641965027183 0.195312572377421 -40.2734892203988 0.327893057131047 172.750941014247 0.594558516961356 -42.4357165455504 
                               0.328066309006201 172.6451158017   0.327893057131046 172.750941014247 0.885922400475629 -132.795605650871 0.000374587509575641 76.2404881783092 
                               0.594277759832935 137.591062175505 0.594558516961355 -42.4357165455502 0.000374587509574466 76.2404881784744 0.541603151542582 -7.63255353747905 
