! Touchstone file exported from HFSS 2025.2.4
!        File:           C:/Users/chaoy/Documents/single_magictee_v2_stageA/g2_5p00mm_lt_7p50mm/single_magictee_v2.aedt
!        Generated:      02:59:32 PM Sep 19, 2026
!        Design:         SingleMagicT_v2
!        Project:        single_magictee_v2
!
! Variables:
!        f_adapt = 10.2GHz
!        ridge_g1 = 7.672mm
!        ridge_g2 = 5mm
!        ridge_l1 = 9.872mm
!        ridge_l2 = 8.857mm
!        ridge_w = 4.572mm
!        terminal_ridge_len = 7.5mm
!        wg_a = 22.86mm
!        wg_b = 10.16mm
!
!Data is not renormalized
# GHz S MA
! Terminal data exported
! Port[1] = P1_CollinearMinusX
! Port[2] = P2_CollinearPlusX
! Port[3] = P3_HArm_Ridged
! Port[4] = P4_EArm
9                              0.166758792895612 -161.060775557047 0.516605470282357 -160.697315072844 0.516023397206774 93.4684264619168 0.662593500271113 45.1159632060325 
                               0.516605470282354 -160.697315072844 0.16742637276146 -160.818767936721 0.516021915182615 93.4364648571227 0.662426283317285 -134.856023012085 
                               0.516023397206775 93.4684264619167 0.516021915182617 93.4364648571227 0.683696604979732 167.661396868363 0.000434655763329695 -113.55070683656 
                               0.662593500271111 45.1159632060325 0.662426283317285 -134.856023012085 0.000434655763329919 -113.550706836612 0.349515498430745 -109.158554536195 
9.025                          0.16665156525972 -163.437406787736 0.518212328858985 -163.56602891005 0.515030719797029 90.3084941331674 0.662139478910937 42.2060321808007 
                               0.518212328858986 -163.566028910051 0.167317360992039 -163.196197235986 0.515029850408258 90.2767779701338 0.661972230110792 -137.765346046147 
                               0.515030719797035 90.3084941331677 0.515029850408258 90.2767779701334 0.685189792409045 164.090175276669 0.000432044026836506 -117.228260279333 
                               0.662139478910935 42.2060321808009 0.661972230110786 -137.765346046148 0.000432044026833941 -117.228260279456 0.351231028754561 -111.874427566645 
9.05                           0.166567482062229 -165.807783416806 0.519828516769782 -166.426692729952 0.514017489431853 87.1527127480006 0.661681899066892 39.3040120264133 
                               0.519828516769786 -166.426692729952 0.167231218773396 -165.567446241684 0.514017205443315 87.1212579657385 0.661514685490829 -140.666759390007 
                               0.514017489431861 87.1527127480012 0.514017205443314 87.1212579657379 0.686708318656129 160.520460709918 0.000429324180728036 -120.905896656924 
                               0.661681899066892 39.3040120264136 0.661514685490819 -140.666759390007 0.000429324180723365 -120.905896657073 0.3529506534004  -114.586049426863 
9.075                          0.166506693155982 -168.172491271102 0.521454382155343 -169.279525668955 0.512983341625599 84.0010899398634 0.661220730147286 36.4097684096814 
                               0.521454382155349 -169.279525668956 0.167168089646472 -167.933098116289 0.512983617992367 83.9699127546535 0.661053618787195 -143.560397648675 
                               0.512983341625609 84.0010899398641 0.512983617992365 83.9699127546527 0.688252229550751 156.952508681067 0.00042649407010912 -124.583430071829 
                               0.661220730147286 36.4097684096818 0.661053618787183 -143.560397648676 0.000426494070102939 -124.583430071969 0.354674302553374 -117.293488971036 
9.1                            0.166469243420277 -170.532103217174 0.52309022316478 -172.124744820675 0.511927943927272 80.8536314547549 0.660755944722697 33.523167576604  
                               0.523090223164787 -172.124744820676 0.167128012919453 -170.293723077651 0.51192875771229 80.8227484223713 0.660589002582403 -146.446394850947 
                               0.511927943927282 80.8536314547557 0.511928757712288 80.8227484223704 0.689821533086846 153.386570636677 0.000423551661542315 -128.260695243559 
                               0.660755944722697 33.5231675766044 0.660589002582391 -146.446394850947 0.000423551661535142 -128.260695243665 0.356401912628752 -119.996813986077 
9.125                          0.166455080222146 -172.887177554924 0.524736289135207 -174.96256470759 0.510850997855878 77.7103415608754 0.660287518030663 30.6440766360697 
                               0.524736289135214 -174.962564707591 0.167110931130435 -172.649876806347 0.510852328169351 77.6797696340088 0.660120812180891 -149.324884167238 
                               0.510850997855888 77.7103415608763 0.510852328169348 77.6797696340078 0.691416195496969 149.822893854807 0.000420495043221654 -131.937546209932 
                               0.660287518030664 30.6440766360701 0.660120812180879 -149.324884167239 0.000420495043213926 -131.937546209988 0.358133425785678 -122.696091192416 
9.15                           0.166464060508796 -175.238256598872 0.526392781886041 -177.793196804276 0.509752240640612 74.5712234046798 0.659815427525861 27.7723638086922 
                               0.526392781886049 -177.793196804277 0.167116697144704 -175.00209903965 0.509754068599965 74.5409799856617 0.659649025125071 -152.195997662069 
                               0.509752240640622 74.5712234046806 0.509754068599961 74.5409799856607 0.693036137774061 146.261721302135 0.000417322424941445 -135.613855051802 
                               0.659815427525862 27.7723638086926 0.659649025125059 -152.195997662069 0.00041732242493353 -135.613855051798 0.359868789478457 -125.39138624859 
9.175                          0.166495957536345 -177.585865431425 0.528059857114483 179.383150890234 0.508631446758346 71.4362793146626 0.659339652473661 24.9078986429735 
                               0.52805985711449 179.383150890233 0.167145080891499 -177.350912336636 0.508633755467452 71.4063823036209 0.659173620756166 -155.059866078976 
                               0.508631446758354 71.4362793146634 0.508633755467449 71.4063823036199 0.694681232659783 142.703291452194 0.000414032137890629 -139.289510657406 
                               0.659339652473663 24.9078986429739 0.659173620756155 -155.059866078977 0.000414032137882826 -139.289510657338 0.361607956043941 -128.082763759174 
9.2                            0.166550467245686 -179.93051081385 0.529737625879637 176.566274233422 0.507488429262174 68.3055110545087 0.65886017358483 22.0505522009731 
                               0.529737625879644 176.566274233421 0.167195775750721 -179.696821000282 0.507491203808482 68.2759788931128 0.658694579817685 -157.916618655709 
                               0.507488429262181 68.3055110545094 0.507491203808478 68.2759788931119 0.696351302113819 139.147838066975 0.000410622634297125 -142.964417541863 
                               0.658860173584832 22.0505522009733 0.658694579817676 -157.91661865571 0.000410622634289673 -142.964417541732 0.363350882323444 -130.770287285633 
9.225                          0.166627214300699 177.727319757928 0.531426156163823 173.755973276037 0.506323040896203 65.1789200275143 0.658376972689062 19.2001972156278 
                               0.531426156163828 173.755973276036 0.167268404604377 177.959689856238 0.506326268364271 65.1497717384894 0.658211884099241 -160.766382967541 
                               0.506323040896209 65.178920027515  0.506326268364267 65.1497717384885 0.698046115273678 135.595589944516 0.000407092486940485 -146.638494736719 
                               0.658376972689064 19.200197215628  0.658211884099233 -160.766382967541 0.000407092486933567 -146.638494736531 0.365097529317558 -133.45401935973 
9.25                           0.166725757807108 175.387158864303 0.533125474500573 170.952052557048 0.505135174993121 62.0565074344277 0.657890032444947 16.3567082218298 
                               0.533125474500578 170.952052557047 0.167362525570604 175.618155110578 0.505138844493053 62.0277626570388 0.657725516118408 -163.609284796615 
                               0.505135174993125 62.0565074344283 0.50513884449305 62.027762657038  0.69976538690973 132.046770635396 0.000403440388545071 -150.311674763753 
                               0.657890032444949 16.3567082218299 0.657725516118402 -163.609284796615 0.000403440388538818 -150.311674763517 0.366847861872211 -136.134021499108 
9.275                          0.166845596732373 173.048559850067 0.534835567659739 168.154321359175 0.503924766152515 58.9382743870649 0.657399336083978 13.519961663313  
                               0.534835567659743 168.154321359175 0.167477637440175 173.278130309824 0.503928868861738 58.9099534087901 0.657235458838222 -166.445448025275 
                               0.503924766152518 58.9382743870654 0.503928868861735 58.9099534087894 0.701508776375523 128.50159813134  0.000399665151060154 -153.983902706646 
                               0.657399336083979 13.5199616633131 0.657235458838217 -166.445448025275 0.000399665151054656 -153.983902706373 0.368601848394237 -138.810354224742 
9.3                            0.166986175048212 170.711097398733 0.536556384380899 165.36259392733  0.502691790699366 55.8242219802384 0.656904867186164 10.6898359773479 
                               0.536556384380903 165.36259392733  0.167613184836551 170.939192235784 0.502696319916153 55.7963457648616 0.65674169541795 -169.274994551386 
                               0.502691790699368 55.8242219802388 0.50269631991615 55.796345764861  0.703275887048803 124.960284529319 0.000395765704827885 -157.655135393547 
                               0.656904867186165 10.6898359773479 0.656741695417947 -169.274994551386 0.00039576570482319 -157.655135393249 0.370359460594748 -141.483077079951 
9.325                          0.167146886617739 168.374368001152 0.538287837147034 162.576689652229 0.501436266923514 52.7143513246791 0.65640660948486 7.86621165917003 
                               0.538287837147036 162.576689652229 0.16776856312097 168.600939365001 0.501441218130703 52.6869415370481 0.656244208994743 -172.098044223727 
                               0.501436266923515 52.7143513246794 0.5014412181307  52.6869415370476 0.705066266254339 121.423035674737 0.000391741097635164 -161.325340703057 
                               0.656406609484861 7.86621165916999 0.65624420899474 -172.098044223727 0.000391741097631289 -161.325340702747 0.372120673258557 -144.152248650699 
9.35                           0.167327079849067 166.03799032547  0.540029803991046 159.796433221393 0.500158255102379 49.608663543755  0.655904546698418 5.04897130800576 
                               0.540029803991048 159.796433221393 0.167943123063883 166.262992230537 0.500163626039689 49.5817425714572 0.655742982493815 -174.914714795607 
                               0.500158255102379 49.6086635437553 0.500163626039686 49.5817425714569 0.706879405655432 117.890050787384 0.000387590493641213 -164.994497005798 
                               0.655904546698419 5.04897130800567 0.655742982493814 -174.914714795607 0.000387590493638145 -164.994497005489 0.373885464037906 -146.81792658693 
9.375                          0.167526062136458 163.701605494624 0.541782130328317 157.021654739647 0.498857857310533 46.507159736874  0.655398662386365 2.23799965647494 
                               0.541782130328317 157.021654739647 0.16813617530333 163.924993691707 0.498863648053977 46.48075070909   0.655237998464858 -177.725121894931 
                               0.498857857310532 46.5071597368742 0.498863648053975 46.4807507090898 0.70871474209711 114.36152207392  0.000383313172169095 -168.662592753469 
                               0.655398662386365 2.23799965647484 0.655237998464857 -177.725121894931 0.000383313172166799 -168.662592753176 0.375653813268786 -149.480167624718 
9.4                            0.167743104109039 161.36487727674  0.543544630808988 154.252189821195 0.497535217021132 43.4098409125222 0.654888939827818 -0.56681641492217 
                               0.543544630808988 154.252189821196 0.168346994609742 161.586609117201 0.497541430068019 43.3839677163207 0.654729238942404 179.470620990988 
                               0.497535217021131 43.4098409125223 0.497541430068017 43.3839677163205 0.710571658880377 110.837634330676 0.000378908526346779 -172.329626227267 
                               0.654888939827818 -0.566816414922266 0.654729238942403 179.470620990988 0.000378908526345203 -172.329626227001 0.377425703808122 -152.139027609014 
9.425                          0.167977443705565 159.027492193166 0.545317091184105 151.487879655235 0.496190518505469 40.3167078939201 0.654375361919974 -3.36558787661339 
                               0.545317091184104 151.487879655235 0.168574823975218 159.247526486329 0.496197158863566 40.2913951882606 0.654216685327997 176.672402517466 
                               0.496190518505467 40.3167078939201 0.496197158863564 40.2913951882605 0.712449487443622 107.318564540533 0.000374376061581503 -175.995605457684 
                               0.654375361919973 -3.3655878766135 0.654216685327997 176.672402517466 0.000374376061580579 -175.995605457457 0.379201120890142 -154.794561516816 
9.45                           0.168228290092069 156.689159548303 0.547099270180146 148.728571047015 0.494823986038144 37.2277612002899 0.653857911094556 -6.15842356051864 
                               0.547099270180145 148.728571047015 0.16881887854365 156.907456412613 0.494831061317646 37.2030344279981 0.653700318292033 173.880113472882 
                               0.494823986038141 37.2277612002899 0.494831061317645 37.203034427998  0.714347509424314 103.804481467574 0.000369715393850293 -179.660548328178 
                               0.653857911094555 -6.15842356051876 0.653700318292033 173.880113472882 0.000369715393849946 -179.660548327999 0.380980052000299 -157.446823480575 
9.475                          0.168494827437288 154.349611384931 0.548890901376832 145.974116436166 0.493435882916524 34.1430009067065 0.653336569250225 -8.94543018091774 
                               0.54889090137683 145.974116436166 0.169078349396169 154.566132093469 0.493443403423534 34.1188863046856 0.653180117693284 171.093646758937 
                               0.493435882916522 34.1430009067065 0.493443403423533 34.1188863046856 0.716264959071585 100.295545253108 0.000364926247789512 176.675517124031 
                               0.653336569250223 -8.94543018091784 0.653180117693284 171.093646758937 0.000364926247789659 176.675517124153 0.38276248676512 -160.095866811708 
9.5                            0.16877621855875 152.008602368369 0.550691695083359 143.224373894031 0.492026510304178 31.0624264854685 0.652811317699029 -11.7267123642545 
                               0.550691695083357 143.224373894031 0.169352407204444 152.223309189377 0.492034489134503 31.0389510934059 0.652656062514168 168.312897362098 
                               0.492026510304175 31.0624264854684 0.492034489134503 31.038951093406  0.718201025978114 96.7919070165103 0.000360008454567221 173.012552195577 
                               0.652811317699026 -11.7267123642546 0.652656062514168 168.312897362098 0.00036000845456778 173.012552195636 0.384548416856452 -162.741744024062 
9.525                          0.169071608450308 149.66590960256  0.552501340208506 140.479207101676 0.490596205908951 27.9860366318625 0.652282137125105 -14.5023726865973 
                               0.552501340208503 140.479207101676 0.169640205762285 149.87876563569  0.49060465904111 27.9632282996849 0.652128130809965 165.537762317503 
                               0.490596205908949 27.9860366318624 0.49060465904111 27.963228299685  0.720154858097949 93.2937084641677 0.000354961949523971 169.350506776842 
                               0.652282137125102 -14.5023726865974 0.652128130809965 165.537762317503 0.000354961949524858 169.350506776833 0.386337835908582 -165.384506857222 
9.55                           0.16938012769981 147.321332380973 0.55431950612024 137.738485310154 0.489145342507195 24.9138290771131 0.651749007553927 -17.272511717562 
                               0.554319506120237 137.738485310154 0.169940885403955 147.532301390025 0.489154288893613 24.8917164714351 0.651596299670259 162.768140666495 
                               0.489145342507193 24.913829077113  0.489154288893613 24.8917164714353 0.722125565015578 89.8010815095964 0.000349786769570251 165.689318365694 
                               0.651749007553923 -17.2725117175621 0.651596299670259 162.768140666495 0.000349786769571387 165.689318365616 0.388130739446816 -168.024206299553 
9.575                          0.169700895803487 144.974691875136 0.556145844490695 135.00208328455  0.487674326326357 21.8458003912102 0.651211908330526 -20.0372280695896 
                               0.556145844490692 135.00208328455  0.170253576315558 145.18373811811  0.487683787981846 21.8244130010142 0.651060545191009 160.003933408905 
                               0.487674326326355 21.84580039121   0.487683787981846 21.8244130010144 0.724112221430598 86.3141479075827 0.000344483050332306 162.028910813614 
                               0.651211908330522 -20.0372280695896 0.651060545191007 160.003933408905 0.000344483050333618 162.028910813467 0.389927124826124 -170.660892610882 
9.6                            0.170033024381656 142.625830763585 0.55797999112252 132.269881233234 0.48618359529875 18.7819457781923 0.650670818105204 -22.7966184515537 
                               0.557979991122517 132.269881233234 0.170577401743918 142.832918820922 0.486193597385458 18.7613139199658 0.650520842455748 157.245043451068 
                               0.486183595298748 18.7819457781921 0.486193597385458 18.761313919966  0.726113870821817 82.8330189049477 0.000339051023042166 158.369192778859 
                               0.6506708181052  -22.7966184515537 0.650520842455746 157.245043451068 0.000339051023043586 158.369192778644 0.391726991178546 -173.294615344736 
9.625                          0.170375620298416 140.274612804056 0.559821567752789 129.541764723704 0.484673617199781 15.7222588663293 0.650125714825391 -25.5507777257593 
                               0.559821567752786 129.541764723704 0.170911481105514 140.479707405973 0.484684188107895 15.7024136888758 0.649977165524546 154.491375550532 
                               0.484673617199779 15.7222588663291 0.484684188107895 15.702413688876  0.728129529254526 79.3577949102673 0.00033349101117255 154.71005585627  
                               0.650125714825387 -25.5507777257593 0.649977165524543 154.491375550532 0.000333491011174019 154.710055855991 0.393530339368138 -175.925423370075 
9.65                           0.170727788686236 137.92092235183  0.561670183830789 126.817624586306 0.483144887684221 12.6667314955069 0.649576575732404 -28.2997989674724 
                               0.561670183830786 126.817624586306 0.1712549329963  138.123988205704 0.483156059107817 12.6477049846342 0.649429487429449 151.742836258284 
                               0.48314488768422 12.6667314955067 0.483156059107818 12.6477049846345 0.730158189294904 75.888565184604  0.000327803426822722 151.051372347013 
                               0.649576575732399 -28.2997989674724 0.649429487429446 151.742836258284 0.00032780342682419 151.051372346676 0.395337171952275 -178.553364892454 
9.675                          0.171088635874753 135.5646638273   0.563525438266151 124.097356807079 0.481597928234314 9.6153535039625  0.649023377361978 -31.0437735262009 
                               0.563525438266148 124.097356807079 0.171606878101734 135.765665446072 0.481609735241837 9.59717848723996 0.648877780175247 148.999333859278 
                               0.481597928234313 9.61535350396229 0.481609735241838 9.5971784872402  0.732198823996226 72.4254075550224 0.000321988766867282 147.392992623471 
                               0.649023377361973 -31.0437735262009 0.648877780175244 148.999333859278 0.000321988766868709 147.392992623082 0.397147493148226 178.82151252544  
9.7                            0.171457272221684 133.205761135983 0.565386921143916 121.380862410885 0.480033284033539 6.56811251635099 0.648466095547546 -33.7827910880277 
                               0.565386921143913 121.380862410885 0.171966442004943 133.404662668554 0.480045765132491 6.55082266811319 0.648322014744513 146.260778311948 
                               0.480033284033538 6.56811251635076 0.480045765132492 6.5508226681134  0.734250390922524 68.9683881523612 0.000316047608886258 143.734742034391 
                               0.648466095547541 -33.7827910880276 0.64832201474451 146.260778311948 0.000316047608887613 143.734742033959 0.398961308803999 176.199161943906 
9.725                          0.171832814842546 130.844157044394 0.567254215403269 118.668047335937 0.478451521779783 3.52499373495652 0.647904705425367 -36.5169397383655 
                               0.567254215403266 118.668047335937 0.172332757889843 131.04092210901  0.478464718975298 3.50862358171977 0.647762161105973 143.527081187323 
                               0.478451521779783 3.52499373495631 0.478464718975298 3.50862358171999 0.736311836176654 65.5175611744526 0.000309980606901699 140.076417282677 
                               0.647904705425362 -36.5169397383654 0.64776216110597 143.527081187323 0.000309980606902961 140.076417282211 0.400778626372503 173.579537027047 
9.75                           0.172214390234931 128.479812515436 0.569126898476792 115.958822300775 0.476853227451453 0.485979735683615 0.647339181440689 -39.2463060245818 
                               0.569126898476789 115.958822300775 0.172704969135073 128.674404037009 0.476867186298495 0.470564662126026 0.647198188225361 140.798155608298 
                               0.476853227451452 0.485979735683414 0.476867186298496 0.470564662126224 0.738382098401425 62.0729686756805 0.000303788486953231 136.417782192113 
                               0.647339181440684 -39.2463060245818 0.647198188225357 140.798155608298 0.000303788486954387 136.417782191623 0.402599454888178 170.962592024304 
9.775                          0.17260113679235 126.11270600714  0.571004543887266 113.253102664676 0.475239004039706 -2.54894972971714 0.646769497354257 -41.970975018008 
                               0.571004543887264 113.253102664676 0.173082231793963 126.305086059461 0.475253773688749 -2.56337347407317 0.646630064078028 138.073916189522 
                               0.475239004039706 -2.54894972971735 0.475253773688749 -2.56337347407296 0.740460112724262 58.6346403834895 0.000297472042552744 132.758562759088 
                               0.646769497354252 -41.9709750180079 0.646630064078024 138.073916189522 0.00029747204255379 132.758562758585 0.404423804945294 168.348281752732 
9.8                            0.172992207202168 123.742832738824 0.572886722799149 110.550808282437 0.473609469259551 -5.57981792391539 0.646195626248546 -44.6910303749145 
                               0.572886722799147 110.550808282437 0.173463716955273 123.932962392555 0.473625102495622 -5.59321321719234 0.646057755662651 135.354278978323 
                               0.473609469259551 -5.57981792391558 0.473625102495622 -5.59321321719216 0.742544814618072 55.2025935421755 0.000291032130066773 129.098441359705 
                               0.646195626248542 -44.6910303749144 0.646057755662647 135.354278978323 0.00029103213006771 129.0984413592   0.406251688677229 165.736561580033 
9.825                          0.173386770721948 121.370203928919 0.574773005522074 107.851863354413 0.471965253251978 -8.60665130566849 0.645617540533237 -47.4065543960984 
                               0.574773005522071 107.851863354413 0.173848612979265 121.558043106211 0.471981806527048 -8.61898014518197 0.645481229015503 132.639161397013 
                               0.471965253251978 -8.6066513056687 0.471981806527048 -8.61898014518179 0.744635143653275 51.776832784026  0.000284469664084174 125.437049950024 
                               0.645617540533233 -47.4065543960984 0.645481229015499 132.639161397013 0.00028446966408501 125.437049949528 0.408083119736066 163.127387408347 
9.85                           0.173784015328505 118.994846008896 0.576662962963826 105.156196272631 0.470306996288627 -11.629479701981 0.645035211949488 -50.11762808479  
                               0.576662962963824 105.156196272631 0.174236127603692 119.180353345404 0.470324529747384 -11.6407031947444 0.64490044922481 129.928482186858 
                               0.470306996288627 -11.6294797019812 0.470324529747384 -11.6407031947443 0.746730047118457 48.3573500276192 0.000277785612836951 121.7739620555   
                               0.645035211949484 -50.11762808479  0.644900449224807 129.928482186858 0.000277785612837699 121.773962055024 0.409918113271957 160.520715658805 
9.875                          0.17418314973424 116.616799817853 0.578556168030494 102.463739463765 0.468635346489765 -14.6483364700246 0.644448611572693 -52.8243312026414 
                               0.578556168030492 102.463739463765 0.174625489914564 116.799932532854 0.468653923988838 -14.6584148221206 0.64431538044483 127.222161353929 
                               0.468635346489765 -14.6483364700248 0.468653923988838 -14.6584148221205 0.748828483489736 44.9441244028541 0.000270980993753734 118.108683292095 
                               0.644448611572689 -52.8243312026414 0.644315380444827 127.222161353929 0.00027098099375441 118.10868329165  0.411756685911755 157.916503256855 
9.9                            0.174583405265808 114.236119782453 0.58045219697163 99.7744292297062 0.466950957565498 -17.6632586482586 0.643857709813461 -55.5267423236159 
                               0.580452196971628 99.7744292297063 0.175015952177031 114.41683355766  0.46697064668627 -17.6721511529956 0.643725985909345 124.52012011704  
                               0.466950957565497 -17.6632586482588 0.46697064668627 -17.6721511529955 0.75092942573159 41.5371222020573 0.000264056869239384 114.440640092182 
                               0.643857709813457 -55.5267423236159 0.643725985909343 124.52012011704  0.000264056869240007 114.440640091778 0.413598855736484 155.314707618335 
9.925                          0.174984037600816 111.852873086923 0.582350630668501 97.0882055863865 0.465254486589267 -20.6742870963647 0.64326247641665 -58.2249388856473 
                               0.582350630668499 97.0882055863866 0.175406791522406 112.031121954525 0.465275358644443 -20.6819521211465 0.643132227944353 121.822280857851 
                               0.465254486589267 -20.674287096365 0.465275358644443 -20.6819521211463 0.753031864414686 38.1362968563054 0.000257014342791161 110.769166218101 
                               0.643262476416646 -58.2249388856474 0.64313222794435 121.822280857851 0.000257014342791749 110.769166217747 0.415444642257276 152.715286636307 
9.95                           0.17538432835917 109.467138837887 0.584251055863719 94.4050121015148 0.463546591811757 -23.6814666237654 0.642662880458334 -60.9189972399851 
                               0.584251055863717 94.4050121015149 0.175797311488199 109.642875078205 0.46356872184587 -23.6878615956081 0.642534067979786 119.128567073259 
                               0.463546591811755 -23.6814666237656 0.463568721845869 -23.687861595608 0.755134810638994 34.7415889359091 0.000249854555583405 107.09348652764  
                               0.642662880458331 -60.9189972399852 0.642534067979784 119.128567073259 0.000249854555583977 107.093486527343 0.417294066389474 150.118198668622 
9.975                          0.175783586546659 107.079007228747 0.586153066330756 91.7247957317957 0.46182793052232 -26.6848461066527 0.642058890340686 -63.6089926981863 
                               0.586153066330755 91.7247957317958 0.176186843409064 107.252181277811 0.461851397306411 -26.6899274962914 0.641931466560196 116.438903330076 
                               0.461827930522318 -26.6848461066528 0.461851397306411 -26.6899274962913 0.757237298753212 31.3529261738367 0.000242578683680479 103.41269729879  
                               0.642058890340682 -63.6089926981864 0.641931466560194 116.438903330076 0.000242578683681052 103.412697298559 0.41914715042465 147.523402526218 
10                             0.176181149849547 104.688578708221 0.588056263982109 89.0475066601793 0.460099156964082 -29.6844785935994 0.641450473784761 -66.2949995767553 
                               0.588056263982108 89.0475066601794 0.176574747657679 104.859139075455 0.460124042984784 -29.688201898128 0.64132438335433 113.753215222    
                               0.46009915696408 -29.6844785935996 0.460124042984783 -29.6882018981279 0.759338388864236 27.9702235106951 0.000235187936074579 99.7257422115337 
                               0.641450473784758 -66.2949995767554 0.641324383354328 113.753215222    0.000235187936075166 99.7257422113728 0.421003918000338 144.93085746212  
10.025                         0.176576385780203 102.295963157547 0.589960259915111 86.3730981336394 0.458360920307824 -32.6804213999614 0.640837597821294 -68.9770912394715 
                               0.58996025991511 86.3730981336395 0.176960414735809 102.463856353645 0.458387311751099 -32.6827411239537 0.640712777163663 111.071429328836 
                               0.458360920307822 -32.6804213999616 0.458387311751098 -32.6827411239536 0.761437169133019 24.593383159756  0.000227683553794678 96.0313828017328 
                               0.640837597821292 -68.9770912394716 0.640712777163662 111.071429328836 0.000227683553795291 96.0313828016465 0.422864394067333 142.340523161144 
10.05                          0.176968692675103 99.9012790806434 0.591864675394661 83.7015263019353 0.456613862688742 -35.6727361914021 0.640220228779589 -71.6553401374751 
                               0.59186467539466 83.7015263019354 0.1773432662171  100.066449555584 0.456641849418538 -35.6736058264632 0.640096605929924 108.393473177881 
                               0.456613862688739 -35.6727361914023 0.456641849418537 -35.6736058264631 0.763532757855681 21.2222946903945 0.000220066810401054 92.3281618171387 
                               0.640220228779587 -71.6553401374752 0.640096605929923 108.393473177882 0.0002200668104017 92.3281618171298 0.424728604854455 139.752359730267 
10.075                         0.177357500547891 97.5046528112634 0.593769142772395 81.0327500577682 0.454858617309174 -38.6614890569926 0.639598332274702 -74.3298178472171 
                               0.593769142772394 81.0327500577683 0.177722755544466 97.6670429023526 0.454888292841259 -38.6608610596873 0.639475826741739 105.719275207379 
                               0.454858617309171 -38.6614890569928 0.454888292841258 -38.6608610596872 0.765624305331118 17.8568351282079 0.000212339014274431 88.6143573750669 
                               0.6395983322747  -74.3298178472172 0.639475826741738 105.719275207379 0.000212339014275112 88.6143573751363 0.426596577830706 137.166327689653 
10.1                           0.177742271801566 95.1062177409196 0.595673306342084 78.3667308787045 0.453095806609393 -41.6467505724411 0.638971873193099 -77.000595106403 
                               0.595673306342083 78.3667308787046 0.178098368686254 95.2657676306042 0.453127268080625 -41.6445763405437 0.638850395840545 103.048764731884 
                               0.45309580660939 -41.6467505724413 0.453127268080624 -41.6445763405436 0.767710995518594 14.4968690700033 0.000204501513241994 84.8879250819882 
                               0.638971873193097 -77.0005951064032 0.638850395840545 103.048764731884 0.000204501513242709 84.8879250821355 0.428468341664786 134.582387964323 
10.125                         0.178122501805151 92.7061135709955 0.597576823131339 75.7034326711942 0.451326040507585 -44.6285958541003 0.638340815677037 -79.6677418480847 
                               0.597576823131338 75.7034326711943 0.178469624656643 92.8627612541407 0.451359388640883 -44.6248257011054 0.638220268625951 100.381871909406 
                               0.451326040507582 -44.6285958541004 0.451359388640883 -44.6248257011053 0.769792047490863 11.1422488117745 0.000196555702272376 81.1464242317552 
                               0.638340815677036 -79.6677418480848 0.638220268625951 100.381871909407 0.000196555702273116 81.1464242319781 0.430343926181973 132.00050187643  
10.15                          0.17849771934147 90.3044855920978 0.599479363629946 73.0428216169749 0.449549914709238 -47.6071046044854 0.63770512310793 -82.3313272330768 
                               0.599479363629945 73.042821616975  0.178836075906976 90.4581668523213 0.449585253774492 -47.6016877323123 0.637585399660761 97.718527710132  
                               0.449549914709235 -47.6071046044855 0.449585253774491 -47.6016877323122 0.771866716690284 7.79281448774289 0.000188503035245676 77.3869227060848 
                               0.637705123107929 -82.3313272330769 0.637585399660762 97.7185277101321 0.000188503035246431 77.3869227063795 0.43222336231838 129.420631138139 
10.175                         0.178867486933836 87.9014839932974 0.601380612455431 70.3848660221106 0.447768009085246 -50.5823611501069 0.637064758088989 -84.9914196808914 
                               0.601380612455431 70.3848660221107 0.179197308595825 88.0521323878966 0.447805446856412 -50.5752456199195 0.636945742675894 95.0586638865372 
                               0.447768009085243 -50.582361150107 0.447805446856411 -50.5752456199194 0.773934295997067 4.44839421850469 0.000180345042205721 73.6058730330061 
                               0.637064758088988 -84.9914196808915 0.636945742675895 95.0586638865373 0.000180345042206474 73.6058730333674 0.434106682072638 126.842737845076 
10.2                           0.179231401060466 85.4972632034732 0.603280268956741 67.7295361688763 0.445980886117233 -53.5544544724802 0.636419682427448 -87.6480868993974 
                               0.60328026895674 67.7295361688764 0.179552942746621 85.6448100564295 0.446020533825843 -53.5455871735362 0.636301250575446 92.4022129446798 
                               0.445980886117231 -53.5544544724803 0.446020533825842 -53.5455871735361 0.775994116620294 1.10880426630641 0.000172083354097695 69.7989488608862 
                               0.636419682427447 -87.6480868993975 0.636301250575447 92.4022129446799 0.000172083354098427 69.7989488613071 0.435993918455044 124.266784470341 
10.225                         0.179589092266382 83.0919812665248 0.605178047757132 65.0768041706631 0.444189089407812 -56.5234782332259 0.635769857116704 -90.3013959134259 
                               0.605178047757132 65.0768041706632 0.17990263230255 83.2363556690334 0.444231061693111 -56.5128048496526 0.635651875442177 89.7491081164446 
                               0.444189089407809 -56.523478233226 0.44423106169311 -56.5128048496525 0.778045548823673 -2.2261508045279 0.000163719737894675 65.9608263058614 
                               0.635769857116703 -90.3013959134259 0.635651875442178 89.7491081164446 0.000163719737895363 65.9608263063336 0.437885105434253 121.692733859052 
10.25                          0.179940225183255 80.6857992517571 0.607073679237684 62.4266438300373 0.442393142252776 -59.48953079421  0.635115242318697 -92.9514130925488 
                               0.607073679237684 62.4266438300374 0.180246065089125 80.8269280697071 0.442437557108692 -59.476995769591 0.634997568543691 87.0992833325143 
                               0.442393142252774 -59.4895307942101 0.442437557108691 -59.476995769591 0.780088002499038 -5.55667796398812 0.000155256146402168 62.0848872904892 
                               0.635115242318696 -92.9514130925488 0.634997568543692 87.0992833325143 0.000155256146402787 62.0848872910029 0.43978027788157 119.120549223424 
10.275                         0.180284498468264 78.2788807002746 0.608966909963004 59.7790305000577 0.440593546271591 -62.452715233702 0.63445579734688 -95.598204178265 
                               0.608966909963004 59.7790305000578 0.180582962695408 78.4166885881041 0.440640524990727 -62.4382617333405 0.634338280339596 84.4526731958293 
                               0.440593546271588 -62.4527152337021 0.440640524990726 -62.4382617333404 0.782120927601494 -8.88299555153178 0.000146694789206022 58.1628105344589 
                               0.634455797346879 -95.5982041782651 0.634338280339597 84.4526731958294 0.000146694789206548 58.1628105350027 0.441679471512907 116.550194138342 
10.3                           0.180621644673392 75.8713911077594 0.610857503051   57.1339409489125 0.438790780091944 -65.4131393595436 0.633791480650125 -98.2418343108315 
                               0.610857503051001 57.1339409489126 0.180913080285224 76.0058005281182 0.438840447206773 -65.3967092302484 0.633673960489931 81.8092129552964 
                               0.438790780091942 -65.4131393595437 0.438840447206772 -65.3967092302482 0.784143814460792 -12.2053331119104 0.000138038234726183 54.1839975690278 
                               0.633791480650124 -98.2418343108315 0.633673960489931 81.8092129552964 0.00013803823472659 54.183997569589  0.443582722828457 113.981632537432 
10.325                         0.180951430056789 73.4634974435566 0.612745238488749 54.4913532279102 0.436985298083626 -68.3709157203271 0.633122249797906 -100.882368055976 
                               0.612745238488749 54.4913532279102 0.181236206349894 73.594428692239  0.437037781305054 -68.3524494475466 0.633004557865153 79.1688384795078 
                               0.436985298083625 -68.3709157203272 0.437037781305054 -68.3524494475466 0.786156193983922 -15.5239312335304 0.000129289559102836 50.1347512213694 
                               0.633122249797905 -100.882368055976 0.633004557865153 79.1688384795078 0.0001292895591031 50.1347512219336 0.445490069050143 111.414828709619 
10.35                          0.181273654347847 71.0553677055573 0.614629913396706 51.8512465428218 0.435177529136565 -71.3261616155771 0.63244806146711 -103.519869431728 
                               0.614629913396707 51.8512465428218 0.181552162414022 71.1827389412068 0.435232959290017 -71.305598277684 0.632330020557968 76.5314862302358 
                               0.435177529136563 -71.3261616155772 0.435232959290017 -71.3055982776839 0.788157637764227 -18.8390413911513 0.000120452567416084 45.9970736979468 
                               0.63244806146711 -103.519869431727 0.632330020557969 76.5314862302357 0.000120452567416183 45.997073698498  0.447401548056845 108.849747296148 
10.375                         0.181588150477441 68.6471705099539 0.616511342243691 49.2136011285427 0.433367875477448 -74.278999105918 0.631768871430805 -106.154401935596 
                               0.616511342243692 49.2136011285426 0.181860802705713 68.7708977881011 0.433426386436639 -74.256276325418 0.631650295897279 73.8970932354681 
                               0.433367875477447 -74.2789991059181 0.433426386436639 -74.256276325418 0.790147758112345 -22.1509257946575 0.000111532129852075 41.7468642056203 
                               0.631768871430804 -106.154401935595 0.631650295897279 73.8970932354681 0.000111532129851992 41.7468642061403 0.449317198317434 106.28635328807  
10.4                           0.181894784284424 66.2390747145709 0.618389357015205 46.5783981270107 0.431556711519112 -77.2295550241809 0.631084634549291 -108.786028572321 
                               0.618389357015207 46.5783981270107 0.182162013802234 66.3590720256314 0.431618440137629 -77.2046089155978 0.630965330464519 71.2655970617626 
                               0.431556711519112 -77.2295550241809 0.431618440137629 -77.2046089155977 0.792126208024179 -25.4598572455585 0.000102534706477962 37.3511398399887 
                               0.63108463454929 -108.786028572321 0.630965330464519 71.2655970617625 0.000102534706477687 37.3511398404565 0.451237058821571 103.72461202419  
10.425                         0.182193454208974 63.8312490741199 0.620263807337808 43.9456194682909 0.429744382736606 -80.1779609883752 0.630395304763771 -111.414811882415 
                               0.620263807337809 43.9456194682908 0.182455714261634 63.9474283850618 0.429809468777458 -80.15072610253  0.630275070112642 68.6369357857041 
                               0.429744382736606 -80.1779609883752 0.429809468777458 -80.1507261025299 0.794092681100745 -28.766119002784 9.34691929532847E-05 32.7636130852966 
                               0.63039530476377 -111.414811882415 0.630275070112642 68.636935785704  9.34691929528101E-05 32.7636130856875 0.453161169008227 101.16448918947  
10.45                          0.182484090982671 61.4238619254285 0.622134560562375 41.3152477547081 0.42793120456371 -83.1243534174058 0.629700835092921 -114.040813971687 
                               0.622134560562376 41.3152477547079 0.182741854250211 61.5361332249049 0.427999790626982 -83.0947626817793 0.629579459988002 66.011047964262  
                               0.427931204563711 -83.1243534174058 0.427999790626982 -83.0947626817793 0.796046911434271 -32.070004659241 8.4348335545578E-05 27.9173970728386 
                               0.62970083509292 -114.040813971687 0.629579459988002 66.0110479642619 8.43483355449073E-05 27.9173970731215 0.455089568691824 98.6059508138801 
10.475                         0.182766657324404 59.0170809004237 0.624001501809158 38.6872661478849 0.42611746130359 -86.068873550366 0.629001177632661 -116.664096541956 
                               0.62400150180916 38.6872661478847 0.183020415174884 59.125352247264  0.426189692752348 -86.0368582052034 0.628878444555355 63.387872603857  
                               0.426117461303591 -86.068873550366 0.426189692752348 -86.0368582052034 0.797988673474226 -35.3718180304938 7.51912055917996E-05 22.7124722830496 
                               0.62900117763266 -116.664096541956 0.628878444555354 63.3878726038569 7.51912055909449E-05 22.7124722831849 0.457022297985881 96.048963271717  
10.5                           0.183041147650273 56.6110726644382 0.625864533977623 36.061658258519  0.424303405047252 -89.0116674701802 0.628296283559408 -119.284720923114 
                               0.625864533977624 36.0616582585188 0.183291409328702 56.7152502394914 0.424379429931849 -88.9771569999585 0.628171967626202 60.7673491279622 
                               0.424303405047253 -89.0116674701802 0.424379429931849 -88.9771569999584 0.799917781886129 -38.6718730568054 6.60277577632159E-05 16.9931388849252 
                               0.628296283559407 -119.284720923114 0.6281719676262  60.767349127962  6.60277577622018E-05 16.9931388848578 0.458959397223974 93.4934932813817 
10.525                         0.183307587804633 54.2060026772316 0.627723577724094 33.4384080387113 0.422489254593512 -91.9528861322997 0.627586103137051 -121.902748106712 
                               0.627723577724096 33.4384080387111 0.183554879556687 54.3059908386591 0.422569223574465 -91.9158081921462 0.627459972390665 58.1494173430825 
                               0.422489254593514 -91.9528861322997 0.422569223574465 -91.9158081921462 0.801834091414985 -41.970493719655 5.69077564984183E-05 10.5053523586776 
                               0.627586103137051 -121.902748106712 0.627459972390663 58.1494173430824 5.69077564972852E-05 10.5053523583269 0.460900906877801 90.939507905631  
10.55                          0.183566034818353 51.8020349740008 0.629578571410268 30.8174996766386 0.420675194364303 -94.8926853990812 0.626870585727896 -124.518238781194 
                               0.62957857141027 30.8174996766384 0.183810898948199 51.8977363162196 0.420759260633919 -94.8529657356955 0.626742401453086 55.5340174029726 
                               0.420675194364305 -94.8926853990811 0.42075926063392 -94.8529657356954 0.803737496764064 -45.2680139737045 4.79195383884005E-05 2.8117871230239  
                               0.626870585727896 -124.518238781194 0.626742401453084 55.5340174029724 4.79195383872087E-05 2.81178712226112 0.462846867472073 88.3869745523156 
10.575                         0.183816576699224 49.3993319635752 0.631429471025603 28.1989174933442 0.418861373309321 -97.8312260803988 0.626149679807802 -127.131253368909 
                               0.631429471025605 28.1989174933439 0.184059570560909 49.4906473801545 0.418949692512271 -97.7887884469891 0.626019196871489 52.9210897709731 
                               0.418861373309323 -97.8312260803988 0.418949692512271 -97.7887884469891 0.80562793249843 -48.5647776950418 3.92326147309112E-05 -6.88332454654693 
                               0.626149679807801 -127.131253368909 0.626019196871487 52.9210897709729 3.92326147297561E-05 -6.88332454793164 0.464797319495908 85.8358609756183 
10.6                           0.184059332258293 46.9980542409674 0.633276250086627 25.5826458414072 0.417047903794248 -100.768673980945 0.625423332985695 -129.741852065   
                               0.633276250086629 25.582645841407  0.184301027180335 47.0848829918793 0.417140633947318 -100.723440045654 0.625290300201069 50.3105751803697 
                               0.41704790379425 -100.768673980945 0.417140633947318 -100.723440045654 0.80750537298121 -51.8611386463648 3.12010095871181E-05 -20.0801256766656 
                               0.625423332985695 -129.741852065   0.625290300201067 50.3105751803696 3.12010095861559E-05 -20.0801256790116 0.466752303310346 83.2861352778133 
10.625                         0.184294450974779 44.5983604114684 0.635118899516091 22.9686690052364 0.415234860467107 -103.705199954582 0.62469149202766 -132.350094878242 
                               0.635118899516093 22.9686690052362 0.184535431117821 44.6806001951834 0.415332161878383 -103.657089201835 0.624555652541814 47.7024145926992 
                               0.415234860467109 -103.705199954582 0.415332161878383 -103.657089201835 0.809369832349032 -55.1574604596008 2.46083691729632E-05 -39.3943379985231 
                               0.62469149202766 -132.350094878241 0.624555652541812 47.7024145926991 2.46083691724561E-05 -39.3943380021938 0.468711859051543 80.7377659115686 
10.65                          0.18452211290106 42.2004069235338 0.636957427504862 20.3569711027216 0.413422279097641 -106.640979966   0.623954102885747 -134.956041673887 
                               0.636957427504864 20.3569711027214 0.184762974048701 42.2779539545371 0.413524314285413 -106.589909590172 0.623815194590373 45.0965491539506 
                               0.413422279097644 -106.640979966   0.413524314285414 -106.589909590172 0.811221364531358 -58.4541166362735 2.10216084240127E-05 -67.0862567289214 
                               0.623954102885747 -134.956041673887 0.62381519459037 45.0965491539505 2.10216084242871E-05 -67.086256733373 0.470676026529151 78.1907216828177 
10.675                         0.184742528608178 39.8043479078168 0.638791859359312 17.7475359879717 0.411610155385059 -109.576195159826 0.623211110731655 -137.559752218547 
                               0.638791859359314 17.7475359879715 0.184983876891367 39.8770970001902 0.411717088996791 -109.522079950574 0.62306886669625 42.4929201486367 
                               0.411610155385062 -109.576195159826 0.411717088996791 -109.522079950574 0.81306006331662 -61.7514905657271 2.21169978782832E-05 -98.0393457395113 
                               0.623211110731655 -137.559752218547 0.623068866696248 42.4929201486366 2.21169978793158E-05 -98.0393457426569 0.472644845119306 75.6449717542319 
10.7                           0.184955939171271 37.4103350198332 0.640622237336876 15.1403471548537 0.40979844372997 -112.511031937213 0.622462459995401 -140.161286227102 
                               0.640622237336878 15.1403471548536 0.185198389726959 37.4781796776118 0.4099104424617  -112.453784155786 0.622316608922396 39.8914689517326 
                               0.409798443729974 -112.511031937213 0.4099104424617  -112.453784155786 0.814886062466127 -65.0499755611107 2.74617722629735E-05 -122.394259631806 
                               0.6224624599954  -140.161286227102 0.622316608922393 39.8914689517326 2.74617722643084E-05 -122.39425963308 0.474618353651632 73.1004856493252 
10.725                         0.185162616193414 35.018517283925  0.642448620472249 12.5353876410511 0.407987055966885 -115.445682039804 0.621708094409087 -142.760703411644 
                               0.642448620472251 12.535387641051  0.185406791758471 35.0813497989814 0.408104288483503 -115.385211285603 0.621558361110244 37.2921369785083 
                               0.407987055966887 -115.445682039804 0.408104288483503 -115.385211285603 0.81669953587461 -68.3499749127942 3.52686050588408E-05 -138.874371732704 
                               0.621708094409087 -142.760703411644 0.621558361110241 37.2921369785083 3.52686050601193E-05 -138.874371732912 0.476596590289535 70.5572332572311 
10.75                          0.185362861865521 32.6290409363806 0.644271084396602 9.93263993234889 0.406175860054272 -118.380342640852 0.620947957055855 -145.358063532368 
                               0.644271084396604 9.93263993234885 0.185609391307242 32.6867524946244 0.406298496911164 -118.31655570745 0.620794062949227 34.6948656323044 
                               0.406175860054275 -118.380342640852 0.406298496911164 -118.31655570745 0.818500697774115 -71.6519019586447 4.43345768726659E-05 -150.396654588214 
                               0.620947957055855 -145.358063532368 0.620794062949225 34.6948656323045 4.43345768736993E-05 -150.396654587933 0.478579592403073 68.0151848381915 
10.775                         0.185557009059225 30.2420492658025 0.646089721151936 7.33208586686093 0.404364678719875 -121.315216443107 0.620181990424095 -147.953426450374 
                               0.646089721151938 7.33208586686094 0.185806525844073 30.2945300624985 0.404492892286484 -121.248017162932 0.620023654050807 32.0995962503332 
                               0.404364678719878 -121.315216443107 0.404492892286484 -121.248017162932 0.820289802975565 -74.9561801703261 5.40984666474589E-05 -159.115018280728 
                               0.620181990424095 -147.953426450374 0.620023654050805 32.0995962503333 5.4098466648138E-05 -159.115018280229 0.480567396433572 65.4743110298041 
10.8                           0.185745421449055 27.8576824490484 0.647904639002543 4.73370653890911 0.402553288059712 -124.250511782974 0.619410136466966 -150.546852182238 
                               0.647904639002545 4.73370653890919 0.185998562051611 27.9048218140601 0.40268725244566 -124.179800859777 0.619247074026999 29.5062700476076 
                               0.402553288059715 -124.250511782974 0.402687252445659 -124.179800859777 0.822067147139907 -78.2632432545041 6.43029085143282E-05 -166.195174724279 
                               0.619410136466966 -150.546852182238 0.619247074026997 29.5062700476078 6.43029085145763E-05 -166.195174723683 0.482560037749127 62.9345828540765 
10.825                         0.185928493659752 25.4760773813372 0.649715962245311 2.13748220227348 0.400741416090069 -127.186442740258 0.618632336667291 -153.138400956263 
                               0.649715962245312 2.13748220227363 0.186185895914111 25.5177639150851 0.400881307074533 -127.112117568477 0.618464262573421 26.9148280591341 
                               0.400741416090071 -127.186442740258 0.400881307074533 -127.112117568477 0.82383306706812 -81.5735352675312 7.48213484192073E-05 -172.260797351955 
                               0.618632336667291 -153.138400956263 0.618464262573419 26.9148280591342 7.4821348418966E-05 -172.260797351317 0.484557550490042 60.3959717253397 
10.85                          0.186106651434214 23.0973674993725 0.651523831020353 -0.45660782746333 0.398928741252678 -130.123229252676 0.617848532107838 -155.728133270212 
                               0.651523831020354 -0.456607827463112 0.18636895283036 23.1334892202689 0.399074736217832 -130.045183722751 0.617675159556832 24.3252110805295 
                               0.39892874125268 -130.123229252676 0.399074736217831 -130.045183722751 0.825587940996639 -84.8875107418563 8.55868372637731E-05 -177.662091242852 
                               0.617848532107838 -155.728133270212 0.617675159556831 24.3252110805298 8.5586837262997E-05 -177.662091242198 0.486559967403245 57.8584494590796 
10.875                         0.186280351817357 20.7216825966105 0.653328401123232 -3.04858527174771 0.397114890874313 -133.061097234147 0.617058663547029 -158.316109950373 
                               0.653328401123233 -3.04858527174741 0.186548187745257 20.7521271006829 0.397267168743695 -132.979221522799 0.616879705107155 21.7373596072514 
                               0.397114890874314 -133.061097234147 0.397267168743695 -132.979221522799 0.827332188881859 -88.2056348220523 9.65619176926325E-05 177.392988371492 
                               0.617058663547028 -158.316109950373 0.616879705107154 21.7373596072518 9.65619176912916E-05 177.392988372154 0.48856731966461 55.3219882817423 
10.9                           0.186450083351107 18.3491486300697 0.655129843819752 -5.6384729893184 0.395299439583116 -136.000278695676 0.616262671500092 -160.902392211715 
                               0.655129843819752 -5.63847298931801 0.186724085295459 18.3738032634267 0.39545818076592 -135.914459040148 0.616077839713944 19.1512137726575 
                               0.395299439583118 -136.000278695676 0.39545818076592 -135.914459040148 0.829066272654339 -91.5283834079653 0.000107724923711031 172.774466852174 
                               0.616262671500091 -160.902392211716 0.616077839713942 19.1512137726579 0.000107724923709112 172.774466852842 0.490579636688104 52.7865608415835 
10.925                         0.186616366275772 15.9798875183432 0.65692834566405 -8.22629507815095 0.393481907685204 -138.941011867513 0.615460496325662 -163.487041718919 
                               0.656928345664049 -8.22629507815049 0.186897159964475 15.9986395630594 0.393647294027556 -138.851130322703 0.615269504327285 16.5667132851377 
                               0.393481907685205 -138.941011867513 0.393647294027556 -138.851130322704 0.830790696420139 -94.8562433020832 0.000119063265914392 168.397426990465 
                               0.615460496325661 -163.487041718919 0.615269504327283 16.5667132851382 0.000119063265911899 168.39742699114  0.492596945920621 50.2521402206234 
10.95                          0.186779752733259 13.6140169307342 0.658724108320412 -10.8120769793138 0.391661759506397 -141.883541321048 0.614652078317858 -166.070120647996 
                               0.658724108320411 -10.8120769793133 0.187067956242733 13.6267538046427 0.391833974250816 -141.789475498457 0.614454640463095 13.9837973645889 
                               0.391661759506398 -141.883541321048 0.391833974250816 -141.789475498457 0.832506006583329 -98.1897123577709 0.000130569916666262 164.204249987761 
                               0.614652078317856 -166.070120647996 0.614454640463094 13.9837973645895 0.000130569916663219 164.204249988446 0.49461927262131 47.7186999477821 
10.975                         0.18694082696786 11.2516500676728 0.660517348388974 -13.3958455829551 0.389838401705391 -144.828118088718 0.613837357803818 -168.651691748221 
                               0.660517348388973 -13.3958455829545 0.187237048788363 11.2582595384565 0.390017629459699 -144.729740876093 0.613633190312788 11.4024046785278 
                               0.389838401705391 -144.828118088718 0.390017629459699 -144.729740876094 0.834212791860189 -101.529299624541 0.000142241464804416 160.154555499375 
                               0.613837357803816 -168.651691748222 0.613633190312786 11.4024046785284 0.00014224146480087 160.154555500076 0.49664663962417 45.1862140132678 
11                             0.187100205520775 8.89289543280268 0.662308297235153 -15.9776293366185 0.388011181566241 -147.77499978004 0.613016275246733 -171.231818404052 
                               0.662308297235151 -15.9776293366178 0.18740504258478 8.89326584666328 0.388197608283339 -147.672179040576 0.61280509685728 8.82247327816427 
                               0.388011181566241 -147.77499978004 0.388197608283339 -147.672179040576 0.835911683151873 -104.875525486015 0.000154076987963362 156.21924680715  
                               0.61301627524673 -171.231818404053 0.612805096857278 8.82247327816497 0.00015407698795938 156.21924680787  0.498679067082678 42.6546568842956 
11.025                         0.187258537415015 6.53785659732724 0.66409720082235 -18.5574583560718 0.386179385279772 -150.724450691638 0.612188771354363 -173.810564696689 
                               0.664097200822347 -18.5574583560711 0.187572573091571 6.53187712239774 0.386373198249762 -150.617048941566 0.611970303985333 6.24394053478113 
                               0.386179385279771 -150.724450691638 0.386373198249763 -150.617048941566 0.837603353238411 -108.228921785663 0.0001660773736922 152.376846414317 
                               0.612188771354359 -173.81056469669 0.61197030398533 6.24394053478186 0.000166077373687875 152.37684641506  0.500716572195134 40.124003522218  
11.05                          0.187416504327946 4.18663195738626 0.665884319547197 -21.1353645388075 0.384342236225386 -153.676741908974 0.611354787193072 -176.387995464921 
                               0.665884319547194 -21.1353645388067 0.187740306385714 4.1741928419278  0.384543624081656 -153.564615972362 0.611128756616199 3.66674307679116 
                               0.384342236225385 -153.676741908974 0.384543624081657 -153.564615972362 0.839288516252815 -111.590031934831 0.000178244898363224 148.611162742817 
                               0.611354787193067 -176.387995464921 0.611128756616196 3.66674307679191 0.00017824489835867 148.611162743587 0.50275916890946 37.5942294011493 
11.075                         0.18757482074938 1.83931448539285 0.667669928076247 -23.7113816803572 0.382498893266804 -156.63215139727 0.610514264307403 -178.964176364849 
                               0.667669928076243 -23.7113816803564 0.187908939290709 1.82030733069185 0.382708046007746 -156.515152036845 0.610280400826584 1.09081672786508 
                               0.382498893266804 -156.63215139727 0.382708046007747 -156.515152036846 0.84096792688975 -114.959410996906 0.000190582960135066 144.909758999247 
                               0.610514264307397 -178.96417636485 0.610280400826581 1.09081672786589 0.000190582960130423 144.909759000044 0.50480686760611 35.0653105281716 
11.1                           0.187734234123841 -0.50400852361649 0.669454315182762 -26.2855455935369 0.380648449077468 -159.590964078907 0.609667144845208 178.460826071897 
                               0.669454315182758 -26.2855455935361 0.188079199491877 -0.529690475862174 0.380865558105628 -159.468935601701 0.609425183981927 -1.48390355345375 
                               0.380648449077468 -159.590964078907 0.380865558105629 -159.468935601701 0.842642379298768 -118.337625740787 0.000203095907226575 141.262921289834 
                               0.609667144845202 178.460826071896 0.609425183981923 -1.48390355345297 0.000203095907222 141.262921290658 0.506859674757792 32.5372234652078 
11.125                         0.18789552497641 -2.84325570946242 0.671237783581891 -28.8578942307171 0.378789928513768 -162.553471894399 0.60881337168841 175.886944381918 
                               0.671237783581886 -28.8578942307164 0.188251845636715 -2.8757172756064 0.379015186694242 -162.426251731022 0.608563054872019 -4.05748373221115 
                               0.378789928513768 -162.553471894399 0.379015186694244 -162.426251731022 0.844312705607443 -121.725254656113 0.000215788926984304 137.662946494208 
                               0.608813371688402 175.886944381917 0.608563054872014 -4.05748373221034 0.000215788926979972 137.662946495057 0.508917592564691 30.0099453526556 
11.15                          0.188059507022343 -5.17835190691175 0.67302064976224 -31.428467809187 0.37692228705684 -165.519973843818 0.607952888589413 173.314110116205 
                               0.673020649762233 -31.4284678091864 0.188427667419926 -5.21769564613215 0.37715588879681 -165.387392100196 0.607693963851002 -6.62999075312237 
                               0.37692228705684 -165.519973843818 0.377155888796813 -165.387392100196 0.845979774014914 -125.122887921893 0.00022866797478239 134.103640247468 
                               0.607952888589404 173.314110116205 0.607693963850995 -6.62999075312163 0.00022866797477849 134.103640248338 0.510980618563887 27.4834539348722 
11.175                         0.188227027261446 -7.50922840711234 0.674803243811521 -33.9973089396563 0.375044409346497 -168.490776005401 0.607085640313267 170.742253789187 
                               0.674803243811514 -33.9973089396557 0.188607485653473 -7.55555429307381 0.375286550697786 -168.352654985805 0.606817862981792 -9.20149259379558 
                               0.375044409346499 -168.490776005401 0.375286550697788 -168.352654985805 0.84764448639142 -128.531127319376 0.000241739729641076 130.579956183312 
                               0.607085640313256 170.742253789187 0.606817862981784 -9.20149259379484 0.000241739729637806 130.579956184196 0.513048745211708 24.9577275876054 
11.2                           0.188398966059023 -9.83582321910473 0.676585909233647 -36.5644627579127 0.373155107833877 -171.466191527834 0.606211572785634 168.171304831152 
                               0.67658590923364 -36.5644627579122 0.188792152322714 -9.88922829919872 0.373405986620375 -171.322345228088 0.605934706184998 -11.7720583146049 
                               0.373155107833879 -171.466191527834 0.373405986620378 -171.322345228089 0.84930777531435 -131.950586079112 0.000255011568131916 127.087732129556 
                               0.606211572785622 168.171304831152 0.605934706184989 -11.7720583146042 0.000255011568129473 127.087732130445 0.515121959437788 22.4327453474653 
11.225                         0.188576237215994 -12.1580813301615 0.678369002754331 -39.1299770596253 0.371253121582588 -174.446540592595 0.605330633246695 165.601191544554 
                               0.678369002754324 -39.1299770596249 0.188982550630394 -12.2186593731142 0.371512937554354 -174.296774162384 0.605044449392429 -14.341758104703 
                               0.371253121582591 -174.446540592595 0.371512937554357 -174.296774162384 0.85097060046624 -135.381888651247 0.000268491551006094 123.623494095951 
                               0.605330633246682 165.601191544553 0.605044449392418 -14.3417581047024 0.000268491551004664 123.623494096834 0.517200242169632 19.9084869435333 
11.25                          0.18875978803155 -14.4759549637566 0.68015289411193 -41.6939024382552 0.369337115251618 -177.432150342553 0.60444277041107 163.031841064719 
                               0.680152894111923 -41.693902438255 0.189179595030959 -14.5437960964825 0.369606070267268 -177.276259515815 0.60414705070528 -16.9106633236485 
                               0.369337115251623 -177.432150342552 0.369606070267272 -177.276259515815 0.852633944315131 -138.825670387109 0.000282188418780738 120.184308470829 
                               0.604442770411056 163.031841064719 0.604147050705268 -16.9106633236479 0.00028218841878049 120.184308471693 0.519283567826562 17.384932831206  
11.275                         0.188950599362436 -16.7894038340466 0.681937965829984 -44.2562924260105 0.367405678296851 179.576645227085 0.603547934633921 160.463179325501 
                               0.681937965829976 -44.2562924260105 0.189384231258344 -16.8645941687014 0.367683976535688 179.738874734618 0.60324247055713 -19.4788465381099 
                               0.367405678296857 179.576645227086 0.367683976535693 179.738874734618 0.854298806992711 -142.282577119171 0.000296111593667787 116.767669029616 
                               0.603547934633906 160.463179325501 0.603242470557116 -19.4788465381095 0.000296111593668858 116.767669030444 0.521371903782011 14.8620642283684 
11.3                           0.189149685683658 -19.0983953958476 0.683724612967557 -46.8172036377478 0.365457324431881 176.579505419486 0.602646078083365 157.895131030418 
                               0.683724612967549 -46.817203637748 0.189597436350955 -19.181016648093 0.365745172636886 176.748298546452 0.602330671881892 -22.0463815530968 
                               0.365457324431888 176.579505419487 0.365745172636891 176.748298546451 0.855966200281025 -145.753264625404 0.000310271185975932 113.371409434497 
                               0.602646078083349 157.895131030418 0.602330671881877 -22.0463815530965 0.000310271185978406 113.37140943527  0.523465209793166 12.3398631539966 
11.325                         0.189358095156006 -21.4029050892249 0.68551324284322 -49.3766959177002 0.363490491392789 173.576083032636 0.601737154919368 155.327619629838 
                               0.685513242843213 -49.3766959177006 0.189820218678176 -21.4930341887601 0.363788099145201 173.751676042639 0.601411620286871 -24.613343437156 
                               0.363490491392796 173.576083032636 0.363788099145206 173.751676042639 0.857637140614192 -149.238397963025 0.000324678003604432 109.993634639314 
                               0.601737154919352 155.327619629839 0.601411620286854 -24.6133434371559 0.00032467800360833 109.993634640013 0.525563437397115 9.81831246928257 
11.35                          0.18957690970638 -23.7029165779598 0.687304274728162 -51.9348324888759 0.361503541055631 170.566024605599 0.600821121479309 152.76056730479  
                               0.687304274728156 -51.9348324888765 0.190053617973204 -23.8006252723991 0.361811121081318 170.748665792854 0.600485284231108 -27.1798085409656 
                               0.361503541055639 170.566024605599 0.361811121081323 170.748665792854 0.85931264099786 -152.738650655524 0.000339343563567002 106.632666479481 
                               0.600821121479292 152.760567304791 0.600485284231091 -27.1798085409656 0.000339343563572255 106.632666480082 0.527666529272737 7.29739592137873 
11.375                         0.189807245127374 -25.9984219813341 0.689098139503645 -54.4916801049469 0.359494759959602 167.548970718647 0.599897936470397 150.193894957951 
                               0.68909813950364 -54.4916801049476 0.190298705377491 -26.1037764345138 0.359812528466743 167.738921149109 0.599551635209204 -29.7458545087498 
                               0.35949475995961 167.548970718647 0.359812528466748 167.738921149109 0.860993701746196 -156.254703715831 0.000354280104689325 103.287000019075 
                               0.59989793647038 150.193894957952 0.599551635209187 -29.74585450875  0.000354280104695751 103.287000019556 0.52977441856771 4.77709818985165 
11.4                           0.190050251203024 -28.2894220988567 0.690895279277688 -57.0473092044115 0.357462360293013 164.524556351213 0.598967561169167 147.627522212418 
                               0.690895279277684 -57.0473092044123 0.190556583502401 -28.4024824846374 0.357790537339797 164.722090639482 0.598610647940818 -32.3115602819318 
                               0.357462360293021 164.524556351214 0.357790537339802 164.722090639482 0.862681299934352 -159.787244487415 0.000369500600749521 99.9552681354676 
                               0.598967561169152 147.627522212418 0.598610647940802 -32.3115602819322 0.000369500600756799 99.9552681358015 0.531887028190162 2.25740493593946 
11.425                         0.190307111867935 -30.5759266277692 0.692696146955561 -59.6017940667901 0.35540448140341 161.492411301465 0.598029959628266 145.061367418829 
                               0.692696146955558 -59.6017940667911 0.190828386514025 -30.696746720359 0.355743291293415 161.697818423533 0.597662300566083 -34.8770060944421 
                               0.355404481403418 161.492411301465 0.355743291293419 161.697818423533 0.864376377463896 -163.336965284117 0.00038501877339874 96.6362124684254 
                               0.598029959628252 145.06136741883  0.597662300566069 -34.8770060944427 0.000385018773406376 96.636212468587  0.534004270064639 -0.261697145302795 
11.45                          0.190579045407296 -32.8579543733784 0.694501205758346 -62.1552129705763 0.353319191897168 158.452160671043 0.597085098890754 142.495347671435 
                               0.694501205758347 -62.1552129705773 0.191115280247301 -32.9865811351421 0.35366886359886 158.665744812745 0.59670657484713 -37.4422734590936 
                               0.353319191897174 158.452160671042 0.353668863598863 158.665744812745 0.866079827640049 -166.904561808604 0.000400849104222424 93.3286593268613 
                               0.597085098890744 142.495347671436 0.596706574847119 -37.4422734590944 0.000400849104229715 93.3286593268245 0.536126044352269 -2.78022026988381 
11.475                         0.190867304705479 -35.1355334524955 0.696310928683529 -64.707648352637 0.351204492397651 155.403425418174 0.596132949212181 139.929378833692 
                               0.696310928683533 -64.7076483526379 0.191418462355726 -35.2720066201256 0.35156525998298 155.625506858939 0.595743456375988 -40.0074451444381 
                               0.351204492397655 155.403425418173 0.351565259982981 155.625506858939 0.867792480163128 -170.490731328488 0.000417006845290077 90.0314994863942 
                               0.596132949212175 139.929378833693 0.595743456375982 -40.0074451444391 0.000417006845296074 90.0314994861338 0.538252238635153 -5.29817550670326 
11.5                           0.191173177551007 -37.4087014904993 0.698125797901226 -67.2591869687254 0.349058319034444 152.345822981937 0.595173484290649 137.363375573978 
                               0.698125797901233 -67.2591869687262 0.191739162503037 -37.5530531603144 0.349430422129784 152.576739013171 0.594772934789073 -42.5726051415203 
                               0.349058319034443 152.345822981937 0.349430422129784 152.576739013171 0.869515084442955 -174.096170588521 0.00043350802749731 86.7436710617443 
                               0.595173484290649 137.363375573979 0.594772934789072 -42.5726051415215 0.000433508027500769 86.7436710612367 0.540382727065283 -7.81557271625137 
