! Generated from PyAEDT SolutionData; AEDT ExportNetworkData workaround
# GHz S MA R 50
9 0.21909548382 136.844958104 0.482661712475 176.393495953 0.526952124474 -93.6198723845 0.664346520118 44.0753187555 0.482661712475 176.393495953 0.218752772545 136.739818794 0.52782537575 -93.5652568276 0.663765974217 -135.895944623 0.526952124474 -93.6198723845 0.52782537575 -93.5652568276 0.666123793112 -171.485761157 0.000960976993247 -55.7143613871 0.664346520118 44.0753187555 0.663765974217 -135.895944623 0.000960976993251 -55.7143613869 0.343594978429 -112.17714948
9.025 0.215938922703 133.819289564 0.482013296753 173.624988547 0.529382333619 -98.1007201529 0.663918616671 41.1659337757 0.482013296753 173.624988547 0.215610390131 133.714172319 0.530265909588 -98.0457445741 0.663320000424 -138.804876241 0.529382333619 -98.1007201529 0.530265909588 -98.0457445741 0.662250649479 -177.718429126 0.000963746805264 -60.3239964078 0.663918616671 41.1659337757 0.663320000424 -138.804876241 0.000963746805272 -60.3239964109 0.345279236542 -114.873904366
9.05 0.212783787482 130.797772898 0.481362637309 170.865923211 0.531787492443 -102.577101101 0.663487127174 38.2644204538 0.481362637309 170.86592321 0.212469230743 130.692835177 0.532681550006 -102.521772697 0.662870448383 -141.705906061 0.531787492443 -102.577101101 0.532681550006 -102.521772697 0.65837460428 176.047117799 0.000966398769427 -64.9167266919 0.663487127174 38.2644204538 0.662870448383 -141.705906061 0.000966398769432 -64.9167266961 0.346967875182 -117.566789724
9.075 0.209629802789 127.779915886 0.480709394872 168.116105347 0.53416837455 -107.049039797 0.663052039489 35.3706274811 0.480709394872 168.116105347 0.209328988444 127.675316971 0.535073069259 -106.993366324 0.662417310558 -144.599185701 0.53416837455 -107.049039797 0.535073069259 -106.993366324 0.654495984882 169.811024244 0.000968941739217 -69.4923061307 0.663052039489 35.3706274811 0.662417310558 -144.599185701 0.000968941739219 -69.4923061346 0.3486608587 -120.255862835
9.1 0.206476598242 124.765197692 0.480053114448 165.375349368 0.536525874985 -111.516573315 0.662613338619 32.484407299 0.480053114448 165.375349368 0.206189261859 124.661098365 0.537441360975 -111.460563063 0.661960576345 -147.484863036 0.536525874985 -111.516573315 0.537441360975 -111.460563063 0.650614562402 163.573397881 0.000971385086181 -74.0505038653 0.662613338619 32.484407299 0.661960576345 -147.484863036 0.000971385086179 -74.0505038683 0.350358156516 -122.941180167
9.125 0.203323701427 121.75306816 0.479393225411 162.643480159 0.538861004648 -115.979752215 0.662171007238 29.6056159457 0.479393225411 162.643480159 0.203049547134 121.649630344 0.539787434553 -115.923413988 0.661500232535 -150.363082347 0.538861004648 -115.979752215 0.539787434553 -115.923413988 0.646729614634 157.334306536 0.000973738736101 -78.5911067849 0.662171007238 29.6056159457 0.661500232535 -150.363082347 0.000973738736099 -78.5911067865 0.352059742831 -125.622797394
9.15 0.200170531918 118.742947247 0.478729043205 159.920334582 0.541174883491 -120.438641477 0.661725026125 26.7341129108 0.478729043205 159.920334582 0.199909231929 118.640333629 0.542112408369 -120.381984572 0.661036263685 -153.233984463 0.541174883491 -120.438641477 0.542112408369 -120.381984572 0.642839982608 151.093774937 0.000976013197094 -83.1139223139 0.661725026125 26.7341129108 0.661036263685 -153.233984463 0.000976013197093 -83.1139223143 0.353765596332 -128.300769429
9.175 0.197016396329 115.734224572 0.478059772553 157.20576297 0.543468732586 -124.893321395 0.66127537451 23.8697609978 0.478059772553 157.20576297 0.196767590438 115.632598182 0.544417501826 -124.83635558 0.660568652423 -156.097706895 0.543468732586 -124.893321395 0.544417501826 -124.83635558 0.638944121113 144.851781149 0.000978219579648 -87.6187814235 0.66127537451 23.8697609978 0.660568652423 -156.097706895 0.00097821957965 -87.6187814229 0.355475699914 -130.975150444
9.2 0.193860484391 112.726259017 0.477384512018 154.499630632 0.545743865111 -129.343888414 0.660822030343 21.0124261944 0.477384512018 154.499630632 0.193623779427 112.625782794 0.546704026333 -129.286623905 0.660097379679 -158.954383961 0.545743865111 -129.343888414 0.546704026333 -129.286623905 0.635040143689 138.608252787 0.000980369608853 -92.1055418031 0.660822030343 21.0124261944 0.660097379679 -158.954383961 0.000980369608857 -92.1055418018 0.357190040401 -133.645993902
9.225 0.190701865997 109.718378367 0.476702259825 151.801819324 0.548001676328 -133.7904559 0.660364970505 18.1619775505 0.476702259825 151.801819324 0.190476835253 109.619214676 0.548973375278 -133.732903341 0.659622424882 -161.804146906 0.548001676328 -133.7904559 0.548973375278 -133.732903341 0.631125862643 132.363063046 0.000982475629161 -96.5740911411 0.660364970505 18.1619775505 0.659622424882 -161.804146906 0.000982475629167 -96.5740911396 0.358908608272 -136.313352573
9.25 0.187539489207 106.709878917 0.476011920822 149.112228711 0.550243632632 -138.233154858 0.659904170971 15.3182870623 0.476011920822 149.112228711 0.187325671818 106.612189047 0.551227013056 -138.175325302 0.6591437661 -164.647124013 0.550243632632 -138.233154858 0.551227013056 -138.175325302 0.627198824749 126.116026603 0.000984550602176 -101.024350467 0.659904170971 15.3182870623 0.6591437661 -164.647124013 0.000984550602184 -101.024350465 0.360631397394 -138.977278567
9.275 0.184372179124 103.70002502 0.475312314515 146.430777787 0.552471259715 -142.672134577 0.659439606936 12.4812295633 0.475312314515 146.430777787 0.184169079434 103.603968636 0.553466463223 -142.614039457 0.658661380162 -167.483440708 0.552471259715 -142.672134577 0.553466463223 -142.614039457 0.623256343328 119.866895439 0.000986608098009 -105.456277513 0.659439606936 12.4812295633 0.658661380162 -167.483440708 0.000986608098015 -105.456277512 0.362358404765 -141.637823351
9.3 0.181198637629 100.688048517 0.474602184085 143.75740628 0.554686129931 -147.107563201 0.658971252899 9.65068262102 0.474602184085 143.75740628 0.181005724514 100.593783075 0.555693295842 -147.049214313 0.658175242747 -170.313219665 0.554686129931 -147.107563201 0.555693295842 -147.049214313 0.61929552741 113.615354606 0.000988662280774 -109.869870069 0.658971252899 9.65068262102 0.658175242747 -170.313219665 0.000988662280778 -109.869870069 0.364089630259 -144.295037773
9.325 0.178017443883 97.673148013 0.473880206341 141.092076015 0.5568898489 -151.539628241 0.65849908274 6.82652643976 0.473880206341 141.092076015 0.177834150069 97.5808281289 0.557909114068 -151.481037716 0.657685328453 -173.136580894 0.5568898489 -151.539628241 0.557909114068 -151.481037716 0.615313308708 107.361017967 0.00099072788883 -114.2651693 0.65849908274 6.82652643976 0.657685328453 -173.136580894 0.00099072788883 -114.2651693 0.365825076375 -146.948972087
9.35 0.174827055569 94.6544879251 0.473145002574 138.434772252 0.559084041413 -155.968536998 0.658023069768 4.00864376781 0.473145002574 138.434772252 0.174652776933 94.5642646936 0.56011554003 -155.909717276 0.657191610864 -175.953641833 0.559084041413 -155.968536998 0.56011554003 -155.909717276 0.611306467118 101.10342393 0.000992820210297 -118.642262998 0.658023069768 4.00864376782 0.657191610864 -175.953641833 0.000992820210292 -118.642262999 0.367564748001 -149.599675967
9.375 0.171625810812 91.6311972607 0.472395150276 135.785504998 0.561270336677 -160.394516924 0.657543186761 1.19691980975 0.472395150276 135.785504998 0.171459905686 91.5432175147 0.562314200061 -160.335480732 0.656694062588 -178.764517436 0.561270336677 -160.394516924 0.562314200061 -160.335480732 0.607271655444 94.842031178 0.000994955054367 -123.001288771 0.657543186761 1.19691980975 0.656694062588 -178.764517436 0.000994955054357 -123.001288772 0.369308652172 -152.247198536
9.4 0.16841193073 88.6023680532 0.471629195742 133.144310289 0.563450352949 -164.817815904 0.657059405999 -1.60875785723 0.471629195742 133.144310289 0.168253719217 88.5167735551 0.564506709296 -164.758576224 0.656192655308 178.430679748 0.563450352949 -164.817815904 0.564506709296 -164.758576224 0.603205424008 88.5762144123 0.000997148718816 -127.342437133 0.657059405999 -1.60875785723 0.656192655308 178.430679748 0.000997148718801 -127.342437134 0.371056797848 -154.891588378
9.425 0.165183522579 85.5670533808 0.47084566755 130.51125145 0.565625681574 -169.238702462 0.656571699292 -4.4084993631 0.47084566755 130.51125145 0.165032285894 85.4839799343 0.566694655688 -169.179272505 0.655687359814 175.6318395 0.565625681574 -169.238702462 0.566694655688 -169.179272505 0.599104245795 82.305260094 0.000999417954049 -131.665954493 0.656571699292 -4.40849936309 0.655687359814 175.6318395 0.000999417954029 -131.665954495 0.372809195687 -157.532893559
9.45 0.16193858346 82.5242648853 0.470043090952 127.886420334 0.567797870456 -173.657465893 0.656080038005 -7.20241262137 0.470043090952 127.886420334 0.161793563312 82.4438413535 0.568879583454 -173.597859067 0.655178146044 172.838853853 0.567797870456 -173.657465893 0.568879583454 -173.597859067 0.594964542747 76.0283621851 0.0010017799239 -135.972146034 0.656080038005 -7.20241262137 0.655178146044 172.838853853 0.00100177992387 -135.972146035 0.374565857829 -160.171161646
9.475 0.158675004559 79.4729696906 0.469220003228 125.269938541 0.569968406985 -178.074416318 0.655584393089 -9.99060340251 0.469220003228 125.269938541 0.158535402596 79.3953169013 0.571062975959 -178.014646199 0.654664983119 170.051617024 0.569968406984 -178.074416318 0.571062975959 -178.014646199 0.59078271377 69.7446178779 0.00100425216327 -140.261378456 0.655584393089 -9.99060340251 0.654664983119 170.051617024 0.00100425216325 -140.261378458 0.376326797689 -162.806439722
9.5 0.155390575918 76.4120866025 0.468374970054 122.661958609 0.572138700407 177.510115336 0.655084735105 -12.7731754045 0.468374970054 122.661958609 0.15525555324 76.3373161209 0.573246238063 177.570035038 0.654147839379 167.270025343 0.572138700407 177.510115336 0.573246238063 177.570035038 0.586555165018 63.453023297 0.0010068525327 -144.534082582 0.655084735105 -12.7731754045 0.654147839379 167.270025343 0.00100685253268 -144.534082583 0.378092029752 -165.438774404
9.525 0.152082991721 73.34048145 0.467506602973 120.062665195 0.57431006366 173.095777433 0.654581034258 -15.5502303213 0.467506602973 120.062665195 0.151951668494 73.2686941892 0.575430677911 173.155832907 0.653626682424 164.493977193 0.57431006366 173.095777433 0.575430677911 173.155832907 0.582278342987 57.1524691626 0.00100959916959 -148.790755787 0.654581034258 -15.5502303213 0.653626682424 164.493977193 0.00100959916957 -148.790755789 0.379861569379 -168.068211854
9.55 0.148749856121 70.2569613948 0.466613578039 117.472276219 0.576483694647 168.682197808 0.654073260431 -18.3218679086 0.466613578039 117.472276219 0.148621311308 70.1882460331 0.577617488173 168.742375176 0.653101479155 161.723372942 0.576483694647 168.682197808 0.577617488173 168.742375176 0.577948770918 50.8417363995 0.00101251043602 -153.031964255 0.654073260431 -18.3218679086 0.653101479155 161.723372942 0.001012510436 -153.031964256 0.381635432611 -170.694797799
9.575 0.145388689614 67.1602679992 0.465694655756 114.891043986 0.578660656945 164.268984019 0.653561383219 -21.0881860489 0.465694655756 114.891043986 0.14526196085 67.0946991605 0.579807726706 164.329269375 0.652572195816 158.958114883 0.578660656945 164.268984019 0.579807726706 164.329269375 0.573563089027 44.519491678 0.00101560486287 -157.258344996 0.653561383219 -21.0881860489 0.652572195816 158.958114883 0.00101560486285 -157.258344996 0.383413635991 -173.318577542
9.6 0.141996936021 64.0490687916 0.46474870242 112.319256257 0.580841859938 159.855723689 0.653045371975 -23.8492808135 0.46474870242 112.319256257 0.141871019659 63.9867049378 0.582002296644 159.916103133 0.652038798041 156.198107178 0.580841859938 159.855723689 0.582002296644 159.916103133 0.569118099068 38.1842828795 0.0010189010897 -161.470607627 0.653045371975 -23.8492808135 0.652038798041 156.198107178 0.0010189010897 -161.470607627 0.385196196382 -175.939595974
9.625 0.138571970124 60.9219470016 0.463774712977 109.757237281 0.583028038338 155.44198493 0.652525195844 -26.6052465243 0.463774712977 109.757237281 0.138445821477 60.8628279716 0.584201925871 155.502444609 0.651501250903 153.443255798 0.583028038338 155.44198493 0.584201925871 155.502444609 0.564610813732 31.8345344819 0.00102241780029 -165.669535852 0.652525195844 -26.6052465243 0.651501250903 153.443255798 0.00102241780029 -165.669535851 0.386983130798 -178.557897589
9.65 0.135111106031 57.7773890547 0.462771835556 107.205348748 0.585219731087 151.027316856 0.65200082381 -29.3561758141 0.462771835556 107.205348748 0.134983639853 57.7215331675 0.586407145872 151.087843005 0.650959518962 150.693468471 0.585219731087 151.027316856 0.586407145872 151.087843005 0.560038511416 25.4685428691 0.00102617365304 -169.855988596 0.65200082381 -29.3561758141 0.650959518962 150.693468471 0.00102617365305 -169.855988596 0.388774456238 178.826473506
9.675 0.131611606387 54.613769302 0.461739397791 104.663990651 0.587417259616 146.611250194 0.651472224734 -32.1021596853 0.461739397791 104.663990651 0.13148169762 54.5611699191 0.588618269937 146.671829174 0.650413566322 147.948654625 0.587417259616 146.611250194 0.588618269937 146.671829174 0.555398796923 19.084471582 0.00103018720611 -174.030900766 0.651472224734 -32.1021596853 0.650413566323 147.948654625 0.00103018720613 -174.030900765 0.390570189527 176.213473581
9.7 0.128070692541 51.4293313136 0.460676935088 102.133602043 0.589620705441 142.193297983 0.650939367399 -34.8432875685 0.460676935088 102.133602043 0.127937177385 51.3799527273 0.5908353707 142.253916328 0.649863356686 145.208725338 0.589620705441 142.193297983 0.5908353707 142.253916328 0.550689668649 12.680346539 0.00103447683668 -178.195283552 0.650939367399 -34.8432875685 0.649863356686 145.208725338 0.00103447683671 -178.195283551 0.392370347162 173.603059271
9.725 0.124485555847 48.2221648692 0.45958422098 99.6146616219 0.591829887084 137.772956397 0.650402220545 -37.5796473792 0.45958422098 99.6146616219 0.124347233188 48.1759373427 0.593058257005 137.833600853 0.649308853412 142.473593291 0.591829887084 137.772956397 0.593058257005 137.833600853 0.545909592906 6.25405127744 0.00103906065389 177.649775756 0.650402220545 -37.5796473792 0.649308853412 142.473593291 0.00103906065392 177.649775757 0.394174945167 170.995187565
9.75 0.120853370296 44.9901775126 0.458461299689 97.1076881418 0.594044336326 133.349705664 0.649860752903 -40.3113255754 0.458461299689 97.1076881418 0.120709003565 44.9469912497 0.595286450089 133.410363238 0.648750019577 139.743172712 0.594044336326 133.349705664 0.595286450089 133.410363238 0.541057585988 -0.196677711078 0.0010439564053 173.503114508 0.649860752903 -40.3113255754 0.648750019577 139.743172712 0.00104395640534 173.503114509 0.39598399895 168.389815802
9.775 0.117171306735 41.7310591849 0.457308521047 94.6132405647 0.596263273789 128.923011115 0.649314933226 -43.0384072122 0.457308521047 94.6132405647 0.117019626262 41.6907569323 0.597519159105 128.98366912 0.648186818041 137.017379336 0.596263273789 128.923011115 0.597519159105 128.98366912 0.536133304691 -6.67425544746 0.00104918137644 169.363496042 0.649314933226 -43.0384072122 0.648186818041 137.017379336 0.00104918137647 169.363496043 0.397797523169 165.786901656
9.8 0.113436549003 38.4422379579 0.456126577845 92.1319179155 0.598485583881 124.492324365 0.648764730309 -45.7609759981 0.456126577845 92.1319179155 0.113276254956 38.4046058521 0.599755255998 124.552970469 0.647619211516 134.296130355 0.598485583881 124.492324365 0.599755255998 124.552970469 0.531137145956 -13.1812525919 0.00105475228323 165.22961168 0.648764730309 -45.7609759981 0.647619211516 134.296130355 0.00105475228327 165.229611681 0.399615531601 163.186403134
9.825 0.109646312395 35.1208242196 0.454916545712 89.6643587579 0.600709789144 120.057084633 0.648210113006 -48.4791143484 0.454916545712 89.6643587578 0.109476078406 35.0855803547 0.601993249781 120.117706906 0.647047162639 131.579344375 0.600709789144 120.057084633 0.601993249781 120.117706906 0.526070356356 -19.7203990416 0.00106068515736 161.100083434 0.648210113006 -48.4791143484 0.647047162639 131.579344375 0.00106068515739 161.100083435 0.40143803702 160.588278562
9.85 0.10579786499 31.7635397178 0.45367992554 87.2112402107 0.60293402408 115.616720216 0.647651050236 -51.19290344 0.45367992554 87.2112402107 0.105616342615 31.7303197285 0.604231260294 115.677307182 0.646470634052 128.866941371 0.60293402408 115.616720216 0.604231260294 115.677307182 0.520935152101 -26.2945867532 0.00106699522437 156.973467437 0.647651050236 -51.19290344 0.646470634052 128.866941371 0.0010669952244 156.973467437 0.403265051079 157.992486587
9.875 0.101888552553 28.3666265366 0.452418688453 84.7732764079 0.605156008547 111.170650126 0.647087510975 -53.9024232637 0.452418688453 84.7732764079 0.101694376735 28.3349652277 0.606466991524 111.231190815 0.645889588486 126.158842649 0.605156008547 111.170650126 0.606466991524 111.231190815 0.515734850195 -32.906871473 0.00107369677485 152.848258146 0.647087510975 -53.9024232637 0.645889588486 126.158842649 0.00107369677487 152.848258146 0.405096584197 155.39898616
9.9 0.0979158279615 24.9257291647 0.451135323206 82.3512162904 0.607373020867 106.718285915 0.646519464247 -56.607752677 0.451135323206 82.3512162904 0.0977076237311 24.8950368424 0.608697704643 106.778769913 0.645303988853 123.454970799 0.607373020867 106.718285915 0.608697704643 106.778769913 0.510474011273 -39.5604729752 0.00108080302871 148.722893318 0.646519464247 -56.607752677 0.645303988853 123.454970799 0.00108080302872 148.722893318 0.406932645449 152.807736539
9.925 0.0938772864384 21.4357400301 0.449832885862 79.9458406067 0.609581870809 102.259033677 0.645946879092 -59.3089694553 0.449832885862 79.9458406067 0.0936536771743 21.4052716458 0.610920190913 102.319451185 0.64471379835 120.755249662 0.609581870809 102.259033677 0.610920190913 102.319451185 0.505158594477 -46.2587733057 0.0010883259932 144.595759772 0.645946879092 -59.3089694553 0.64471379835 120.755249662 0.0010883259932 144.595759773 0.408773242469 150.218697277
9.95 0.0897707084076 17.8905947589 0.448515051451 77.5579579813 0.611778872678 97.7922962687 0.645369724529 -62.0061503428 0.448515051451 77.5579579813 0.0895303260967 17.85940916 0.613130744709 97.8526381534 0.64411898057 118.059604287 0.611778872678 97.7922962687 0.613130744709 97.8526381534 0.499796124479 -53.0053124128 0.00109627631487 140.465199919 0.645369724529 -62.0061503428 0.64411898057 118.059604287 0.00109627631487 140.465199919 0.410618381349 147.631828221
9.975 0.0855941125413 14.2829972207 0.447186167186 75.1883998981 0.613959818768 93.3174757455 0.644787969503 -64.6993711022 0.447186167186 75.1883998981 0.0853356106618 14.2499025837 0.615325136893 93.3777336001 0.643519499625 115.367960892 0.613959818768 93.3174757455 0.615325136893 93.3777336001 0.494395870396 -59.8037804079 0.00110466312641 136.329519042 0.644787969503 -64.6993711022 0.643519499625 115.367960892 0.0011046631264 136.329519042 0.412468066552 145.047089505
10 0.0813458227565 10.6040449403 0.445851306673 72.8380144344 0.61611995352 88.8339760306 0.644201582818 -67.3887065632 0.445851306673 72.8380144344 0.0810678926968 10.5675245762 0.617498588916 88.8941422314 0.642915320278 112.680246829 0.61611995352 88.8339760306 0.617498588916 88.8941422314 0.488969035831 -66.6580055442 0.00111349388893 132.186993284 0.644201582818 -67.3887065632 0.642915320278 112.680246829 0.00111349388891 132.186993284 0.414322300819 142.464441548
10.025 0.0770245547845 6.84271062134 0.444516324347 70.5076585696 0.618253948767 84.3412058329 0.643610533055 -70.0742306703 0.444516324347 70.5076585696 0.0767259471539 6.80082039416 0.619645747991 84.4012735991 0.642306408101 109.996390548 0.618253948767 84.3412058329 0.619645747991 84.4012735991 0.483528958609 -73.5719368307 0.00112277423069 128.035878302 0.643610533055 -70.0742306703 0.642306408101 109.996390548 0.00112277423067 128.035878302 0.416181085094 139.883845046
10.05 0.0726295309375 2.98511184099 0.443187909154 68.1981888892 0.62035588054 79.8385818232 0.643014788477 -72.7560165291 0.443187909154 68.1981888892 0.0723090838461 2.93533569626 0.621760663845 79.8985452781 0.641692729629 107.316321553 0.62035588054 79.8385818232 0.621760663845 79.8985452781 0.47809131789 -80.5496200164 0.00113250778342 123.87441851 0.643014788477 -72.7560165291 0.641692729629 107.316321553 0.0011325077834 123.87441851 0.41804441844 137.305260973
10.075 0.0681606366673 -0.986537805352 0.441873636252 65.9104505063 0.622419207951 75.3255320795 0.642414316918 -75.4341364508 0.441873636252 65.9104505063 0.0678173142448 -1.04749549783 0.623836767555 75.3853863125 0.641074252547 104.639970374 0.622419207951 75.3255320795 0.623836767555 75.3853863125 0.472674345194 -87.5951654976 0.00114269601736 119.700856853 0.642414316918 -75.4341364508 0.641074252547 104.639970374 0.00114269601734 119.700856853 0.41991229797 134.728650572
10.1 0.0636186409769 -5.09546795808 0.440582015244 63.6452640317 0.624436754784 70.8014998101 0.641809085659 -78.1086619961 0.440582015244 63.6452640317 0.0632515874297 -5.17198771907 0.625866853097 70.861240941 0.640450945886 101.967268521 0.624436754784 70.8014998101 0.625866853097 70.861240941 0.467299034511 -94.7127065334 0.00115333807658 115.513445017 0.641809085659 -78.1086619961 0.640450945885 101.967268521 0.00115333807655 115.513445018 0.421784718778 132.153975358
10.125 0.0590055176115 -9.37266556818 0.439322533142 61.4034104447 0.626400694472 66.2659473586 0.641199061288 -80.7796640169 0.439322533142 61.4034104447 0.0586141356965 -9.47067315371 0.627843062301 66.3255726023 0.639822780227 99.2981484509 0.626400694472 66.2659473586 0.627843062301 66.3255726023 0.461989344886 -101.906346029 0.00116443061615 111.310454 0.641199061288 -80.7796640169 0.639822780227 99.2981484509 0.00116443061613 111.310454 0.423661673872 129.581197112
10.15 0.0543249310134 -13.860448849 0.438105689962 59.1856137539 0.628302539228 61.7183604922 0.640584209548 -83.4472126957 0.438105689962 59.1856137539 0.0539090003404 -13.988129056 0.629756873963 61.7778682251 0.639189727938 96.6325435235 0.628302539228 61.7183604922 0.629756873963 61.7778682251 0.456772386909 -109.180090092 0.00117596764308 107.09018493 0.640584209548 -83.4472126957 0.639189727938 96.6325435235 0.00117596764306 107.09018493 0.425543154117 127.010277877
10.175 0.0495830022019 -18.6181556993 0.436943024529 56.9925213882 0.63013313418 57.1582529685 0.639964495167 -86.1113775836 0.436943024529 56.9925213882 0.049142865198 -18.7870940495 0.631599097994 57.2176427965 0.638551763412 93.9703879631 0.63013313418 57.1582529685 0.631599097994 57.2176427965 0.451678582165 -116.537766636 0.00118794036313 102.850980056 0.639964495167 -86.1113775836 0.638551763412 93.9703879631 0.00118794036311 102.850980056 0.427429148173 124.44117996
10.2 0.044789570808 -23.7315053363 0.435847127756 54.8246823325 0.631882657418 52.5851713726 0.639339881685 -88.7722276359 0.435847127756 54.8246823325 0.0443264388595 -23.9585771203 0.633359875484 52.6444442004 0.637908863322 91.311616813 0.631882657418 52.5851713726 0.633359875484 52.6444442004 0.446741782164 -123.982927561 0.00120033703588 98.5912337922 0.639339881685 -88.7722276359 0.637908863322 91.311616813 0.00120033703587 98.5912337924 0.429319642442 121.873865927
10.225 0.0399603787791 -29.3285780491 0.43483164041 52.6825231201 0.633540626915 47.9987002064 0.638710331265 -91.4298312448 0.43483164041 52.6825231201 0.0394768625093 -29.6391882856 0.635028685677 48.0578583079 0.63726100689 88.6561658901 0.633540626915 47.9987002064 0.635028685677 48.0578583079 0.441999330613 -131.518733528 0.00121314284078 94.3094037263 0.638710331265 -91.4298312448 0.63726100689 88.6561658901 0.00121314284077 94.3094037264 0.431214621019 119.308298599
10.25 0.0351210570866 -35.6081548555 0.433911232141 50.566321913 0.635095915344 43.398467207 0.638075804497 -94.0842562698 0.433911232141 50.566321913 0.0346221372901 -36.0419928035 0.636594360862 43.4575142975 0.636608176157 86.0039717356 0.635095915344 43.398467207 0.636594360862 43.4575142975 0.437492050354 -139.14782119 0.00122633975713 90.0040214879 0.638075804497 -94.0842562698 0.636608176157 86.0039717356 0.00122633975713 90.0040214879 0.433114065641 116.744441058
10.275 0.0303148402041 -42.8917919889 0.433101558436 48.4761810507 0.636536773814 38.7841488596 0.6374362602 -96.7355700643 0.433101558436 48.4761810507 0.0298097529532 -43.5133112463 0.638045110214 38.8430901689 0.63595035627 83.3549715629 0.636536773814 38.7841488596 0.638045110214 38.8430901689 0.4332641342 -146.872153963 0.00123990646133 85.6737033818 0.6374362602 -96.7355700643 0.63595035627 83.3549715629 0.00123990646134 85.6737033817 0.43501795564 114.182256636
10.3 0.0256184113042 -51.7213452162 0.43241919217 46.4119986154 0.637850865558 34.1554760629 0.636791655224 -99.3838395002 0.43241919217 46.4119986154 0.025124515303 -52.638611589 0.639368553616 34.2143184107 0.635287535749 80.7091032018 0.637850865558 34.1554760629 0.639368553616 34.2143184107 0.429362917678 -154.692859085 0.0012538182449 81.3171606854 0.636791655224 -99.3838395002 0.635287535749 80.7091032018 0.0012538182449 81.3171606852 0.436926267899 111.621708922
10.325 0.0211760692212 -63.0338449311 0.431881526593 44.3734397531 0.639025310545 29.5122398927 0.636141944252 -102.029130987 0.431881526593 44.3734397531 0.0207270058079 -64.4274013702 0.640551766451 29.5709917644 0.634619706769 78.0663050382 0.639025310545 29.5122398927 0.640551766451 29.5709917644 0.425838511922 -162.610055854 0.00126804695718 76.9332095153 0.636141944252 -102.029130987 0.634619706769 78.0663050382 0.00126804695719 76.9332095149 0.438838976808 109.062761755
10.35 0.017272902657 -78.3876895995 0.431506646987 42.359908684 0.640046741949 24.8542973983 0.63548707962 -104.671510491 0.431506646987 42.359908684 0.0169344042609 -80.5181091338 0.641581336268 24.9129690229 0.633946865413 75.4265159497 0.640046741949 24.8542973983 0.641581336268 24.9129690229 0.422743277252 -170.622682413 0.00128256097681 72.5207801663 0.63548707962 -104.671510491 0.633946865413 75.4265159497 0.00128256097681 72.5207801659 0.440756054221 106.505379227
10.375 0.014458335457 -99.6954932715 0.431313168851 40.3705225352 0.640901375219 20.1815773548 0.634827011146 -107.311043544 0.431313168851 40.3705225352 0.0143438239345 -102.697040058 0.642443432116 20.2401807841 0.633269011917 72.7896752375 0.640901375219 20.1815773548 0.642443432116 20.2401807841 0.420131122893 -178.728331113 0.00129732521594 68.0789258273 0.634827011146 -107.311043544 0.633269011917 72.7896752375 0.00129732521595 68.0789258269 0.442677469416 103.94952568
10.4 0.0135418353895 -126.522872087 0.431320041385 38.4040883021 0.641575090392 15.4940858836 0.634161685989 -109.947795254 0.431320041385 38.4040883021 0.013764061056 -129.778832431 0.643123887141 15.552635073 0.632586150881 70.1557225522 0.641575090392 15.4940858835 0.643123887141 15.552635073 0.418056626484 173.076894999 0.00131230116171 63.6068305755 0.634161685989 -109.947795254 0.632586150881 70.1557225522 0.00131230116172 63.6068305751 0.444603189046 101.395165706
10.425 0.0149711566895 -152.855424373 0.431546316234 36.4590843789 0.642053528 10.791911839 0.633491048543 -112.581830312 0.431546316234 36.4590843789 0.0155141576476 -155.324771411 0.643608294825 10.8504227299 0.631898291449 67.5245978162 0.642053528 10.791911839 0.643608294825 10.8504227299 0.416573978408 164.798490128 0.00132744695869 59.1038165517 0.633491048543 -112.581830312 0.631898291449 67.5245978162 0.0013274469587 59.1038165514 0.446533177102 98.8422641462
10.45 0.0182733341717 -173.329347405 0.432010882939 34.5336481735 0.642322198656 6.07523185333 0.632815040371 -115.213212991 0.432010882939 34.5336481735 0.0190288485156 -174.82441405 0.643882118957 6.13372245657 0.631205447441 64.8962411412 0.642322198656 6.07523185333 0.643882118957 6.13372245657 0.415735770498 156.443602987 0.00134271753644 54.5693502174 0.632815040371 -115.213212991 0.631205447441 64.8962411412 0.00134271753644 54.5693502172 0.448467394864 96.2907860913
10.475 0.0226962584092 171.881075196 0.432732174221 32.6255713008 0.642366606066 1.34431491748 0.632133600196 -117.842007143 0.432732174221 32.6255713008 0.0235815047014 171.05340546 0.64393081705 1.40280539929 0.630507637445 62.2705927415 0.642366606066 1.34431491748 0.64393081705 1.40280539929 0.41559166508 148.0210292 0.00135806478522 50.0030475921 0.632133600196 -117.842007143 0.630507637445 62.2705927415 0.00135806478522 50.003047592 0.450405800853 93.7406968805
10.5 0.0277470106054 160.833254944 0.43372784616 30.7323037267 0.642172382795 -3.40047362584 0.631446663954 -120.468276197 0.43372784616 30.7323037267 0.0287194186598 160.406761193 0.643739976567 -3.3419608569 0.629804884829 59.6475928434 0.642172382795 -3.40047362585 0.643739976567 -3.3419608569 0.416186997091 139.541127919 0.00137343778274 45.4046783719 0.631446663954 -120.468276197 0.629804884829 59.6475928434 0.00137343778274 45.4046783719 0.452348350783 91.1919621015
10.525 0.0331674941656 152.063782321 0.435014440204 28.8509679858 0.641725437676 -8.15866880925 0.630754164926 -123.092083148 0.435014440204 28.8509679858 0.0342063575641 151.880895616 0.643295462821 -8.10010901329 0.629097217711 57.0271815918 0.641725437676 -8.15866880925 0.643295462821 -8.10010901329 0.41756137665 131.015657046 0.0013887830735 40.7741688305 0.630754164926 -123.092083148 0.629097217711 57.0271815918 0.0013887830735 40.7741688306 0.4542949975 88.6445475904
10.55 0.0388221694826 144.704949287 0.436607035877 26.9783842192 0.641012113282 -12.9297036177 0.630056033944 -125.713490553 0.436607035877 26.9783842192 0.0399167982477 144.677293677 0.642583576951 -12.8710696328 0.628384668829 54.4092989541 0.641012113282 -12.9297036177 0.642583576951 -12.8710696328 0.419747369486 122.457528767 0.00140404500147 36.1116034092 0.630056033944 -125.713490553 0.628384668829 54.4092989541 0.00140404500147 36.1116034093 0.45624569093 86.0984194317
10.575 0.0446341687701 138.254750728 0.438518904649 25.1111062846 0.640019351348 -17.7129075432 0.629352199697 -128.332560524 0.438518904649 25.1111062846 0.0457784422543 138.331589077 0.641591221897 -17.654169693 0.627667275354 51.7938846225 0.640019351348 -17.7129075432 0.641591221897 -17.654169693 0.422769335563 113.880495349 0.00141916609537 31.4172249095 0.629352199697 -128.332560524 0.627667275354 51.7938846225 0.00141916609537 31.4172249095 0.458200378006 83.5535439584
10.6 0.0505554614558 132.414282269 0.440761176699 23.2454686021 0.638734863588 -22.5075062371 0.628642589129 -130.949354717 0.440761176699 23.2454686021 0.0517453931189 132.565259685 0.640306073754 -22.4486322358 0.626945078608 49.1808779162 0.638734863588 -22.5075062371 0.640306073754 -22.4486322358 0.426642500718 105.298783179 0.00143408750432 26.6914332133 0.628642589129 -130.949354717 0.626945078608 49.1808779162 0.00143408750432 26.6914332132 0.460159002599 81.0098877526
10.625 0.0565529230172 126.99829466 0.443342532965 21.3776427605 0.637147304818 -27.3126223643 0.62792712793 -133.563934337 0.443342532965 21.3776427605 0.0577855241394 127.204466267 0.638716755451 -27.2535772204 0.626218123701 46.570217684 0.637147304818 -27.3126223643 0.638716755451 -27.2535772204 0.431372321871 96.7266993397 0.00144874947997 21.9347824721 0.62792712793 -133.563934337 0.626218123701 46.570217684 0.00144874947997 21.9347824717 0.462121505437 78.4674176451
10.65 0.062601526215 121.887400989 0.446268934896 19.5037022623 0.635246444915 -32.1272777494 0.627205741132 -136.176360133 0.446268934896 19.5037022623 0.0638742445328 122.136478101 0.636813009256 -32.068023667 0.625486459086 43.9618422093 0.635246444915 -32.1272777494 0.636813009256 -32.068023667 0.436954185016 88.1782384546 0.00146309189967 17.1479767245 0.627205741132 -136.176360133 0.625486459086 43.9618422093 0.00146309189967 17.1479767239 0.464087824011 75.9261007171
10.675 0.0686808390315 117.001947944 0.449543403561 17.6196932103 0.633023335808 -36.9503968775 0.626478353785 -138.786692416 0.449543403561 17.6196932103 0.0699912659047 117.285684451 0.634585864282 -36.8908931553 0.624750136035 41.355689118 0.633023335808 -36.9503968775 0.634585864282 -36.8908931553 0.443373449475 79.6667173272 0.00147705482312 12.3318639288 0.626478353785 -138.786692416 0.624750136035 41.355689118 0.00147705482312 12.331863928 0.466057892479 73.3859043002
10.7 0.0747731435957 112.287199928 0.453165858253 15.7217082715 0.630470469436 -41.7808117867 0.625744891728 -141.394991071 0.453165858253 15.7217082715 0.0761188542586 112.599896655 0.632027794938 -41.7210147141 0.624009208048 38.7516952913 0.630470469436 -41.7808117867 0.632027794938 -41.7210147141 0.450605825532 71.2044611881 0.00149057907387 7.48742842205 0.625744891727 -141.394991071 0.624009208048 38.7516952913 0.00149057907385 7.48742842101 0.468031641547 70.8467959774
10.725 0.0808623953894 107.704608941 0.457133022526 13.8059609694 0.627581922537 -46.6172683553 0.625005282418 -144.001315587 0.457133022526 13.8059609694 0.0822408591725 108.042224406 0.629132866154 -46.5571311072 0.62326373019 36.1497967845 0.627581922537 -46.6172683553 0.629132866154 -46.5571311072 0.458618049173 62.8025588047 0.00150360683496 2.61578185084 0.625005282418 -144.001315587 0.62326373019 36.1497967845 0.00150360683495 2.61578184958 0.470008998349 68.3087435849
10.75 0.0869336413131 103.226479047 0.46143840279 11.868857265 0.624353484187 -51.4584339539 0.624259455825 -146.605725101 0.46143840279 11.868857265 0.0883421708681 103.586081932 0.625896861303 -51.3979064818 0.622513758396 33.549928753 0.624353484187 -51.4584339539 0.625896861303 -51.3979064818 0.467368800087 54.4706956482 0.00151608224747 -2.28184734786 0.624259455825 -146.605725101 0.622513758396 33.549928753 0.00151608224745 -2.28184734928 0.471989886297 65.7717152133
10.775 0.0929727001662 98.8325941813 0.466072341493 9.90706152573 0.620782762216 -56.3029063924 0.623507345351 -149.208278444 0.466072341493 9.90706152572 0.0944084237493 99.2120154281 0.622317388926 -56.2419353127 0.621759348729 30.952025386 0.620782762216 -56.3029063924 0.622317388926 -56.2419353127 0.476809798841 46.217066134 0.00152795199921 -7.2041258042 0.623507345351 -149.208278444 0.621759348729 30.952025386 0.00152795199919 -7.20412580567 0.473974224932 63.2356792097
10.8 0.0989659990931 94.5080208361 0.471022143576 7.91755431446 0.616869265046 -61.1492240567 0.622748888776 -151.80903421 0.471022143576 7.91755431445 0.100425847317 94.9056262679 0.618393964793 -61.0877525366 0.621000556639 28.3560198497 0.616869265046 -61.1492240567 0.618393964793 -61.0877525366 0.486887016391 38.0483588902 0.00153916589101 -12.1496282651 0.622748888776 -151.80903421 0.621000556639 28.3560198497 0.00153916589098 -12.1496282665 0.475961929738 60.7006041798
10.825 0.10490050539 90.2416360915 0.476272271749 5.897679943 0.612614456033 -65.9958770933 0.621984029201 -154.408050837 0.476272271749 5.897679943 0.106381207604 90.6561740206 0.61412806638 -65.9338447328 0.620237436229 25.7618442391 0.612614456033 -65.9958770933 0.61412806638 -65.9338447328 0.497541932687 29.9698038874 0.00154967736775 -17.116851659 0.621984029201 -154.408050837 0.620237436229 25.7618442391 0.00154967736773 -17.1168516602 0.477952911949 58.1664589911
10.85 0.110763717424 86.0251163578 0.481804603255 3.84518236035 0.608021778117 -70.8413194658 0.621212715969 -157.005386694 0.481804603255 3.84518236035 0.112261804871 86.4556131111 0.609523157564 -70.7786621764 0.619470039549 23.1694295394 0.608021778117 -70.8413194658 0.609523157564 -70.7786621764 0.508712789282 21.9852673752 0.00155944400198 -22.104229972 0.621212715969 -157.005386694 0.619470039549 23.1694295394 0.00155944400196 -22.1042299728 0.479947078327 55.6332127761
10.875 0.1165436919 81.8522263797 0.487598738453 1.75822863152 0.603096647411 -75.6839816808 0.620434905545 -159.601100192 0.487598738453 1.75822863151 0.118055505864 82.2979132062 0.604584682144 -75.6206315607 0.61869841596 20.5787055967 0.603096647411 -75.6839816808 0.604584682144 -75.6206315607 0.520335791612 14.0973797862 0.00156842791899 -27.1101497084 0.620434905545 -159.601100192 0.61869841596 20.5787055967 0.00156842791899 -27.1101497087 0.481944330918 53.1008349368
10.9 0.122229092444 77.7183086053 0.493632349852 -0.364580057483 0.597846415271 -80.5222839569 0.619650562353 -162.195249901 0.493632349852 -0.364580057482 0.123750796221 78.1785695914 0.599320025747 -80.4581691612 0.617922611569 17.9896010961 0.597846415271 -80.5222839569 0.599320025747 -80.4581691612 0.532346228013 6.30768265042 0.00157659615379 -32.132965696 0.619650562353 -162.195249901 0.617922611569 17.9896010961 0.0015765961538 -32.1329656956 0.483944566778 50.5692951489
10.925 0.127809249179 73.6199091961 0.499881559208 -2.52420931287 0.592280299336 -85.3546495953 0.61885965954 -164.787894677 0.499881559208 -2.52420931286 0.129336843016 74.0942435272 0.593738446613 -85.2896942028 0.61714266878 15.402043547 0.592280299336 -85.3546495953 0.593738446613 -85.2896942028 0.544679483363 -1.38321744804 0.00158392093221 -37.1710169864 0.61885965954 -164.787894677 0.61714266878 15.402043547 0.00158392093225 -37.1710169853 0.485947677672 48.0385633682
10.95 0.133274221883 69.5544991325 0.506321330045 -4.72120329164 0.586409284999 -90.179518306 0.618062179676 -167.379093807 0.506321330045 -4.72120329164 0.134803560254 70.0424933301 0.587850976704 -90.1136421801 0.61635862597 12.8159592733 0.586409284999 -90.179518306 0.587850976704 -90.1136421801 0.557271934508 -8.97549729854 0.00159037987067 -42.2226426031 0.618062179676 -167.379093807 0.616358625971 12.8159592733 0.00159037987074 -42.2226426013 0.487953549738 45.5086098369
10.975 0.138614861334 65.5202627896 0.51292586326 -6.95570584422 0.580245999626 -94.995359242 0.617258115374 -169.968907157 0.512925863261 -6.95570584421 0.140141672024 66.0215700016 0.581670295488 -94.9284778872 0.615570517312 10.2312734058 0.580245999626 -94.9953592419 0.581670295488 -94.9284778872 0.570061722077 -16.4699746559 0.00159595609148 -47.2861968972 0.617258115374 -169.968907157 0.615570517312 10.2312734058 0.00159595609158 -47.2861968947 0.489962063114 42.9794050918
11 0.143822864877 61.5159352798 0.51966898444 -9.22748933079 0.573804562691 -99.8006835068 0.616447469828 -172.557395336 0.519668984441 -9.22748933078 0.145342769406 62.0302596322 0.575210579558 -99.7327079191 0.614778372759 7.6479098756 0.573804562691 -99.8006835068 0.575210579558 -99.7327079191 0.582989398816 -23.8679793388 0.00160063825288 -52.3600642873 0.616447469828 -172.557395336 0.614778372759 7.64790987562 0.00160063825302 -52.3600642841 0.491973091534 40.4509199736
11.025 0.148890823343 57.5406756845 0.526524512817 -11.5359892873 0.567100415592 -104.594055918 0.615630257276 -175.144619861 0.526524512817 -11.5359892873 0.150399358332 58.0677603166 0.568487331875 -104.524892428 0.613982218202 5.06579140316 0.567100415592 -104.594055918 0.568487331875 -104.524892428 0.595998458463 -31.1712401274 0.00160442049563 -57.442673182 0.615630257276 -175.144619861 0.613982218202 5.06579140318 0.0016044204958 -57.4426731785 0.493986501865 37.9231256371
11.05 0.15381225734 53.5939671696 0.533466603469 -13.8803431227 0.560150135482 -109.37410583 0.614806503382 -177.730643339 0.533466603469 -13.8803431227 0.155304896453 54.1335849845 0.561517194976 -109.303655942 0.613182075805 2.48483948154 0.560150135482 -109.37410583 0.561517194976 -109.303655942 0.609035751702 -38.3817881585 0.00160730230983 -62.5325089125 0.614806503382 -177.730643339 0.613182075805 2.48483948156 0.00160730231003 -62.5325089088 0.496002153613 35.3959935639
11.075 0.158581641719 49.6755375934 0.540470056172 -16.2594311313 0.55297123769 -114.139536864 0.613976245541 179.68447035 0.540470056172 -16.2594311313 0.160053817822 50.2274840321 0.554317752742 -114.067697081 0.612377964508 -0.0950256505252 0.55297123769 -114.139536864 0.554317752742 -114.067697081 0.622051797253 -45.5018763729 0.00160928832798 -67.6281255306 0.613976245541 179.68447035 0.612377964509 -0.0950256505069 0.00160928832819 -67.6281255271 0.498019898366 32.8694955763
11.1 0.163194417623 45.7852959951 0.547510586155 -18.6719182806 0.545581971491 -118.889135396 0.613139533107 177.100655858 0.547510586155 -18.6719182806 0.164641544876 46.3493833378 0.546907325497 -118.815797048 0.611569900701 -2.67388504933 0.545581971491 -118.889135396 0.546907325497 -118.815797048 0.635000996967 -52.5339138161 0.00161038805151 -72.7281563669 0.613139533107 177.100655858 0.611569900702 -2.67388504931 0.00161038805173 -72.7281563638 0.500039579181 30.3436038532
11.125 0.167646992134 41.9232815918 0.554565053848 -21.1162954531 0.538001113882 -123.621777741 0.612296427552 174.517846166 0.554565053848 -21.1162954531 0.169064487719 42.4993344204 0.539304763115 -123.546826793 0.610757899044 -5.2518211242 0.538001113882 -123.621777741 0.539304763115 -123.546826793 0.647841764082 -59.4804131665 0.0016106155195 -77.8313232712 0.612296427552 174.517846166 0.610757899044 -5.25182112419 0.00161061551969 -77.8313232687 0.502061029906 27.8182909486
11.15 0.171936725946 38.0896227701 0.561611652354 -23.5909190642 0.53024776582 -128.336435953 0.611447002542 171.935972372 0.561611652354 -23.5909190642 0.173320031206 38.6774743242 0.531529240597 -128.259752808 0.609941973413 -7.82891771632 0.53024776582 -128.336435953 0.531529240597 -128.259752808 0.660536573861 -66.3439496737 0.00160998892888 -82.9364444951 0.611447002542 171.935972372 0.609941973413 -7.82891771631 0.00160998892902 -82.9364444936 0.504084074429 25.2935298114
11.175 0.176061909922 34.2845041709 0.568630052863 -26.0940482257 0.522341154974 -133.032182235 0.610591343946 169.354963474 0.568630052863 -26.0940482257 0.177406510692 34.8839933963 0.523600060187 -132.953641527 0.609122137952 -10.4052602016 0.522341154974 -133.032182235 0.523600060186 -132.953641527 0.673051945648 -73.127129679 0.00160853021607 -88.0424412042 0.610591343945 169.354963474 0.609122137952 -10.4052602016 0.00160853021613 -88.0424412036 0.506108525846 22.7692938085
11.2 0.180021731652 30.5081403975 0.575601509486 -28.6238788582 0.514300448575 -137.708191977 0.609729549758 166.774746135 0.575601509486 -28.6238788582 0.181323177617 31.1191095357 0.515536463627 -137.627662355 0.608298408186 -12.9809356206 0.514300448575 -137.708191977 0.515536463627 -137.627662355 0.685358365104 -79.8325669807 0.00160626460959 -93.1483426341 0.609729549758 166.774746135 0.608298408186 -12.9809356206 0.00160626460953 -93.1483426345 0.508134185532 20.2455567496
11.225 0.183816233358 26.7607551929 0.582508925947 -31.1785743659 0.506144579363 -142.363745464 0.608861729941 164.195244445 0.582508925947 -31.1785743659 0.185070156294 27.3830477974 0.507357457558 -142.28108936 0.607470802159 -15.5560328377 0.506144579363 -142.363745464 0.507357457558 -142.28108936 0.697430155035 -86.4628654778 0.00160322016335 -98.2532899271 0.608861729941 164.195244445 0.607470802158 -15.5560328377 0.00160322016313 -98.2532899283 0.510160842113 17.7222929144
11.25 0.187446262626 23.042565158 0.589336887375 -33.7562926772 0.497892087015 -146.998228331 0.607988006168 161.616379671 0.589336887375 -33.7562926772 0.188648393431 23.6760244492 0.499081654443 -146.913301715 0.606639341562 -18.130642732 0.497892087015 -146.998228331 0.499081654443 -146.913301715 0.709245302825 -93.0206067135 0.00159942727939 -103.356538703 0.607988006168 161.616379671 0.606639341561 -18.130642732 0.00159942727898 -103.356538704 0.512188270308 15.1994770814
11.275 0.190913417488 19.3537672558 0.59607166091 -36.3552096021 0.489560976786 -151.611130851 0.607108511475 159.038069991 0.59607166091 -36.3552096021 0.192059601925 19.998234747 0.49072713077 -151.523782977 0.605804052802 -20.7048584205 0.489560976786 -151.611130851 0.49072713077 -151.523782977 0.720785252025 -99.5083411494 0.0015949182281 -108.457460426 0.607108511476 159.038069991 0.605804052801 -20.7048584205 0.00159491822747 -108.457460428 0.514216229634 12.6770845586
11.3 0.194219987393 15.6945294697 0.602701169152 -38.9735385827 0.481168596494 -156.202046186 0.606223389791 156.460230219 0.602701169151 -38.9735385827 0.195306200512 16.3498438118 0.482311303663 -156.11211932 0.604964967964 -23.2787755156 0.481168596494 -156.202046186 0.482311303663 -156.11211932 0.732034665161 -105.928582195 0.00158972667309 -113.555542649 0.606223389792 156.460230219 0.604964967962 -23.2787755156 0.00158972667223 -113.55554265 0.51624446295 10.155091214
11.325 0.197368891539 12.0649840895 0.609214940594 -41.609547007 0.472731532377 -160.770667692 0.605332795349 153.88277152 0.609214940593 -41.609547007 0.198391250753 12.7309800934 0.473850826414 -160.677996827 0.604122125614 -25.8524924162 0.472731532377 -160.770667692 0.473850826415 -160.677996827 0.7429811643 -112.283802197 0.00158388720686 -118.650388188 0.60533279535 153.88277152 0.604122125611 -25.8524924162 0.00158388720576 -118.650388187 0.518272694812 7.63347350485
11.35 0.20036361592 8.46522317017 0.615604041143 -44.2615693182 0.46426552382 -165.316785439 0.604436891957 151.305601109 0.615604041142 -44.2615693182 0.201318392765 9.14173097599 0.465361502969 -165.221197988 0.603275571413 -28.4261106321 0.464265523819 -165.316785439 0.465361502969 -165.221197988 0.753615055353 -118.576429752 0.00157743490218 -123.741713324 0.604436891958 151.305601109 0.60327557141 -28.4261106321 0.00157743490087 -123.741713321 0.520300629601 5.11220850388
11.375 0.203208150352 4.8952957785 0.621860990632 -46.9280171991 0.455785396516 -169.840282047 0.603535852121 148.728621937 0.621860990632 -46.9280171991 0.204091780943 5.58214014621 0.456858220881 -169.741597529 0.602425358478 -30.9997351419 0.455785396516 -169.840282047 0.456858220882 -169.741597529 0.763929041534 -124.808847846 0.00157040488341 -128.829345077 0.603535852122 148.728621937 0.602425358475 -30.9997351419 0.00157040488193 -128.829345071 0.522327949396 2.59127391757
11.4 0.205906926533 1.35520669193 0.627979668002 -49.6073871329 0.447305013218 -174.341127983 0.602629855997 146.151732367 0.627979668001 -49.6073871329 0.206716020781 2.05220639425 0.448354901932 -174.23915768 0.601571547454 -33.5734747817 0.447305013218 -174.341127983 0.448354901933 -174.23915768 0.773917930806 -130.983392426 0.00156283192083 -133.913217609 0.602629855998 146.151732367 0.601571547451 -33.5734747817 0.00156283191928 -133.9132176 0.524354311556 0.0706480926538
11.425 0.20846475808 -2.15508373883 0.633955208456 -52.2982656495 0.438837240946 -178.819376434 0.60171909016 143.574825835 0.633955208455 -52.2982656495 0.209196107714 -1.44811643575 0.439864469252 -178.713923038 0.600714206261 -36.1474426633 0.438837240946 -178.819376434 0.439864469252 -178.713923038 0.783578341602 -137.102351119 0.00155475005031 -138.993367816 0.601719090161 143.574825835 0.600714206257 -36.1474426633 0.00155475004882 -138.993367805 0.526379345942 -2.44968999751
11.45 0.210886783276 -5.63565881264 0.639783895565 -54.9993325649 0.430393933308 176.724842136 0.600803746177 140.997790499 0.639783895565 -54.9993325649 0.211537368756 -4.91891859233 0.4313988296 176.833984898 0.599853409465 -38.7217566199 0.430393933308 176.724842136 0.4313988296 176.833984898 0.792908410552 -143.167961877 0.00154619221999 -144.069930118 0.600803746179 140.997790499 0.599853409462 -38.7217566199 0.00154619221874 -144.069930107 0.528402651765 -4.9697607971
11.475 0.213178411115 -9.08664400028 0.645463050866 -57.7093625061 0.421985926434 172.291325623 0.599884018964 138.420508877 0.645463050866 -57.7093625061 0.213745407511 -8.36033287135 0.422968869301 172.404373388 0.598989237255 -41.2965396766 0.421985926434 172.291325623 0.422968869301 172.404373388 0.801907505449 -149.182411383 0.00153718996508 -149.143130489 0.599884018965 138.420508877 0.598989237254 -41.2965396766 0.00153718996431 -149.143130481 0.530423793999 -7.48958425747
11.5 0.215345271083 -12.5082049495 0.650990923132 -60.4272249972 0.413623046934 167.879806043 0.598960104904 135.842857473 0.650990923132 -60.4272249972 0.215826053005 -11.7725325597 0.414584462246 167.996984227 0.598121773979 -43.8719205422 0.413623046934 167.879806043 0.414584462246 167.996984227 0.810575946238 -155.147833115 0.00152777311142 -154.213279706 0.598960104904 135.842857473 0.598121773979 -43.8719205422 0.00152777311143 -154.213279706 0.532442299348 -10.009179993
