! Touchstone file exported from HFSS 2025.2.4
!        File:           //wsl.localhost/Ubuntu/tmp/hfss-r11/hfss/output_v3_4_jacobian/h_throat_len_minus/single_magictee_v3_4_hreactive.aedt
!        Generated:      03:01:38 PM Sep 22, 2026
!        Design:         SingleMagicT_v3_4_HReactiveCell
!        Project:        single_magictee_v3_4_hreactive
!
! Variables:
!        f_adapt = 10.2GHz
!        h_cap_height = 9mm
!        h_cap_len = 2.5mm
!        h_terminal_ridge_w = 4.572mm
!        h_throat_a = 20.4mm
!        h_throat_len = 4.5mm
!        ridge_g1 = 7.672mm
!        ridge_g2 = 5.8mm
!        ridge_l1 = 9.872mm
!        ridge_l2 = 8.857mm
!        ridge_w = 4.572mm
!        terminal_ridge_len = 7.5mm
!        wg_a = 22.86mm
!        wg_b = 10.16mm
!
!Data is not renormalized
# GHz S MA
! Terminal data exported
! Port[1] = P1_CollinearMinusX
! Port[2] = P2_CollinearPlusX
! Port[3] = P3_HArm_Ridged
! Port[4] = P4_EArm
9                              0.224248219671972 153.64747722221  0.532729802939271 -173.335808072676 0.482260360756819 67.9392873799552 0.658283098276826 46.0110525808199 
                               0.532729802939273 -173.335808072676 0.224473112472885 153.722147953005 0.482449428264293 67.972894315943  0.658067874922093 -133.96224017843 
                               0.482260360756821 67.9392873799552 0.482449428264292 67.9728943159431 0.731209604851049 138.862688685353 8.59286524345953E-05 82.6343522265179 
                               0.658283098276826 46.0110525808199 0.65806787492209 -133.96224017843 8.59286524346309E-05 82.6343522268348 0.365527053902788 -114.134067572292 
9.025                          0.222245776348335 150.893021532362 0.53313687080042 -176.140343993457 0.483290551292893 64.500216304963  0.657878731023682 43.1039538221387 
                               0.533136870800438 -176.140343993456 0.222469927576555 150.971036316651 0.48347967779798 64.5333943852792 0.657664536894509 -136.868804084574 
                               0.483290551292896 64.5002163049644 0.483479677797982 64.5333943852779 0.729847606150903 134.708139111804 8.1335836723753E-05 81.4475696626362 
                               0.657878731023687 43.1039538221354 0.657664536894506 -136.868804084571 8.13358367252447E-05 81.4475696560141 0.366976675431073 -116.853177137064 
9.05                           0.220261355762876 148.148884729082 0.53355800576405 -178.937428010251 0.484289275695958 61.0652948551597 0.657471102152856 40.2047734852444 
                               0.533558005764077 -178.93742801025 0.220483904128547 148.230212730214 0.484478298888193 61.0980228114215 0.657258114978568 -139.767441097122 
                               0.484289275695962 61.0652948551622 0.484478298888196 61.0980228114194 0.728522079895146 130.553324124191 7.69754124935509E-05 80.6833251301233 
                               0.657471102152866 40.204773485239  0.657258114978565 -139.767441097116 7.6975412494491E-05 80.6833251176945 0.368431618192006 -119.567505600733 
9.075                          0.218295948605863 145.414715546165 0.533993067343689 178.272723629497 0.485257003656589 57.634684043213  0.65706013824043 37.313375881835  
                               0.533993067343723 178.272723629499 0.218516017831582 145.499313862226 0.485445753359911 57.6669414631389 0.656848595147406 -142.658289509605 
                               0.485257003656595 57.6346840432161 0.485445753359916 57.6669414631363 0.727232886756087 126.399010045599 7.29299872067976E-05 80.3907571546883 
                               0.657060138240442 37.3133758818285 0.656848595147402 -142.658289509598 7.2929987205746E-05 80.3907571378574 0.369891806022439 -122.277138180061 
9.1                            0.216350332905566 142.690146032534 0.534441829279193 175.489895045702 0.48619432447186 54.2085307627808 0.656645776103877 34.4296261491258 
                               0.534441829279231 175.489895045703 0.216567033126507 142.77795974292  0.486382622696804 54.2402981048777 0.656435963868305 -145.541486589324 
                               0.486194324471866 54.2085307627842 0.486382622696809 54.2402981048748 0.72597970006052 122.245915966255 6.92918034093982E-05 80.6073942866928 
                               0.656645776103892 34.429626149119  0.656435963868301 -145.541486589317 6.92918034055143E-05 80.6073942671135 0.371357170589864 -124.982158912105 
9.125                          0.21442508624752 139.974794291386 0.53490398231198 172.713871842397 0.487101943986438 50.7869679589711 0.656227961427069 31.553390505137  
                               0.534903982312019 172.713871842399 0.214637515452956 140.065756501265 0.487289605005865 50.8182265693467 0.656020207804841 -148.417168344643 
                               0.487101943986443 50.7869679589745 0.487289605005869 50.8182265693438 0.724762008450237 118.094713534612 6.61602866828229E-05 81.3479687975593 
                               0.656227961427084 31.5533905051304 0.656020207804837 -148.417168344637 6.6160286675878E-05 81.3479687770568 0.372827650831322 -127.682650605503 
9.15                           0.212520597884009 137.268267036665 0.535379137135116 169.944442144971 0.487980681111937 47.3701147771274 0.655806647498512 28.684536471485  
                               0.535379137135153 169.944442144972 0.212727843393736 137.362298918744 0.488167511560582 47.4008469083454 0.655601313554235 -151.285469323394 
                               0.487980681111942 47.3701147771306 0.488167511560585 47.4008469083427 0.723579119470422 113.946026912048 6.36368122165037E-05 82.5909341126385 
                               0.655806647498528 28.684536471479  0.655601313554232 -151.285469323388 6.36368122068598E-05 82.5909340930558 0.374303192433207 -130.378694802125 
9.175                          0.210637080614974 134.570161974039 0.535866827498124 167.181397559376 0.488831463952233 43.9580766902024 0.655381794059284 25.8229330658355 
                               0.535866827498158 167.181397559377 0.210838220585716 134.667172807252 0.48901726295015 43.9882655220626 0.655179267417143 -154.146522440218 
                               0.488831463952238 43.9580766902052 0.489017262950152 43.9882655220601 0.722430164002487 109.800432868019 6.18161518963667E-05 84.2661627383378 
                               0.655381794059299 25.8229330658303 0.65517926741714 -154.146522440212 6.18161518849001E-05 84.2661627213049 0.375783747350422 -133.070371748258 
9.2                            0.208774582344304 131.880070014863 0.536366513448284 164.424534055117 0.489655325563829 40.5509456052977 0.654953366256618 22.9684509661388 
                               0.536366513448314 164.424534055118 0.208968687302643 131.979957219752 0.4898398848636  40.5805752673919 0.654754055197158 -157.000458830716 
                               0.489655325563833 40.5509456053001 0.489839884863602 40.5805752673898 0.721314101457087 105.65846099285  6.07752234886438E-05 86.2498022603637 
                               0.654953366256632 22.9684509661346 0.654754055197156 -157.000458830712 6.07752234766013E-05 86.2498022470361 0.377269273363216 -135.757760374526 
9.225                          0.206932997235969 129.197577332604 0.536877584691787 161.673652774008 0.490453399381538 37.1487999502212 0.654521333698729 20.1209626487239 
                               0.536877584691811 161.673652774009 0.207119131635606 129.300226503307 0.49063650353892 37.1778555460885 0.65432566202742 -159.847407730323 
                               0.49045339938154 37.148799950223  0.49063650353892 37.1778555460868 0.720229725643495 101.520594006064 6.05615381468903E-05 88.3723949154418 
                               0.654521333698741 20.1209626487207 0.654325662027419 -159.847407730319 6.05615381356824E-05 88.3723949063022 0.378759733669939 -138.440938283799 
9.25                           0.205112076412586 126.522267271853 0.537399364059524 158.928560766899 0.491226914340637 33.7517047411409 0.654085669606144 17.2803425022703 
                               0.537399364059543 158.9285607669   0.205289300214893 126.62755220469  0.491408340908084 33.7801723738224 0.653894072221807 -162.687496375886 
                               0.491226914340639 33.7517047411422 0.491408340908083 33.7801723738211 0.719175671233053 97.3872681391329 6.11851040878574E-05 90.4417760738384 
                               0.654085669606155 17.2803425022681 0.653894072221807 -162.687496375883 6.1185104078826E-05 90.4417760686576 0.380255096513865 -141.119981746357 
9.275                          0.203311438154959 123.853722120493 0.537931111063475 156.189071660724 0.491977189727275 30.3597116326102 0.653646350054576 14.4464669196166 
                               0.537931111063487 156.189071660724 0.203478808432754 123.961504839203 0.492156709469594 30.387578431382  0.653459269148289 -165.520849928   
                               0.491977189727276 30.359711632611  0.492156709469593 30.3875784313812 0.718150420736845 93.2588735728843 6.2617066667892E-05 92.2743299297072 
                               0.653646350054585 14.4464669196154 0.653459269148291 -165.520849927999 6.26170666621096E-05 92.2743299276951 0.381755334842164 -143.794965701628 
9.3                            0.201530577574904 121.191524755753 0.538472025530584 153.455006258351 0.492705629789226 26.9728589513866 0.653203353304173 11.619214369297  
                               0.538472025530589 153.455006258351 0.201687150140189 121.301655533469 0.492883006920421 27.0001130994382 0.653021235122179 -168.34759141222 
                               0.492705629789226 26.9728589513868 0.492883006920419 27.0001130994379 0.717152311920791 89.1357549112481 6.47957437332838E-05 93.7228691095677 
                               0.653203353304179 11.6192143692966 0.653021235122181 -168.347591412219 6.47957437314329E-05 93.7228691096476 0.383260425995064 -146.465963765831 
9.325                          0.1997688757455  118.535260174949 0.539021251301817 150.726193073827 0.493413718139161 23.591171715582  0.652756659209891 8.79846544862385 
                               0.539021251301816 150.726193073827 0.199913706802564 118.647577552994 0.493588710579336 23.6178024783921 0.652579951317118 -171.167841677342 
                               0.493413718139159 23.5911717155817 0.493588710579333 23.6178024783923 0.716179545584969 85.0182116747303 6.76376026105225E-05 94.6916151129984 
                               0.652756659209895 8.79846544862423 0.652579951317121 -171.167841677343 6.76376026128699E-05 94.6916151140838 0.384770351423223 -149.133048244917 
9.35                           0.198025608282875 115.884516921606 0.539577879984647 148.002468805717 0.494103011982325 20.214661640759  0.652306248707646 5.98410292005978 
                               0.53957787998464 148.002468805716 0.198157756108651 115.998847725173 0.494275371633359 20.2406593949161 0.652135397691803 -173.981719369049 
                               0.494103011982323 20.2146616407582 0.494275371633356 20.2406593949167 0.715230193637883 80.9064987987434 7.1049278869853E-05 95.1363887122194 
                               0.652306248707648 5.98410292006077 0.652135397691808 -173.98171936905 7.10492788762979E-05 95.1363887134079 0.386285096431294 -151.796290152206 
9.375                          0.196299953381932 113.238888417433 0.540140954747649 145.283678751309 0.494775136199978 16.8433271346322 0.651852103370883 3.1760117325405  
                               0.540140954747636 145.283678751308 0.196418480035878 113.355047768184 0.494944609238536 16.8686833968422 0.651687552930578 -176.789340917266 
                               0.494775136199975 16.8433271346311 0.494944609238533 16.8686833968432 0.714302207400571 76.800827123744  7.49375026356272E-05 95.0546974076378 
                               0.651852103370882 3.17601173254197 0.651687552930585 -176.789340917267 7.49375026457893E-05 95.0546974082951 0.3878046499457  -154.455759230168 
9.4                            0.194590999315279 110.597974210421 0.540709474146213 142.569677164546 0.495431777319101 13.4771532820467 0.651394205032219 0.374079029332923 
                               0.540709474146194 142.569677164546 0.194694972381229 110.715765535959 0.495598104505424 13.5018607380716 0.651236394396181 -179.590820535684 
                               0.495431777319097 13.4771532820453 0.495598104505422 13.5018607380729 0.713393426079747 72.7013638659584 7.92156086416981E-05 94.4722264410006 
                               0.651394205032217 0.374079029334753 0.651236394396188 -179.590820535686 7.92156086550138E-05 94.4722264407609 0.389329004304625 -157.111523975822 
9.425                          0.192897751410089 107.961381148968 0.541282395968583 139.860327560622 0.496074677397747 10.1161118218913 0.650932535464893 -2.42180585607425 
                               0.54128239596856 139.860327560622 0.192986245772641 108.080596189076 0.496237594398557 10.1401643551646 0.650781898093069 177.613729768002 
                               0.496074677397743 10.1161118218895 0.496237594398555 10.1401643551661 0.712501585353524 68.6082330592643 8.38068161449865E-05 93.430428741043  
                               0.65093253546489 -2.42180585607218 0.650781898093078 177.613729768    8.3806816160794E-05 93.4304287397637 0.390858155068261 -159.763651669257 
9.45                           0.19121913852196 105.328724491682 0.541858641091574 137.155502970227 0.496705627853998 6.76016111756621 0.650467076118808 -5.21175141463003 
                               0.541858641091548 137.155502970226 0.191291238179904 105.449143301114 0.49686486557779 6.78355383723892 0.650324038639915 174.824200172543 
                               0.496705627853994 6.76016111756425 0.496864865577788 6.78355383724067 0.711624326017707 64.5215159605279 8.86451621438876E-05 91.9772425879906 
                               0.650467076118803 -5.21175141462784 0.650324038639925 174.82420017254  8.86451621614947E-05 91.9772425856912 0.392392100847406 -162.412208404815 
9.475                          0.189554019028184 102.699628962138 0.542437097335455 134.455086146538 0.497326463264818 3.40924612256427 0.649997807906105 -7.99586398560019 
                               0.542437097335425 134.455086146537 0.189608818947317 102.821019909668 0.497481748207747 3.4319753907422  0.649862789249975 172.040483015533 
                               0.497326463264813 3.40924612256216 0.497481748207746 3.43197539074411 0.710759202644992 60.4412514123286 9.36750328474811E-05 90.1610942480802 
                               0.649997807906098 -7.99586398559798 0.649862789249985 172.04048301553  9.36750328662139E-05 90.1610942448858 0.393930843148531 -165.057259124503 
9.5                            0.187901186365258 100.073729757639 0.543016623307599 131.75896972808  0.497939055159164 0.0632983426450825 0.64952471103133 -10.7742477884166 
                               0.543016623307567 131.75896972808  0.187937794372674 100.195849520907 0.498090109759739 0.0853618005921929 0.649398121718204 169.262472758975 
                               0.497939055159159 0.0632983426428915 0.498090109759738 0.0853618005942062 0.709903692213888 56.3674361585144 9.8850015481775E-05 88.02751187821   
                               0.649524711031323 -10.7742477884145 0.649398121718214 169.262472758973 9.88500155010112E-05 88.0275118743043 0.395474386233497 -167.698867653215 
9.525                          0.186259374137205 97.4506735207185 0.543596052224689 129.067056360687 0.498545305827564 -3.2777642040073 0.649047764861439 -13.5470049613317 
                               0.543596052224654 129.067056360687 0.186276912858759 97.5732670763269 0.498691848828324 -3.25636761091317 0.64893000641412 166.490065949126 
                               0.498545305827559 -3.27776420400952 0.498691848828323 -3.25636761091116 0.709055202668542 52.3000251094155 0.000104131527224021 85.617522716034  
                               0.64904776486143 -13.5470049613297 0.648930006414131 166.490065949124 0.000104131527243211 85.6175227116251 0.397022736992196 -170.337096735418 
9.55                           0.184627260822323 94.8301192819703 0.544174195703472 126.379258781842 0.499147142167991 -6.61403702736042 0.648566947831038 -16.3142356057949 
                               0.544174195703437 126.379258781842 0.18462486966452 94.9529198901016 0.499288888982412 -6.5933070261174 0.648458412279544 163.723161171638 
                               0.499147142167987 -6.61403702736261 0.499288888982412 -6.59330702611534 0.708211081375174 48.2389315547683 0.000109487470271306 82.9671439550071 
                               0.64856694783103 -16.314235605793 0.648458412279555 163.723161171636 0.000109487470289984 82.9671439503036 0.398575904826415 -172.972008072919 
9.575                          0.183003474106589 92.2117393826348 0.54474984751046 123.695499870776 0.499746509585323 -9.94562920567072 0.648082237378506 -19.0760378355486 
                               0.544749847510424 123.695499870776 0.182980311283568 92.3344685653258 0.49988317266822 -9.92556417376966 0.647983306830482 160.961659002966 
                               0.499746509585319 -9.94562920567286 0.49988317266822 -9.9255641737676 0.707368623445321 44.1840273234817 0.000114891027713017 80.1074821020668 
                               0.648082237378497 -19.076037835547 0.647983306830493 160.961659002964 0.000114891027730805 80.1074820972623 0.40013390154334 -175.603662363421 
9.6                            0.181386594872028 89.5952203853373 0.545321787261419 121.015712667763 0.500345365958933 -13.2726634241267 0.647593609908798 -21.8325078295189 
                               0.545321787261384 121.015712667762 0.18134183947767 89.7175878973611 0.50047665517873 -13.2532603694591 0.64750465616252 158.20546195888  
                               0.500345365958929 -13.2726634241287 0.500476655178732 -13.2532603694572 0.706525079900755 40.1351428902919 0.000120319638415086 77.06513235515   
                               0.64759360990879 -21.8325078295174 0.647504656162532 158.205461958879 0.000120319638431695 77.065132350414  0.401696741257183 -178.232119339549 
9.625                          0.1797751608682  86.9802639814164 0.54588878406221 118.339840366126 0.50094567569012 -16.5952760110626 0.647101040779019 -24.5837398876551 
                               0.545888784062175 118.339840366126 0.179708014992659 87.1019677725443 0.50107129870144 -16.5765305537664 0.647022424959247 155.454474440891 
                               0.500945675690116 -16.5952760110645 0.501071298701442 -16.5765305537645 0.705677665659694 36.0920674301098 0.00012575415028421 73.8626961381327 
                               0.647101040779011 -24.5837398876539 0.647022424959258 155.45447444089  0.000125754150299433 73.8626961336058 0.403264440297503 179.142562191908 
9.65                           0.178167670094448 84.3665879034369 0.546449600083389 115.66783628057  0.501549403838087 -19.9136169709275 0.646604504303028 -27.3298264889474 
                               0.546449600083356 115.667836280569 0.178077360983593 84.4873140706606 0.501669066453232 -19.8955233272979 0.646536576503277 152.708602681276 
                               0.501549403838084 -19.9136169709292 0.501669066453235 -19.8955233272962 0.704823567328911 32.0545488214734 0.00013117813423422 70.5193168981636 
                               0.64660450430302 -27.3298264889464 0.646536576503288 152.708602681275 0.000131178134247929 70.519316893956  0.404837017122885 176.520324310786 
9.675                          0.1765625839199  81.7539268517725 0.547002994062132 112.999663795477 0.50215851035012 -23.2278500133059 0.64610397377162 -30.0708583509194 
                               0.547002994062102 112.999663795477 0.176448366175264 81.873349579853  0.502271916908161 -23.2104009818819 0.646047072689605 149.967754687349 
                               0.502158510350118 -23.2278500133075 0.502271916908164 -23.2104009818803 0.703959950791439 28.0222936009778 0.000136577335669015 67.0511839200342 
                               0.646103973771612 -30.0708583509186 0.646047072689615 149.967754687348 0.000136577335681151 67.0511839162264 0.406414492238736 173.901109944605 
9.7                            0.174958329967387 79.1420334445578 0.547547724726395 110.335296296937 0.502774944388474 -26.5381525774061 0.645599421485042 -32.8069244899727 
                               0.547547724726366 110.335296296937 0.17481948778328 79.2598149330486 0.502881798120808 -26.5213395273234 0.645553874041059 147.231840185534 
                               0.502774944388472 -26.5381525774075 0.502881798120812 -26.521339527322 0.703083968585031 23.9949668708733 0.000141939240346525 63.4719824339276 
                               0.645599421485036 -32.8069244899721 0.645553874041068 147.231840185534 0.000141939240357087 63.4719824305719 0.40799688811805 171.284862830071 
9.725                          0.173353304786557 76.5306792009055 0.54808255413792 107.674717092268 0.5034006387533  -29.844715851524 0.645090818794883 -35.5381122820154 
                               0.548082554137895 107.674717092268 0.173189154219958 76.6464695755591 0.503500642144701 -29.8285287132087 0.645056939725736 144.500770565734 
                               0.503400638753299 -29.8447158515252 0.503500642144705 -29.8285287132074 0.702192767072111 19.972192162236  0.000147252733863063 59.7932838361041 
                               0.645090818794876 -35.538112282015 0.645056939725744 144.500770565733 0.000147252733872102 59.7932838332274 0.409584229124096 168.671527475223 
9.75                           0.171745876340518 73.9196555680427 0.548606250952677 105.017919320888 0.504037504397738 -33.1477447870945 0.644578136152572 -38.2645075228824 
                               0.548606250952653 105.017919320888 0.17155576760828 74.0330927742563 0.504130359542094 -33.1321720453546 0.644556227576376 141.774458826408 
                               0.504037504397737 -33.1477447870955 0.504130359542098 -33.1321720453535 0.701283493407906 15.953551256196  0.000152507837067384 56.0248777605489 
                               0.644578136152566 -38.2645075228821 0.644556227576383 141.774458826408 0.000152507837074988 56.0248777581563 0.411176541434064 166.061049122365 
9.775                          0.170134386329415 71.3087750039958 0.549117593599596 102.364905860397 0.504687425028092 -36.4474581070191 0.644061343162041 -40.9861944881097 
                               0.549117593599576 102.364905860397 0.169917706126179 71.4194846796849 0.504772833978211 -36.4324867965745 0.644051694111673 139.052819520743 
                               0.504687425028092 -36.44745810702  0.504772833978214 -36.4324867965735 0.700353302319641 11.9385839657122 0.000157695502725983 52.1750513468833 
                               0.644061343162036 -40.9861944881095 0.64405169411168 139.052819520743 0.000157695502732274 52.1750513449613 0.412773852962825 163.453373711927 
9.8                            0.168517152373504 68.6978721286605 0.549615373381148 99.7156892317514 0.505352251778815 -39.744088308031 0.643540408634275 -43.7032559916873 
                               0.549615373381131 99.7156892317516 0.168273326202486 68.8054674536576 0.505429916889854 -39.7297040115078 0.643543294559617 136.335768704191 
                               0.505352251778816 -39.7440883080317 0.505429916889858 -39.729704011507 0.69939936271619 7.92678788030058 0.000162807461417003 48.2508223167574 
                               0.643540408634271 -43.7032559916873 0.643543294559623 136.335768704191 0.000162807461422119 48.2508223152773 0.414376193286032 160.84844784737  
9.825                          0.166892470077503 66.0868049575637 0.550098397502243 97.070291507406  0.506033797948873 -43.0378816569129 0.643015300641779 -46.4157734434701 
                               0.550098397502229 97.0702915074061 0.166620964585064 66.1908864763321 0.50610342221515 -43.0240685053136 0.643030982882968 133.623223883647 
                               0.506033797948873 -43.0378816569135 0.506103422215154 -43.0240685053129 0.698418864154373 3.9176180759819  0.000167836106852112 44.2581325341701 
                               0.643015300641776 -46.4157734434701 0.643030982882973 133.623223883647 0.000167836106856207 44.258132533092  0.415983593561896 158.246218761238 
9.85                           0.165258614997397 63.4754562344049 0.550565492037296 94.4287442262535 0.50673383378293 -46.3290981804265 0.642485986571207 -49.1238269049784 
                               0.550565492037286 94.4287442262537 0.16495894030099 63.5756116485258 0.506795121168052 -46.3158388560745 0.642514711807048 130.915103968435 
                               0.506733833782931 -46.3290981804269 0.506795121168055 -46.3158388560739 0.697409023195213 -0.0895132074738483 0.000172774412635772 40.2020082217503 
                               0.642485986571205 -49.1238269049784 0.642514711807052 130.915103968435 0.000172774412639002 40.2020082210259 0.417596086451065 155.646634282426 
9.875                          0.163613844530453 60.8637348805903 0.551015504848957 91.7910883191364 0.50745408127777 -49.618011648831 0.641952433172615 -51.8274951433723 
                               0.551015504848949 91.7910883191365 0.163285556528149 60.9595388071275 0.507506737038194 -49.6052873907771 0.641994432850035 128.211329223256 
                               0.507454081277771 -49.6180116488313 0.507506737038197 -49.6052873907766 0.696367089690865 -4.09523692014052 0.000177615873928421 36.0866922805686 
                               0.641952433172614 -51.8274951433724 0.641994432850038 128.211329223256 0.000177615873930939 36.0866922801448 0.419213706034104 153.04964280474  
9.9                            0.161956399749042 58.2515775825165 0.55144730847602 89.1573740485895 0.50819620899135 -52.9049095528771 0.641414606604076 -54.526855683425 
                               0.551447308476014 89.1573740485897 0.161599102397415 58.3425912739753 0.508239939993701 -52.8927001647437 0.64147009635599 125.511821223196 
                               0.508196208991352 -52.9049095528774 0.508239939993704 -52.8927001647433 0.695290353050664 -8.10022758472236 0.000182354468651544 31.9157533947895 
                               0.641414606604076 -54.526855683425 0.641470096355992 125.511821223196 0.000182354468653497 31.9157533946108 0.420836487726185 150.455193256795 
9.925                          0.160284507198982 55.6389505403564 0.551859803012344 86.5276609663328 0.508961826829005 -56.1900930741473 0.640872472470566 -57.2219848573697 
                               0.551859803012341 86.5276609663329 0.159897854744642 55.7247215615438 0.508996341861627 -56.1783769343781 0.640941651530852 122.816502810826 
                               0.508961826829007 -56.1900930741474 0.508996341861629 -56.1783769343778 0.694176148542745 -12.1052037071082 0.000186984633820748 27.6921758807765 
                               0.640872472470566 -57.2219848573697 0.640941651530854 122.816502810826 0.000186984633822268 27.6921758807876 0.422464468188654 147.863235073278 
9.95                           0.158596380683628 53.0258514056625 0.552251919003268 83.9020178918374 0.509752480778499 -59.4738770485774 0.640325995856286 -59.9129578525321 
                               0.552251919003267 83.9020178918375 0.158180079832149 53.1059132623049 0.509777490857898 -59.4626311230523 0.640409046481668 120.125298055431 
                               0.509752480778501 -59.4738770485775 0.5097774908579  -59.4626311230521 0.693021863696013 -16.1109282134512 0.000191501253370565 23.4184335991008 
                               0.640325995856286 -59.9129578525321 0.640409046481668 120.125298055431 0.00019150125337177 23.4184335992488 0.424097685237229 145.273718167602 
9.975                          0.156890223055853 50.4123114392926 0.552622620390876 81.280522915043  0.510569647562899 -62.7565899229415 0.639775141349768 -62.599848756696 
                               0.552622620390876 81.280522915043  0.156444035060219 50.486183152783  0.510584866235912 -62.7457897799082 0.639872228259288 117.438132214321 
                               0.5105696475629  -62.7565899229415 0.510584866235913 -62.7457897799081 0.691824944875831 -20.1182089126747 0.00019589965448428 19.0965506967784 
                               0.639775141349768 -62.5998487566959 0.639872228259288 117.438132214321 0.000195899654485269 19.0965506970148 0.425736177746662 142.686592905955 
10                             0.155164228041507 47.7983979261058 0.552970907544637 78.6632634259936 0.511414729177647 -66.0385737039979 0.639219873061325 -65.2827306011875 
                               0.552970907544639 78.6632634259936 0.154687970690534 47.8655835482263 0.511419872820307 -66.028193531269 0.639331142904809 114.75493169618  
                               0.511414729177649 -66.0385737039979 0.511419872820308 -66.0281935312689 0.6905829041157  -24.127898983387 0.000200175609996319 14.7281514825945 
                               0.639219873061325 -65.2827306011874 0.63933114290481 114.75493169618  0.00020017560999717 14.728151482876  0.427379985551742 140.10181008273  
10.025                         0.153416582119981 45.1842168887066 0.553295820419263 76.050336173788  0.512289047275718 -69.3201838998964 0.638660154632579 -67.9616754016926 
                               0.553295820419266 76.050336173788  0.152910131605383 45.244204949601  0.512283835389943 -69.3101965242529 0.63878573549999 112.075624026351 
                               0.512289047275719 -69.3201838998964 0.512283835389943 -69.3101965242529 0.689293326296374 -28.1408974841769 0.000204325344918106 10.3145013515075 
                               0.63866015463258 -67.9616754016924 0.638785735499989 112.075624026351 0.000204325344918879 10.3145013517976 0.429029149344605 137.519320897337 
10.05                          0.15164546649024 42.5699161493857 0.553596441887074 73.4418473567907 0.513193837362369 -72.6017894533125 0.638095949238012 -70.6367541968479 
                               0.553596441887078 73.4418473567906 0.151108759129156 42.6221790314377 0.513177992871742 -72.5921663620531 0.638235950221854 109.400137813953 
                               0.51319383736237 -72.6017894533125 0.513177992871742 -72.5921663620531 0.687953876773323 -32.1581498861535 0.000208345545568411 5.85654035410781 
                               0.638095949238013 -70.6367541968476 0.638235950221853 109.400137813953 0.000208345545569145 5.85654035437736 0.430683710568351 134.939076932341 
10.075                         0.149849059154247 39.9556887975139 0.553871901297757 70.8379127455163 0.514130242758796 -75.8837726656207 0.637527219578606 -73.3080370846756 
                               0.553871901297761 70.8379127455161 0.149282092942049 39.999682027116  0.514103492304825 -75.8744840301936 0.637681730401724 106.728402720683 
                               0.514130242758796 -75.8837726656207 0.514103492304825 -75.8744840301936 0.686562309563139 -36.1806486263548 0.000212233370178153 1.35491074332616 
                               0.637527219578607 -73.3080370846753 0.637681730401724 106.728402720682 0.000212233370178873 1.35491074355359 0.432343711307023 132.361030132913 
10.1                           0.148025537154247 37.3417771292328 0.554121378323877 68.2386578389817 0.515099308291933 -79.1665291112342 0.636953927867851 -75.9755932569505 
                               0.554121378323881 68.2386578389815 0.147428373120299 37.3769385777079 0.515061382532289 -79.1575438128856 0.63712301858882 104.060349431147 
                               0.515099308291933 -79.1665291112342 0.515061382532288 -79.1575438128855 0.685116476209495 -40.2094336802578 0.000215986460195318 -3.19002038641732 
                               0.636953927867852 -75.9755932569502 0.637123018588819 104.060349431147 0.00021598646019603 -3.190020386246  0.434009194172055 129.785132787528 
10.125                         0.146173079006008 34.7284771376254 0.554344107156026 65.6442180545979 0.516101973665751 -82.4504675410215 0.636376035810508 -78.639491031608 
                               0.55434410715603 65.6442180545977 0.145545842342731 34.754226121791  0.516052607576099 -82.4417531983933 0.636559756618597 101.395909624542 
                               0.516101973665752 -82.4504675410215 0.516052607576097 -82.4417531983932 0.683614335459408 -44.2455931510487 0.000219602951842588 -7.77814243077229 
                               0.63637603581051 -78.6394910316077 0.636559756618596 101.395909624542 0.000219602951843285 -7.77814243066367 0.435680202185316 127.211337509869 
10.15                          0.144289867377132 32.1161436450092 0.554539381116663 63.0547389508423 0.517139066467768 -85.7360097734631 0.635793504574677 -81.2997978833198 
                               0.554539381116667 63.0547389508421 0.143632748310153 32.1318799170485 0.517077999648879 -85.7275327720734 0.635991885685926 98.7350159474972 
                               0.517139066467768 -85.7360097734632 0.517077999648878 -85.7275327720733 0.682053963890983 -48.2902638725347 0.000223081487780876 -12.4095857872002 
                               0.635793504574678 -81.2997978833195 0.635991885685925 98.7350159474969 0.000223081487781544 -12.4095857871544 0.437356778658911 124.639597221858 
10.175                         0.14237409206806 29.5051961849849 0.554706557766743 60.4703764810081 0.518211294763012 -89.0235905719291 0.635206294757827 -83.9565804723756 
                               0.554706557766746 60.4703764810079 0.141687346432382 29.510298800431  0.518138271754945 -89.015316095467 0.635419346423176 96.0776019878679 
                               0.518211294763012 -89.0235905719291 0.518138271754943 -89.0153160954669 0.680433567644266 -52.3446320215455 0.000226421229006662 -17.0847088760166 
                               0.635206294757828 -83.9565804723753 0.635419346423176 96.0776019878676 0.000226421229007277 -17.0847088760276 0.439038967071938 122.069865137765 
10.2                           0.140423953363818 26.8961257609347 0.554845064583626 57.8912972752506 0.519319239226587 -92.3136575061407 0.634614366347583 -86.6099046720222 
                               0.554845064583627 57.8912972752504 0.139707902847718 26.8899518126903 0.519234009831777 -92.3055495695085 0.634842078983248 93.4236022492823 
                               0.519319239226586 -92.3136575061408 0.519234009831775 -92.3055495695084 0.678751495417424 -56.409933734366 0.000229621867359368 -21.804087096994 
                               0.634614366347584 -86.609904672022 0.634842078983248 93.4236022492821 0.000229621867359902 -21.8040870970512 0.440726810944381 119.502094749298 
10.225                         0.138437665837128 24.2895026304335 0.554954405292733 55.3176789469396 0.520463344765159 -95.6066707955215 0.634017678678157 -89.2598355944185 
                               0.554954405292734 55.3176789469394 0.13769269785182 24.2713858358768 0.520365664382322 -95.5986922795557 0.634260023127512 90.7729521262111 
                               0.520463344765157 -95.6066707955216 0.52036566438232 -95.5986922795556 0.677006252900931 -60.4874557200979 0.000232683639235823 -26.568503225621 
                               0.634017678678158 -89.2598355944183 0.634260023127511 90.7729521262109 0.000232683639236246 -26.5685032257103 0.442420353708366 116.936239811612 
10.25                          0.136413462698691 21.6859852923188 0.555034166938461 52.7497104179679 0.521643911577298 -98.9031031317457 0.633416190383399 -91.9064376153728 
                               0.555034166938461 52.7497104179677 0.135640029827566 21.6552344197205 0.521533541548082 -98.8952158195513 0.633673118318602 88.1255878793461 
                               0.521643911577296 -98.9031031317458 0.52153354154808 -98.8952158195513 0.675196518832727 -64.5785358618301 0.000235607341300403 -31.3789388140279 
                               0.633416190383399 -91.9064376153727 0.633673118318602 88.1255878793459 0.000235607341300688 -31.3789388141332 0.444119638576973 114.372254330148 
10.275                         0.134349600808798 19.0863308859425 0.55508402778201 50.1875922561549 0.522861085602689 -102.203439477354 0.632809859347544 -94.5497743980311 
                               0.555084027782009 50.1875922561548 0.133548219785111 19.0422280057268 0.522737793573057 -102.195604092183 0.633081303817944 85.4814466110676 
                               0.522861085602686 -102.203439477354 0.522737793573055 -102.195604092183 0.673321162867123 -68.6845637940421 0.000238394349139899 -36.2365662073158 
                               0.632809859347545 -94.549774398031 0.633081303817944 85.4814466110676 0.00023839434914002 -36.2365662074203 0.445824708410811 111.810092548214 
10.3                           0.132244366486522 16.4914072516293 0.555103766114689 47.6315370162033 0.524114848310895 -105.508176836819 0.632198642654791 -97.1899089156876 
                               0.555103766114687 47.6315370162032 0.131415616642615 16.4332057975394 0.523978408609225 -105.500353081428 0.632484518787829 82.84046624078   
                               0.524114848310893 -105.508176836819 0.523978408609222 -105.500353081428 0.671379265459421 -72.8069814417022 0.000241046639939281 -41.1427408177792 
                               0.632198642654792 -97.1899089156876 0.632484518787829 82.84046624078   0.000241046639939219 -41.1427408178669 0.447535605582544 109.249708935222 
10.325                         0.130096082279409 13.9022069491058 0.555093270074693 45.081769573825  0.525405005781712 -108.817823995915 0.631582496538907 -99.8269034738887 
                               0.55509327007469 45.0817695738251 0.129240603403728 13.8291295742566 0.5252551998156  -108.809970593333 0.631882702397838 80.2025854799014 
                               0.52540500578171 -108.817823995915 0.525255199815598 -108.809970593333 0.669370139976295 -76.9472835029936 0.00024356682034592 -46.0989933181081 
                               0.631582496538908 -99.8269034738888 0.631882702397838 80.2025854799014 0.00024356682034566 -46.0989933181658 0.449252371839523 106.691058175492 
10.35                          0.127903114888879 11.3198635885399 0.555052548553047 42.5385274406293 0.526731177031307 -112.132901224674 0.630961376334121 -102.460819731997 
                               0.555052548553044 42.5385274406294 0.127021604418919 11.2310998018742 0.526567793705065 -112.12497596031 0.631275793935309 77.5677438063007 
                               0.526731177031304 -112.132901224674 0.526567793705063 -112.12497596031 0.667293357248613 -81.1070178534035 0.000245958160742493 -51.1070214206436 
                               0.630961376334121 -102.460819731997 0.63127579393531 77.5677438063008 0.000245958160742027 -51.1070214206619 0.450975048164671 104.134095157534 
10.375                         0.125663884485647 8.7456708991771  0.554981743270059 40.0020610451706 0.528092781541498 -115.453939938564 0.630335236428588 -105.091718724381 
                               0.554981743270055 40.0020610451707 0.124757093955292 8.6403744693307  0.527915617696284 -115.44589970359 0.63066373291954 74.9358814379815 
                               0.528092781541495 -115.453939938564 0.527915617696282 -115.44589970359 0.665148772787956 -85.2877858439775 0.000248224637159105 -56.1686809035204 
                               0.630335236428588 -105.091718724382 0.630663732919541 74.9358814379817 0.000248224637158435 -56.1686809034954 0.452703674635709 101.578774963712 
10.4                           0.123376875697137 6.18110504633556 0.554881142096855 37.4726339631887 0.529489025953818 -118.78148231189 0.629704030221747 -107.719660881386 
                               0.554881142096851 37.4726339631888 0.122445606345269 6.05839116284069 0.529297886832312 -118.773283147813 0.630046459219325 72.3069393058252 
                               0.529489025953815 -118.78148231189 0.529297886832311 -118.773283147813 0.662936556889911 -89.4912424607464 0.000250370982018555 -61.2859755264146 
                               0.629704030221748 -107.719660881387 0.630046459219326 72.3069393058254 0.00025037098201769 -61.2859755263491 0.454438290282797 99.0250528602121 
10.425                         0.121040650607037 3.6278508123316  0.554751193687102 34.9505230775388 0.530918889895649 -122.11608083665 0.629067710086925 -110.344706050236 
                               0.554751193687098 34.950523077539  0.120085748040465 3.48679299915234 0.530713589633123 -122.107677981018 0.629423913173399 69.6808590252168 
                               0.530918889895646 -122.11608083665 0.530713589633122 -122.107677981018 0.660657227845407 -93.7190963056012 0.000252402744819318 -66.4610454490997 
                               0.629067710086925 -110.344706050236 0.6294239131734  69.680859025217  0.000252402744818272 -66.4610454490043 0.456178932944568 96.4728842872216 
10.45                          0.118653864178667 1.08783238531435 0.554592523471351 32.436018645632  0.532381110912953 -125.458297819357 0.62842622734052 -112.966913516006 
                               0.554592523471347 32.4360186456321 0.117676211965803 0.92745916992442 0.532161473056483 -125.449645752492 0.628796035713304 67.0575828663933 
                               0.532381110912951 -125.458297819357 0.532161473056482 -125.449645752492 0.658311688474863 -97.9731093510838 0.000254326363711486 -71.6961537258825 
                               0.62842622734052 -112.966913516006 0.628796035713306 67.0575828663935 0.000254326363710282 -71.6961537257762 0.457925639122541 93.922224849235  
10.475                         0.116215282602056 -1.43675034243861 0.554405951050285 29.9294242493972 0.533874168493199 -128.8087048075  0.62777953221914 -115.586342022796 
                               0.554405951050282 29.9294242493973 0.115215794653927 -1.61745898839555 0.533640026550683 -128.799757300191 0.62816276848814 64.4370537233669 
                               0.533874168493197 -128.8087048075  0.533640026550682 -128.799757300191 0.655901266187439 -102.25509641259 0.000256149248702793 -76.9936703995754 
                               0.627779532219141 -115.586342022796 0.628162768488141 64.4370537233671 0.00025614924870146 -76.9936703994868 0.459678443833776 91.3730303054105 
10.5                           0.113723805174252 -3.9433788715662 0.554192509003032 27.431056599881  0.53539626717327 -132.167881936496 0.627127573866024 -118.203049795219 
                               0.55419250900303 27.4310565998811 0.112703416745685 -4.14549528444009 0.53514746519378 -132.158592098549 0.627524053990614 61.8192150812971 
                               0.535396267173268 -132.167881936496 0.535147465193778 -132.158592098549 0.65342775674761 -106.566924271225 0.000257879876934263 -82.356053662155 
                               0.627127573866025 -118.203049795219 0.627524053990615 61.8192150812972 0.000257879876932836 -82.3560536621218 0.461437380461603 88.8252565598989 
10.525                         0.11117849045922 -6.42916525471958 0.553953463102211 24.9412451656547 0.536945318740809 -135.536417187099 0.62647030032809 -120.817094560305 
                               0.553953463102211 24.9412451656547 0.110138147574758 -6.65381795891936 0.536681711927647 -135.526737516639 0.626879835683783 59.2040109822007 
                               0.536945318740808 -135.536417187099 0.536681711927646 -135.526737516639 0.650893471901867 -110.910510368912 0.000259527900076126 -87.7858274890905 
                               0.626470300328091 -120.817094560305 0.626879835683783 59.2040109822007 0.000259527900074642 -87.78582748916  0.463202480604168 86.2788596520738 
10.55                          0.108578587645628 -8.89079169181661 0.553690333898175 22.4603315912713 0.538518923553875 -138.914905542365 0.625807658564901 -123.428533569917 
                               0.553690333898177 22.4603315912712 0.107519234721243 -9.13916929933604 0.538240378911519 -138.904787975788 0.626230058127811 56.5913859889135 
                               0.538518923553875 -138.914905542365 0.538240378911518 -138.904787975788 0.648301290977225 -115.28782098431 0.000261104263401166 -93.2855550956374 
                               0.625807658564903 -123.428533569917 0.62623005812781 56.5913859889133 0.000261104263399667 -93.2855550958654 0.464973773920466 83.7337957466001 
10.575                         0.105923574238117 -11.3244385766877 0.553404919600518 19.9886688691777 0.540114351023364 -142.303948032377 0.625139594470833 -126.037423623737 
                               0.553404919600521 19.9886688691774 0.104846139630342 -11.5977935335274 0.53982074803928 -142.293343994814 0.625574667106047 53.9812851472322 
                               0.540114351023364 -142.303948032377 0.539820748039279 -142.293343994814 0.64565471650805 -119.700868783505 0.000262621335481344 -98.8578075135533 
                               0.625139594470835 -126.037423623737 0.625574667106046 53.9812851472318 0.000262621335479875 -98.8578075140036 0.466751287973443 81.1900211232798 
10.6                           0.103213201493821 -13.7256985719595 0.553099320145143 17.5266202258428 0.541728519325761 -145.704150654066 0.624466052911667 -128.643821092891 
                               0.553099320145148 17.5266202258423 0.102118580662064 -14.0253504848381 0.541419750687794 -145.69301111023 0.624913609749699 51.3736539461946 
                               0.541728519325762 -145.704150654066 0.541419750687793 -145.693011110229 0.642957933875362 -124.151709623492 0.000264093046712098 -104.505126555872 
                               0.624466052911669 -128.643821092891 0.624913609749698 51.373653946194  0.000264093046710708 -104.505126556614 0.468535048069661 78.6474921666248 
10.625                         0.100447549368745 -16.08947375731  0.552775962289678 15.0745576805312 0.54335797444082 -149.116123152632 0.623786977776788 -131.247781944238 
                               0.552775962289685 15.0745576805305 0.0993365852840191 -16.4168118965117 0.543033946790599 -149.104398657899 0.624246834660341 48.7684382764741 
                               0.543357974440821 -149.116123152632 0.543033946790598 -149.104398657898 0.640215874850046 -128.64243846911 0.000265535033988148 -110.229981439061 
                               0.62378697777679 -131.247781944237 0.624246834660339 48.7684382764731 0.000265535033986887 -110.229981440171 0.470325077094926 76.1061653551137 
10.65                          0.0976270931914592 -18.4098522587847 0.552437625528698 12.6328602332705 0.544998868640067 -152.540477650337 0.623102312048126 -133.849361765353 
                               0.552437625528707 12.6328602332695 0.0965005535661928 -18.7663366321403 0.544659503362511 -152.528118401881 0.62357429202947 46.16558438689   
                               0.544998868640069 -152.540477650337 0.54465950336251 -152.528118401881 0.637434284814571 -133.175184265678 0.000266964787831845 -116.034718383266 
                               0.623102312048129 -133.849361765352 0.623574292029466 46.1655843868888 0.000266964787830767 -116.034718384818 0.472121395345192 73.5659972500965 
10.675                         0.094752784864913 -20.6799600169572 0.552087468563045 10.2019116373153 0.546646938588005 -155.977827107747 0.622411997886902 -136.448615790193 
                               0.552087468563058 10.201911637314  0.0936113357157299 -21.067120116884 0.546292172636646 -155.964782995559 0.622895933754329 43.5650388390615 
                               0.546646938588008 -155.977827107747 0.546292172636644 -155.964782995558 0.634619793292908 -137.752103590458 0.000268401797117039 -121.921502633153 
                               0.622411997886905 -136.448615790191 0.622895933754325 43.5650388390599 0.000268401797116201 -121.921502635225 0.473924020351935 71.0269444843219 
10.7                           0.0918261521501589 -22.8917824964905 0.551729055994673 7.78209771098346 0.548297483258809 -159.428783602032 0.621715976739166 -139.045598925439 
                               0.551729055994687 7.78209771098174 0.0906703271430766 -23.3112123945665 0.547927270016213 -159.415004259604 0.622211713549167 40.9667484602538 
                               0.548297483258813 -159.428783602032 0.547927270016211 -159.415004259604 0.631779987241128 -142.375372886824 0.000269867685259376 -127.892252558024 
                               0.621715976739169 -139.045598925437 0.622211713549162 40.9667484602518 0.000269867685258839 -127.892252560687 0.475732966701107 68.4889637500708 
10.725                         0.0888494205580144 -25.0359502155397 0.551366384850261 5.37380314437334 0.549945341917446 -162.893956406607 0.621014189461079 -141.640365777466 
                               0.551366384850277 5.37380314437121 0.0876795855321984 -25.4892980559572 0.549559652089521 -162.879391261074 0.621521587051129 38.3706602944952 
                               0.54994534191745 -162.893956406608 0.549559652089519 -162.879391261073 0.62892348633746 -147.04717906655 0.000271386330399524 -133.948565825317 
                               0.621014189461083 -141.640365777463 0.621521587051123 38.3706602944927 0.000271386330399352 -133.948565828634 0.477548245844674 65.9520117868915 
10.75                          0.0858256636266165 -27.1014810743436 0.551003910463984 2.97740775840284 0.551584872465579 -166.373949856336 0.620306576464758 -144.232970679882 
                               0.551003910464002 2.97740775840028 0.0846419756651164 -27.5904301102603 0.551183695008021 -166.358548177816 0.620825511919957 35.7767215520651 
                               0.551584872465584 -166.373949856337 0.551183695008018 -166.358548177815 0.626060019256421 -151.769708249125 0.000272983960756367 -140.091638119879 
                               0.620306576464762 -144.23297067988 0.62082551191995 35.7767215520622 0.000272983960756628 -140.091638123902 0.479369865903619 63.4160453689395 
10.775                         0.082758988963862 -29.075471790112 0.550646571173158 0.593282177130902 0.553209930509392 -169.869360982788 0.619593077885471 -146.823467721569 
                               0.550646571173177 0.593282177127933 0.0815613494069291 -29.601708789083 0.552793273583904 -169.853071932672 0.620123447930681 33.1848795574824 
                               0.553209930509397 -169.869360982789 0.552793273583901 -169.853071932671 0.623200499613662 -156.545132394016 0.000274689215071088 -146.322175519213 
                               0.619593077885475 -146.823467721566 0.620123447930673 33.184879557479  0.000274689215071853 -146.322175523977 0.481197831461208 60.8810212919415 
10.8                           0.079654769454013 -30.9427306987111 0.550299811201314 -1.77821712029167 0.5548138495683  -173.380776904689 0.61887363377084 -149.411910775105 
                               0.550299811201333 -1.7782171202951 0.0784427703833573 -31.5078956385951 0.554381741525546 -173.363549582595 0.619415357058498 30.5950816961453 
                               0.554813849568306 -173.380776904691 0.554381741525543 -173.363549582594 0.620357099924117 -161.375593574501 0.000276533157032581 -152.640302436023 
                               0.618873633770844 -149.411910775102 0.619415357058489 30.5950816961415 0.000276533157033922 -152.640302441543 0.483032143345199 58.3468963598116 
10.825                         0.076519931516762 -32.6853455121897 0.549969601023154 -4.13675339412968 0.556389422909933 -176.908771959842 0.618148184292652 -151.998353525476 
                               0.549969601023174 -4.1367533941335 0.0752927955632497 -33.2909537596584 0.555941913295452 -176.890555448927 0.618701203555049 28.0072753598023 
                               0.556389422909939 -176.908771959843 0.555941913295449 -176.890555448926 0.617543321525778 -166.263185642491 0.000278549231934689 -159.045467985932 
                               0.618148184292656 -151.998353525472 0.61870120355504 28.007275359798  0.000278549231936675 -159.045467992199 0.484872798397564 55.8136273709601 
10.85                          0.0733633152450543 -34.2821836851805 0.549662454426956 -6.48201590108915 0.557928887567038 179.546095433548 0.617416669981759 -154.582849498912 
                               0.549662454426976 -6.48201590109335 0.0721198292300231 -34.9295079965777 0.557466048145514 179.565352023221 0.61798095401533 25.4214078910577 
                               0.557928887567044 179.546095433547 0.55746604814551 179.565352023222 0.614774057987029 -171.209933045929 0.000280773153755935 -165.536354682086 
                               0.617416669981764 -154.582849498907 0.61798095401532 25.421407891053  0.000280773153758626 -165.536354689063 0.486719789230202 53.2811711043518 
10.875                         0.0701961244447072 -35.708332237869 0.549385441414594 -8.81372681715841 0.559423911164753 175.983286195817 0.616679031986454 -157.165452091708 
                               0.549385441414613 -8.81372681716295 0.06893456858597 -36.3982266216814 0.558945836957159 176.003633686189 0.61725457743448 22.8374265271389 
                               0.559423911164759 175.983286195815 0.558945836957154 176.003633686191 0.612065649043432 -176.217766587503 0.000283242711569738 -172.11079441309 
                               0.616679031986458 -157.165452091703 0.617254577434469 22.8374265271339 0.000283242711573185 -172.110794420709 0.488573103965008 50.74948430538   
10.9                           0.0670324874930443 -36.9345022931687 0.549146196010603 -11.1316488138333 0.560865582260484 172.402284291682 0.61593521235462 -159.746214598845 
                               0.54914619601062 -11.1316488138381 0.0657505640497412 -37.6671427972893 0.560372392587654 172.42377339822  0.616522045253769 20.2552783431798 
                               0.56086558226049 172.40228429168  0.56037239258765 172.423773398222 0.609435921611253 178.71150404046  0.000285997485864036 -178.765697598152 
                               0.615935212354624 -159.74621459884 0.616522045253758 20.2552783431746 0.000285997485868268 -178.765697606311 0.490432725956566 48.2185236716404 
10.925                         0.0638901512156282 -37.9264578945206 0.548952917992694 -13.4355932564652 0.562244404971128 168.802600725636 0.615185154339829 -162.325190242206 
                               0.54895291799271 -13.4355932564702 0.0625849200441957 -38.7009669277204 0.561736244496288 168.82528202179  0.615783331395086 17.6749101952947 
                               0.562244404971134 168.802600725634 0.561736244496283 168.825282021792 0.606904213917498 173.576221040363 0.000289078468091472 174.502997932485 
                               0.615185154339834 -162.325190242201 0.615783331395075 17.6749101952892 0.000289078468096489 174.502997923921 0.492298633495656 45.6882458386997 
10.95                          0.0607913269223648 -38.6445891539606 0.548814367510742 -15.7254289714761 0.563550298730859 165.183777824682 0.614428802731477 -164.902432198193 
                               0.548814367510756 -15.7254289714812 0.0594591611921958 -39.4585013959464 0.563027338492516 165.207701709613 0.615038412283326 15.0962686637421 
                               0.563550298730865 165.18377782468  0.563027338492512 165.207701709615 0.604491378295408 168.37491261104  0.000292527580598912 167.700351601465 
                               0.614428802731481 -164.902432198188 0.615038412283315 15.0962686637365 0.000292527580604677 167.700351592666 0.494170799491637 43.1586073659711 
10.975                         0.0577636951139201 -39.0438506019784 0.548739851533429 -18.0010915041374 0.564772604083607 161.545393800301 0.613666104208911 -167.477993624488 
                               0.54873985153344 -18.0010915041425 0.0564002791995999 -39.8923740034237 0.564235042509088 161.570610470183 0.61428726685609 12.5192999965    
                               0.564772604083613 161.545393800299 0.564235042509084 161.570610470185 0.60221975775455 163.106330235836 0.000296387098865435 160.832412034783 
                               0.613666104208916 -167.477993624483 0.614287266856079 12.5192999964944 0.000296387098871862 160.832412025946 0.49604919113173 40.6295647228235 
11                             0.054841543921736 -39.0744421148985 0.548739201055725 -20.2625927607707 0.565900095463755 157.887067574581 0.612897007719426 -170.051927685727 
                               0.548739201055733 -20.2625927607756 0.0534419477304503 -39.9494765613108 0.565348159352391 157.913626997762 0.613529876560193 9.94395005359377 
                               0.565900095463761 157.887067574578 0.565348159352388 157.913626997764 0.600113131090322 157.769488862855 0.000300698983402351 153.906171305466 
                               0.61289700771943 -170.051927685721 0.613529876560182 9.94395005358834 0.000300698983409298 153.906171296819 0.497933769515111 38.1010742750653 
11.025                         0.0520669514596047 -38.6838273231098 0.548822738020492 -22.5100308990988 0.566921001951407 154.208463847349 0.612121464879859 -172.624287577809 
                               0.548822738020498 -22.5100308991034 0.0506258301660353 -39.5727454120864 0.566354947415175 154.236415743608 0.612766225334502 7.37016425253946 
                               0.566921001951412 154.208463847346 0.566354947415172 154.23641574361  0.598196621103057 152.363709485049 0.000305504134252033 146.929478579083 
                               0.612121464879864 -172.624287577804 0.612766225334493 7.37016425253423 0.000305504134259297 146.929478570871 0.499824489259664 35.5730922719601 
11.05                          0.0494908049007255 -37.8209284700259 0.549001230957847 -24.7436002987879 0.567823036999707 150.50929837197  0.611339430401443 -175.195126550571 
                               0.54900123095785 -24.7436002987921 0.0480027853142175 -38.7052292489818 0.567243150347772 150.538692196052 0.611996299578743 4.79788751528303 
                               0.567823036999713 150.509298371968 0.56724315034777 150.538692196054 0.596496560515032 146.888663397184 0.000310841586141554 139.910913122503 
                               0.611339430401447 -175.195126550566 0.611996299578734 4.79788751527825 0.000310841586148868 139.910913114986 0.501721298079211 33.0455748339485 
11.075                         0.0471732646443981 -36.4434730172018 0.549285838430333 -26.9636014119869 0.568593438114975 146.789343397241 0.610550862537415 -177.764497928515 
                               0.549285838430334 -26.9636014119906 0.0456335764403519 -37.2976278641561 0.568000036667304 146.820228326788 0.611220088107914 2.22706421703616 
                               0.568593438114981 146.789343397239 0.568000036667303 146.82022832679  0.59504031047375 141.344417150085 0.000316747666327312 132.859620002304 
                               0.61055086253742 -177.764497928511 0.611220088107907 2.22706421703195 0.000316747666334345 132.859619995744 0.503624136328923 30.5184779412638 
11.1                           0.0451830468893792 -34.529181404865 0.549688039493537 -29.1704502621931 0.569219017419755 143.048433221631 0.60975572355282 179.667544870701 
                               0.549688039493537 -29.170450262196 0.0435884149228734 -35.3203078206356 0.568612450233665 143.080858149526 0.610437582092094 -0.342361862578974 
                               0.569219017419761 143.048433221629 0.568612450233665 143.080858149527 0.593856027182356 135.73147695156  0.000323255139402221 125.785115297555 
                               0.609755723552825 179.667544870704 0.610437582092088 -0.342361862582453 0.000323255139408591 125.785115292205 0.505532936516653 27.9917574236477 
11.125                         0.0435947114567331 -32.0902749631243 0.550219550542769 -31.3646873306074 0.56968622393804 139.286469794197 0.608953980215783 177.100948320344 
                               0.550219550542768 -31.3646873306095 0.041944415706641 -32.7795850634877 0.569066872430256 139.320483325237 0.609648774981445 -2.91044758564193 
                               0.569686223938048 139.286469794195 0.569066872430257 139.320483325238 0.592972373267732 130.050830995334 0.000330392363427056 118.697070816338 
                               0.608953980215788 177.100948320346 0.60964877498144 -2.91044758564451 0.000330392363432342 118.697070812433 0.507447622777841 25.465368951386  
11.15                          0.0424832371810404 -29.1882699478684 0.550892228117741 -33.5469855441035 0.569981218304877 135.503428284069 0.60814560430945 174.535658771588 
                               0.550892228117741 -33.5469855441048 0.0407800666545623 -29.7352062951227 0.569349496750484 135.539078735759 0.608853662416339 -5.47725049886103 
                               0.569981218304886 135.503428284069 0.569349496750487 135.53907873576  0.592418172033371 124.303987957797 0.000338182479613154 111.605090664695 
                               0.608145604309455 174.535658771589 0.608853662416336 -5.47725049886256 0.000338182479616924 111.605090662437 0.509368110311662 22.9392680279034 
11.175                         0.0419158589921754 -25.9428283361091 0.551717957478284 -35.7181570599879 0.570089960414334 131.69936252785  0.607330573163661 171.971622443738 
                               0.551717957478286 -35.7181570599882 0.0401665144712957 -26.3119369689454 0.569446316302929 131.736697934953 0.608052242122585 -8.042828872857  
                               0.570089960414344 131.69936252785  0.569446316302933 131.736697934953 0.592222004770848 118.493009715828 0.000346642653729076 104.518493193139 
                               0.607330573163668 171.971622443738 0.608052242122585 -8.04282887285732 0.000346642653730912 104.518493192685 0.51129430477608 20.4134099841701 
11.2                           0.0419425155197592 -22.5270817206469 0.552708527042699 -37.8791585319124 0.56999831027661 127.874410251993 0.606508870205327 169.408785418048 
                               0.552708527042703 -37.8791585319117 0.040157035053854 -22.695914748583 0.56934322450499 127.913478374342 0.607244513791848 -10.6072417373367 
                               0.569998310276623 127.874410251994 0.569343224504996 127.913478374341 0.592411753805569 112.620536239602 0.000355783382098908 97.4461116406716 
                               0.606508870205333 169.408785418047 0.607244513791851 -10.6072417373358 0.000355783382098447 97.4461116421233 0.513226101639489 17.8877499751888 
11.225                         0.042587706361363 -19.1456837177161 0.553875489092003 -40.0310945405881 0.569692142055148 124.028797955851 0.605680485526328 166.847093635494 
                               0.553875489092011 -40.0310945405864 0.0407778456930543 -19.110461865841 0.56902612893517 124.06964628871  0.606430478947422 -13.1705489116797 
                               0.569692142055163 124.028797955852 0.569026128935177 124.069646288709 0.593014096865002 106.689800634136 0.00036560786944042 90.3961252358098 
                               0.605680485526335 166.847093635492 0.606430478947426 -13.1705489116774 0.000365607869437397 90.3961252392004 0.515163385486662 15.3622429788499 
11.25                          0.0438468343854225 -16.0008135704369 0.555230007482005 -42.1752188840724 0.569157470898932 120.162845331083 0.604845416467712 164.286492898864 
                               0.555230007482017 -42.1752188840699 0.0420238932663588 -15.7769871323654 0.568481077958721 120.205521117222 0.605610140795615 -15.7328110304531 
                               0.56915747089895 120.162845331085 0.568481077958728 120.20552111722  0.594053961559061 100.704632470169 0.000376111480897528 83.3759298424157 
                               0.60484541646772 164.28649289886  0.605610140795622 -15.7328110304493 0.000376111480891817 83.3759298477001 0.517106029276775 12.8368437974533 
11.275                         0.045688463135214 -13.2591249907576 0.556782693462534 -44.3129334466907 0.568380591777942 116.27696908536  0.604003668218773 161.726928879533 
                               0.556782693462552 -44.3129334466874 0.0438613734382405 -12.8766489868254 0.567694399334504 116.321519327769 0.604783504063109 -18.2940895633652 
                               0.568380591777963 116.276969085362 0.567694399334512 116.321519327766 0.595553952071798 94.6694478768817 0.000387281267412643 76.3920538578923 
                               0.604003668218782 161.726928879527 0.604783504063118 -18.2940895633601 0.000387281267404296 76.3920538649381 0.519053893551361 10.3115070622147 
11.3                           0.048061285331094 -11.0319902698535 0.55854343106981 -46.4457844038216 0.567348229079059 112.371686033362 0.603155254429551 159.168347129303 
                               0.558543431069834 -46.4457844038177 0.0462355790324459 -10.5279066499004 0.566652849560693 112.41815750739  0.603950574820728 -20.854446829164 
                               0.567348229079082 112.371686033365 0.566652849560701 112.418157507386 0.597533763347019 88.5892253687619 0.000399095562771959 69.4501214530227 
                               0.603155254429561 159.168347129297 0.603950574820739 -20.8544468291576 0.000399095562761245 69.4501214616022 0.521006825590137 7.78618724108813 
11.325                         0.0509028989628521 -9.37296662801123 0.560521193922911 -48.5754555718022 0.566047695237987 108.447615316771 0.602300197835148 156.610693097678 
                               0.560521193922942 -48.5754555717979 0.0490806567178899 -8.78451919650608 0.565343772235699 108.496054580287 0.60311136029416 -23.4139460029832 
                               0.566047695238013 108.447615316775 0.565343772235707 108.496054580283 0.600009600836879 82.469467030068  0.000411523652587878 62.5548618279718 
                               0.602300197835158 156.61069309767  0.603111360294173 -23.4139460029756 0.000411523652575302 62.5548618377553 0.52296465851278 5.26083865024821 
11.35                          0.0541476551478428 -8.28787902253268 0.562723855607541 -50.7037587771344 0.564467056186777 104.505479617965 0.601438530890151 154.053912154934 
                               0.562723855607577 -50.7037587771298 0.0523281279410265 -7.64801869317094 0.563755263215324 104.555933018003 0.602265868662275 -25.9726511166397 
                               0.564467056186805 104.505479617969 0.563755263215332 104.555933017998 0.602993625989025 76.3161454444552 0.000424525520088662 55.7101602849633 
                               0.601438530890161 154.053912154926 0.602265868662288 -25.9726511166313 0.000424525520074972 55.7101602955141 0.524927210324873 2.73541546959493 
11.375                         0.0577321709409161 -7.74987795759194 0.565157996158838 -52.8326211951486 0.562595300907303 100.546105240038 0.600570296411352 151.497949621388 
                               0.565157996158878 -52.8326211951442 0.0559126659235335 -7.0853213708256 0.5618763398586  100.598618914259 0.601414108843753 -28.530627051389 
                               0.562595300907333 100.546105240043 0.561876339858607 100.598618914253 0.606493448812864 70.1356375757419 0.000438051680388451 48.9191447778857 
                               0.600570296411362 151.497949621379 0.601414108843767 -28.53062705138  0.000438051680374617 48.919144788657  0.526894282906412 0.209871762650711 
11.4                           0.0615984009694954 -7.71363139218651 0.567828707450148 -54.9640696924686 0.560422511923342 96.5704209390578 0.599695548226843 148.942750803194 
                               0.567828707450189 -54.9640696924646 0.0597751338799202 -7.04472347364204 0.559697111197809 96.6250408102829 0.600556090272871 -31.0879395226433 
                               0.560422511923372 96.5704209390628 0.559697111197814 96.6250408102774 0.61051168888352 63.9346476045978 0.000452043123072377 42.1843002407876 
                               0.599695548226853 148.942750803185 0.600556090272885 -31.0879395226343 0.000452043123059547 42.1843002511206 0.52886566094148 -2.31583849876177 
11.425                         0.0656948467511331 -8.12601542867067 0.570739400548697 -57.1002122964328 0.557940033164978 92.5794554132969 0.598814351829461 146.388261035065 
                               0.570739400548736 -57.1002122964294 0.0638636207847071 -7.4675268115533 0.557208945470089 92.6362271753559 0.599691822665354 -33.6446550561706 
                               0.557940033165005 92.5794554133016 0.557208945470092 92.6362271753507 0.6150456248968  57.7201214247648 0.000466431391325368 35.5076023534136 
                               0.59881435182947 146.388261035057 0.599691822665366 -33.6446550561624 0.000466431391314786 35.5076023625382 0.530841110787934 -4.84176140466625 
11.45                          0.0699766136420783 -8.93301266313229 0.573891618306816 -59.243217003854 0.555140631327349 88.5743333786603 0.597926785032438 143.834425730248 
                               0.573891618306848 -59.2432170038517 0.0681332973201471 -8.29524810792079 0.554404631137163 88.6333024717857 0.598821315775301 -36.200840955294 
                               0.555140631327371 88.5743333786642 0.554404631137165 88.6333024717813 0.620086950375131 51.4991560259777 0.000481138833128382 28.8906623350526 
                               0.597926785032444 143.834425730241 0.598821315775311 -36.2008409552873 0.000481138833121274 28.8906623420901 0.532820379286213 -7.36794307149512 
11.475                         0.0744048832798936 -10.0835856649565 0.577284856616539 -61.3952882266835 0.552018646648922 84.5562701891294 0.597032938625027 141.281190438117 
                               0.577284856616558 -61.3952882266823 0.0725457146731728 -9.47346374039222 0.55127852732378 84.6174817632428 0.597944579144312 -38.7565652586223 
                               0.552018646648935 84.5562701891319 0.55127852732378 84.61748176324   0.625621649457944 45.2789072802391 0.000496079064804922 22.334874707172  
                               0.597032938625029 141.281190438113 0.597944579144318 -38.7565652586182 0.000496079064802337 22.3348747111406 0.534803192506684 -9.89442960064963 
11.5                           0.0789461685070687 -11.531497815885 0.580916397866749 -63.5586412488947 0.548570128977084 80.5265649952696 0.596132917025762 138.728500909704 
                               0.580916397866747 -63.5586412488949 0.0770679289455618 -10.9534621788465 0.547826699548848 80.5900638596338 0.597061621843994 -41.311896687859 
                               0.548570128977082 80.52656499527   0.547826699548848 80.5900638596334 0.631630002116192 39.0664996711361 0.000511157687999341 15.8415605849066 
                               0.596132917025759 138.728500909704 0.597061621843993 -41.3118966878588 0.000511157688001966 15.8415605847298 0.536789254435291 -12.4212670306339 
