! Generated from PyAEDT SolutionData; AEDT ExportNetworkData workaround
# GHz S MA R 50
9 0.453947882523 103.695528639 0.63780661224 167.064961325 0.264316246906 -98.005037085 0.563268112853 40.9312172853 0.63780661224 167.064961325 0.440468157824 103.061892689 0.265047751271 -96.5411540281 0.573533100067 -137.632411355 0.264316246906 -98.005037085 0.265047751271 -96.5411540281 0.927266097166 -156.016176611 0.00801225398339 -43.0937035211 0.563268112853 40.9312172853 0.573533100067 -137.632411355 0.00801225398339 -43.0937035211 0.59474752623 -126.107338385
9.025 0.475530379546 98.4940543626 0.630755997523 161.410851691 0.240192702653 -104.787724591 0.564205610762 38.1656850558 0.630755997523 161.410851691 0.461890525843 97.9031254643 0.240983718611 -103.162146387 0.575094417561 -140.430731089 0.240192702653 -104.787724591 0.240983718611 -103.162146387 0.94031617136 -162.959392441 0.00810824867453 -49.4941250297 0.564205610762 38.1656850558 0.575094417561 -140.430731089 0.00810824867463 -49.4941250292 0.592344924546 -128.577537352
9.05 0.496242334059 93.2945059113 0.622819292705 155.761196046 0.21551303216 -111.58370246 0.565151954465 35.4077083033 0.622819292705 155.761196046 0.4824613415 92.7418271593 0.216362075566 -109.758365524 0.576643309109 -143.226310998 0.21551303216 -111.58370246 0.216362075566 -109.758365524 0.952211053035 -169.940614359 0.00819216719729 -55.9000261304 0.565151954466 35.4077083033 0.576643309109 -143.226310998 0.00819216719742 -55.9000261298 0.589930845565 -131.050487106
9.075 0.515989005424 88.1035335867 0.614025264652 150.122065629 0.190394056626 -118.393842732 0.566109980019 32.6569974807 0.614025264651 150.122065629 0.502086705353 87.5852371391 0.191299407619 -116.315524171 0.578176873229 -146.019153795 0.190394056626 -118.393842732 0.191299407619 -116.315524171 0.962866920237 -176.951219926 0.00826347537382 -62.3044923923 0.56610998002 32.6569974807 0.578176873229 -146.019153795 0.00826347537395 -62.3044923918 0.587505302843 -133.526411066
9.1 0.534687069337 82.9278405474 0.604414861826 144.499602905 0.164958242348 -125.223579804 0.567082288364 29.9132232778 0.604414861826 144.499602905 0.520683878602 82.440546177 0.165917975944 -122.814622515 0.579692423536 -148.809217446 0.164958242348 -125.223579804 0.165917975944 -122.814622515 0.972218126614 176.017499116 0.00832181277753 -68.7005435847 0.567082288364 29.9132232778 0.579692423536 -148.809217446 0.00832181277763 -68.7005435844 0.585068334699 -136.005533636
9.125 0.552266665811 77.7740586576 0.594040357327 138.899885853 0.139331130975 -132.087245691 0.568071163733 27.1760216826 0.594040357327 138.899885853 0.538183313615 77.3147937737 0.140343155967 -129.227911992 0.58118756952 -151.596421324 0.139331130975 -132.087245691 0.140343155967 -129.227911992 0.980218831783 168.97418786 0.00836700103256 -75.0812646088 0.568071163733 27.1760216826 0.58118756952 -151.596421324 0.00836700103261 -75.0812646087 0.582620004615 -138.488080187
9.15 0.56867290378 72.6486241795 0.582964023604 133.328794924 0.113638814399 -139.017990322 0.569078505521 24.4450008793 0.582964023604 133.328794924 0.554530153262 72.2147601075 0.114700920755 -135.509382164 0.582660281506 -154.380653846 0.113638814399 -139.017990322 0.114700920755 -135.509382164 0.986843813111 161.927281326 0.00839904498985 -81.439933771 0.569078505521 24.4450008793 0.582660281506 -154.380653846 0.00839904498986 -81.439933771 0.580160401991 -140.97427701
9.175 0.583866751395 67.5576604122 0.571256424632 127.79188906 0.0880059433231 -146.094400167 0.57010577811 21.7197494983 0.571256424632 127.79188906 0.569685127839 67.1468611363 0.0891158562376 -141.569024816 0.584108936227 -157.161781096 0.0880059433231 -146.094400167 0.0891158562376 -141.569024816 0.992088429536 154.884866451 0.008418126863 -87.7701424116 0.57010577811 21.7197494983 0.584108936227 -157.161781096 0.00841812686298 -87.7701424117 0.577689643273 -143.464351281
9.2 0.597825289446 62.5068732849 0.55899443723 122.294296315 0.062555806433 -153.530236643 0.571153981435 18.9998456268 0.55899443723 122.294296315 0.583624825942 62.1170538522 0.0637112163416 -147.186720361 0.585532341121 -159.939655859 0.062555806433 -153.530236643 0.0637112163417 -147.186720361 0.995967774148 147.85455902 0.00842459392553 -94.0659006468 0.571153981435 18.9998456268 0.585532341121 -159.939655859 0.00842459392548 -94.0659006468 0.575207873403 -145.958531013
9.225 0.610541353154 57.5014644976 0.546259127087 116.840623412 0.0374212972894 -162.117552392 0.572223643139 16.2848659537 0.546259127087 116.840623412 0.596341362767 57.130756988 0.0386194180956 -151.59740782 0.58692973736 -162.71412649 0.0374212972894 -162.117552392 0.0386194180957 -151.59740782 0.99851511147 140.843400335 0.00841894080589 -100.321725129 0.572223643139 16.2848659537 0.58692973736 -162.71412649 0.00841894080583 -100.321725129 0.572715267533 -148.457045034
9.25 0.622022629306 52.5460651992 0.533133605919 111.434886973 0.0129070424803 -178.650188251 0.573314831266 13.5743944566 0.533133605919 111.434886973 0.607841510581 52.1927906753 0.0141253591582 -148.823759687 0.588300783264 -165.485045108 0.0129070424802 -178.650188251 0.0141253591583 -148.823759687 0.999779740896 133.857776845 0.0084017877228 -106.532706133 0.573314831265 13.5743944566 0.588300783264 -165.485045108 0.00840178772275 -106.532706133 0.570212032919 -150.960122969
9.275 0.632290307114 47.6446915518 0.519700985268 106.080467639 0.0123832801696 26.3317571599 0.574427184857 10.8680301324 0.519700985268 106.080467639 0.618145387268 47.3073367769 0.0111985747659 -7.89754907109 0.589645521134 -168.25227472 0.0123832801696 26.3317571599 0.0111985747659 -7.89754907126 0.999824455527 126.903364257 0.00837385615758 -112.694552772 0.574427184857 10.8680301324 0.589645521134 -168.25227472 0.00837385615754 -112.694552772 0.567698410929 -153.467995244
9.3 0.641377400018 42.8007220081 0.506042522377 100.780086718 0.0358715297126 9.48008559241 0.575559958679 8.16539341044 0.506042522377 100.780086718 0.627284817699 42.4779199958 0.0345820491729 -1.7306765716 0.590964331396 -171.015694997 0.0358715297126 9.48008559242 0.0345820491729 -1.73067657162 0.998722774378 119.985096019 0.00833594346287 -118.803616564 0.575559958679 8.16539341045 0.590964331396 -171.015694997 0.00833594346286 -118.803616564 0.565174679069 -155.980893104
9.325 0.649326861646 38.0168948443 0.492236027921 95.5358037761 0.0590038784774 1.09321966494 0.57671207771 5.46613103569 0.492236027921 95.5358037761 0.635301488893 37.7074085085 0.0576738739315 -5.62348051616 0.592257878337 -173.775206569 0.0590038784774 1.09321966493 0.0576738739315 -5.62348051616 0.996556117572 113.107154633 0.00828889778002 -124.856894778 0.57671207771 5.46613103569 0.592257878337 -173.775206569 0.00828889778004 -124.856894778 0.562641152981 -158.499048644
9.35 0.656189613827 33.2953235221 0.47835457775 90.3490325778 0.0815115218006 -5.99906035991 0.577882196961 2.76991936201 0.47835457775 90.3490325777 0.642245015004 32.9980318558 0.0801483153059 -10.8096552171 0.593527051634 -176.530733835 0.0815115218006 -5.99906035992 0.080148315306 -10.8096552171 0.993411072192 106.27298319 0.00823359441397 -130.852015963 0.577882196961 2.769919362 0.593527051634 -176.530733835 0.00823359441401 -130.852015963 0.560098188358 -161.022694848
9.375 0.662022590559 28.6375268378 0.464465544537 85.2205721922 0.10332964789 -12.6137184611 0.579068762537 0.0764661198181 0.464465544537 85.2205721922 0.648171014605 28.3514131648 0.101936675378 -16.3713347465 0.59477290744 -179.282226378 0.10332964789 -12.6137184611 0.101936675378 -16.3713347465 0.989376865929 99.4853137942 0.00817091453664 -136.787210602 0.579068762537 0.0764661198025 0.59477290744 -179.282226378 0.0081709145367 -136.787210602 0.557546182757 -163.552065629
9.4 0.666886882255 24.044470525 0.450629942651 80.1506497955 0.124422427038 -18.9734264038 0.580270070533 -2.61448917869 0.450629942651 80.1506497955 0.653139283663 23.7686124627 0.123002144751 -22.0634841902 0.595996612101 177.970340825 0.124422427038 -18.9734264038 0.123002144751 -22.0634841902 0.98454313143 92.7462091829 0.00810172679492 -142.661270202 0.580270070533 -2.61448917871 0.595996612101 177.970340825 0.00810172679499 -142.661270202 0.554985577288 -166.087395869
9.425 0.670846042674 19.5166169791 0.436902062164 75.1389717129 0.144768431267 -25.1638111062 0.581484321168 -5.30317597294 0.436902062164 75.1389717129 0.657212126144 19.2501778216 0.143322857058 -27.793034808 0.597199390814 175.226968213 0.144768431267 -25.1638111062 0.143322857059 -27.793034808 0.97899801047 86.0571138602 0.00802687212054 -148.473498091 0.581484321168 -5.30317597296 0.597199390814 175.226968213 0.00802687212062 -148.473498091 0.552416858187 -168.628921449
9.45 0.673964599128 15.0539799933 0.423329356044 70.1847794889 0.164356850024 -31.225109353 0.582709666417 -7.98979427318 0.423329356044 70.1847794889 0.660452882736 14.7962012793 0.162887721454 -33.5171943553 0.598382482698 172.4876332 0.164356850024 -31.225109353 0.162887721454 -33.5171943553 0.972826617082 79.41891126 0.00794715179838 -154.223655015 0.582709666417 -7.98979427321 0.598382482698 172.4876332 0.00794715179847 -154.223655015 0.54984055829 -171.176879268
9.475 0.676306786935 10.6561817674 0.409952538033 65.2869081638 0.183185561665 -37.1790952876 0.583944250195 -10.6745169119 0.409952538033 65.2869081638 0.662924678884 10.4063768409 0.181694396893 -39.2139156143 0.59954710307 169.752292289 0.183185561665 -37.1790952876 0.181694396893 -39.2139156143 0.966109854225 72.831983881 0.00786331865964 -159.911902263 0.583944250195 -10.674516912 0.59954710307 169.752292289 0.00786331865972 -159.911902264 0.547257258405 -173.731507243
9.5 0.677935512677 6.32250990684 0.396805846702 60.4438444109 0.201259693301 -43.0389638605 0.58518624083 -13.3574921933 0.396805846702 60.4438444109 0.664689397126 6.08005831443 0.199747820806 -44.8710812904 0.600694413086 167.020883509 0.201259693301 -43.0389638605 0.199747820806 -44.8710812904 0.958923560498 66.2962738322 0.00777607113035 -165.538744617 0.58518624083 -13.3574921933 0.600694413086 167.020883509 0.00777607113043 -165.538744617 0.544667588635 -176.293044296
9.525 0.67891153822 2.05197261497 0.383917432634 55.6537826967 0.218590375269 -48.8135344102 0.586433856069 -16.0388467381 0.383917432634 55.6537826967 0.665806866261 1.81631521058 0.217058952184 -50.48186877 0.60182549646 164.293329012 0.218590375269 -48.8135344102 0.217058952184 -50.48186877 0.951337951402 59.8113417688 0.00768604978159 -171.104974938 0.586433856069 -16.0388467381 0.60182549646 164.293329012 0.00768604978165 -171.104974938 0.542072229631 -178.861730307
9.55 0.679292868591 -2.15664925007 0.371309829528 50.914678107 0.235193620857 -54.5092343798 0.587685381214 -18.7186883613 0.371309829528 50.914678107 0.666334251061 -2.38601460068 0.23364364682 -56.0425182951 0.602941342662 161.569537686 0.235193620857 -54.5092343798 0.23364364682 -56.0425182951 0.94341731319 53.3764227242 0.00759383598686 -176.611621752 0.587685381214 -18.7186883614 0.602941342662 161.569537686 0.00759383598691 -176.611621752 0.539471913831 178.562193941
9.575 0.679134321285 -6.3047541569 0.359000475339 46.2242949236 0.251089317257 -60.1311091255 0.588939181237 -21.3971088576 0.359000475339 46.2242949236 0.666325620754 -6.52827636055 0.249521646451 -61.551155524 0.604042835796 158.849407674 0.251089317257 -60.1311091255 0.249521646451 -61.551155524 0.935219905252 46.9904778155 0.00749995228681 177.940099242 0.588939181237 -21.3971088576 0.604042835796 158.849407674 0.00749995228684 177.940099242 0.536867426669 175.978486859
9.6 0.678487251918 -10.3938764587 0.347002255431 41.580250412 0.266300326559 -65.68336554 0.590193707782 -24.0741866071 0.347002255431 41.580250412 0.665831671777 -10.6119545431 0.264715678968 -67.0071222025 0.605130748291 156.132828727 0.266300326559 -65.68336554 0.264715678968 -67.0071222025 0.926798028164 40.6522412122 0.00740486408084 172.548829164 0.590193707782 -24.0741866071 0.605130748291 156.132828727 0.00740486408086 172.548829164 0.53425960779 173.386906161
9.625 0.677399410541 -14.4256477676 0.335324045637 36.9800535857 0.280851696425 -71.1696770648 0.591447502008 -26.7499889467 0.335324045637 36.9800535857 0.664899579682 -14.6386338563 0.279250668694 -72.4105711989 0.6062057385 153.419684339 0.280851696425 -71.1696770648 0.279250668694 -72.4105711989 0.918198217939 34.3602620866 0.00730898230113 167.213105181 0.591447502008 -26.7499889467 0.6062057385 153.419684339 0.00730898230113 167.213105181 0.531649352257 170.787209015
9.65 0.675914903996 -18.4017631536 0.323971238603 32.4211389471 0.294769977786 -76.5933600875 0.59269919417 -29.4245742758 0.323971238603 32.4211389471 0.663572956023 -18.6099651219 0.293153053779 -77.7622083064 0.607268351401 150.70985365 0.294769977786 -76.5933600875 0.293153053779 -77.7622083064 0.909461531655 28.1129415227 0.00721266676938 161.931394938 0.59269919417 -29.4245742758 0.607268351401 150.70985365 0.00721266676937 161.931394938 0.529037611772 168.179152212
9.675 0.674074241669 -22.323952008 0.312946241638 27.9008953838 0.30808264426 -81.9574782193 0.59394750073 -32.097993889 0.312946241638 27.9008953838 0.661891888003 -22.5276358633 0.30645020533 -83.0631202613 0.608319021619 148.003213093 0.30808264426 -81.9574782193 0.30645020533 -83.0631202613 0.900623894882 21.9085645495 0.00711622998481 156.702126331 0.59394750073 -32.0979938889 0.608319021619 148.003213093 0.00711622998479 156.702126332 0.526425395899 165.56249237
9.7 0.671914444597 -26.1939532888 0.302248938354 23.4166905138 0.32081760593 -87.2649049252 0.595191219707 -34.7702935388 0.302248938354 23.4166905138 0.659893041137 -26.3933453167 0.319169940837 -88.3146560018 0.609358078138 145.299637807 0.32081760593 -87.2649049252 0.319169940837 -88.3146560018 0.891716486628 15.7453275918 0.00701994113927 151.523712886 0.595191219707 -34.7702935388 0.609358078138 145.299637807 0.00701994113924 151.523712886 0.523813773293 162.93698617
9.725 0.669469200702 -30.013494798 0.291877109695 18.9658908514 0.333002808736 -92.5183616023 0.596429224845 -37.4415147464 0.291877109695 18.9658908514 0.657609807962 -30.2087835055 0.33134012317 -93.5183423027 0.610385750148 142.599002815 0.333002808736 -92.5183616023 0.33134012317 -93.5183423027 0.882766142437 9.62136171487 0.00692403019913 146.394575082 0.596429224845 -37.4415147464 0.610385750148 142.599002815 0.0069240301991 146.394575082 0.521203872934 160.302390623
9.75 0.666769051737 -33.784276096 0.281826812504 14.5458782033 0.344665910113 -97.7204410024 0.597660459078 -40.1116958785 0.281826812504 14.5458782033 0.655072488571 -33.9756139811 0.34298833577 -98.6758224904 0.611402173578 139.901184001 0.344665910113 -97.7204410024 0.34298833577 -98.6758224904 0.873795760779 3.53475207711 0.00682869193272 141.313158008 0.597660459078 -40.1116958784 0.611402173578 139.901184001 0.00682869193269 141.313158008 0.518596885349 157.658463374
9.775 0.663841600173 -37.5079546472 0.272092715712 10.1540627195 0.355834021386 -102.873621861 0.598883927647 -42.7808730184 0.272092715712 10.1540627195 0.652308491334 -37.6954598213 0.354141624565 -103.788811198 0.612407397971 137.206058891 0.355834021386 -102.873621861 0.354141624565 -103.788811198 0.864824701694 -2.51644597909 0.00673408979506 136.277945747 0.598883927647 -42.7808730184 0.612407397971 137.206058891 0.00673408979503 136.277945747 0.515994063824 155.004963033
9.8 0.660711726669 -41.1861347999 0.262668395594 5.78789301436 0.366533507749 -107.980278266 0.600098691182 -45.4490806548 0.262668395594 5.78789301437 0.649342544545 -41.369892482 0.364826297446 -108.859060592 0.613401393438 134.513507279 0.366533507749 -107.980278266 0.364826297446 -108.859060592 0.855869169833 -8.53419377844 0.00664035960951 131.28747288 0.600098691182 -45.4490806548 0.613401393438 134.513507279 0.00664035960948 131.28747288 0.51339672559 152.341649558
9.825 0.657401810833 -44.8203592169 0.253546592451 1.4448637587 0.37678983724 -113.042685915 0.601303858927 -48.116352214 0.253546592451 1.4448637587 0.646196911759 -45.0004231217 0.37506777273 -113.888335018 0.614384057474 131.823411707 0.37678983724 -113.042685915 0.375067772729 -113.888335018 0.846942576694 -14.5204587073 0.00654761300793 126.340333497 0.601303858927 -48.116352214 0.614384057474 131.823411707 0.00654761300791 126.340333497 0.510806252975 149.668284659
9.85 0.6539319498 -48.4121024073 0.244719431641 -2.87747888732 0.386627470876 -118.063026572 0.602498582284 -50.7827204599 0.244719431641 -2.87747888732 0.642891605379 -48.5884960416 0.384890468776 -118.878391921 0.61535522152 129.135657826 0.386627470876 -118.063026572 0.384890468776 -118.878391921 0.838055878856 -20.4772057847 0.00645594060855 121.43518805 0.602498582284 -50.7827204599 0.61535522152 129.135657826 0.00645594060853 121.43518805 0.508224094508 146.984632259
9.875 0.650320170608 -51.9627660373 0.23617861218 -7.1815336592 0.396069786924 -123.043391536 0.603682048751 -53.4482177829 0.23617861218 -7.1815336592 0.639444594487 -52.1354839209 0.39431772776 -123.830967546 0.616314657161 126.450134661 0.396069786924 -123.043391536 0.39431772776 -123.830967546 0.829217890623 -26.4063910772 0.00636541492378 116.57076838 0.603682048751 -53.4482177829 0.616314657161 126.450134661 0.00636541492377 116.57076838 0.50565176596 144.290458981
9.9 0.64658263357 -55.4736757356 0.227915566216 -11.4696420835 0.405139033173 -127.985784571 0.604853476328 -56.1128763971 0.227915566216 -11.4696420835 0.635872004111 -55.6426845595 0.403371767444 -128.747766306 0.617262081907 123.766734785 0.405139033173 -127.985784571 0.403371767444 -128.747766306 0.820435570636 -32.3099566641 0.00627609300015 111.745881185 0.604853476328 -56.1128763971 0.617262081907 123.766734785 0.00627609300015 111.745881185 0.503090851312 141.585534695
9.925 0.642733824816 -58.9460791411 0.219921592624 -15.744087608 0.413856301839 -132.892124615 0.606012108414 -58.7767284636 0.219921592624 -15.744087608 0.632188304091 -59.1113188751 0.41207365561 -133.630452977 0.618197164536 121.085354436 0.413856301839 -132.892124615 0.41207365561 -133.630452977 0.811714282899 -38.1898268938 0.00618801879928 106.959410194 0.606012108414 -58.7767284636 0.618197164536 121.085354436 0.00618801879928 106.959410194 0.500543003624 138.869633097
9.95 0.638786736911 -62.3811449746 0.212187967828 -20.0070957201 0.422241522555 -137.764248384 0.607157209216 -61.439806153 0.212187967828 -20.0070957201 0.628406486422 -62.5425299349 0.420443302599 -138.480647111 0.619119529981 118.405893577 0.422241522555 -137.764248384 0.420443302599 -138.480647111 0.80305803321 -44.0479057081 0.00610122533354 102.210317239 0.607157209216 -61.439806153 0.619119529981 118.405893577 0.00610122533354 102.210317239 0.498009945806 136.142532341
9.975 0.63475303705 -65.7799629477 0.204706036741 -24.2608348361 0.430313469586 -142.60391299 0.60828805964 -64.102141661 0.204706036741 -24.2608348361 0.624538230566 -65.9373828343 0.428499468089 -143.299919166 0.620028763781 115.728255908 0.430313469586 -142.60391299 0.428499468089 -143.299919166 0.794469682391 -49.8860748426 0.0060157365728 97.4976424206 0.60828805964 -64.102141661 0.620028763781 115.728255908 0.0060157365728 97.4976424205 0.495493471248 133.404015719
10 0.630643222769 -69.1435443492 0.197467286466 -28.5074177661 0.43808978002 -147.412798568 0.609403953673 -66.7637671873 0.197467286466 -28.5074177661 0.620594056612 -69.2968652628 0.436259778884 -148.089787986 0.620924416105 113.052348855 0.43808978002 -147.412798568 0.436259778884 -148.089787986 0.785951137928 -55.7061927394 0.00593156914016 92.8205035145 0.609403953673 -66.7637671873 0.620924416105 113.052348855 0.00593156914017 92.8205035143 0.492995444319 130.653872393
10.025 0.626466765387 -72.472823177 0.19046340516 -32.7489035796 0.445586980275 -152.192510949 0.610504195214 -69.4247148854 0.19046340516 -32.7489035796 0.61658346651 -72.6218886229 0.443740755029 -152.851719327 0.621806005375 110.37808353 0.445586980275 -152.192510949 0.443740755029 -152.851719327 0.777503525755 -61.5100940346 0.00584873381507 88.1780947329 0.610504195214 -69.4247148854 0.621806005375 110.37808353 0.00584873381508 88.1780947327 0.490517800688 127.891898168
10.05 0.622232241672 -75.7686577036 0.183686328183 -36.9872997151 0.452820518704 -156.944584353 0.61158809533 -72.0850167921 0.183686328183 -36.9872997151 0.612515073808 -75.9132895919 0.450957842061 -157.587125196 0.622673021524 107.70537467 0.452820518704 -156.944584353 0.450957842061 -157.587125196 0.769127343916 -67.2995895023 0.00576723686186 83.5696849481 0.61158809533 -72.0850167921 0.622673021524 107.70537467 0.00576723686187 83.5696849478 0.488062547466 125.117896333
10.075 0.617947454309 -79.0318323876 0.177128273412 -41.2245641879 0.45980480252 -161.670484083 0.61265496991 -74.7447047415 0.177128273412 -41.2245641879 0.60839672246 -79.1718320355 0.457925447596 -162.297363818 0.623524928919 105.034140569 0.45980480252 -161.670484083 0.457925447596 -162.297363818 0.760822599823 -73.0764663575 0.00568708120108 78.9946154493 0.61265496991 -74.7447047415 0.623524928919 105.034140569 0.00568708120109 78.994615449 0.485631763135 122.331678534
10.1 0.61361954188 -82.2630600565 0.170781767379 -45.4626077594 0.466553237593 -166.371609224 0.613704137678 -77.403810269 0.170781767379 -45.4626077594 0.60423559539 -82.3982092025 0.464656980806 -166.983740079 0.624361168975 102.364303001 0.466553237593 -166.371609224 0.464656980806 -166.983740079 0.75258893277 -78.8424888335 0.00560826743981 74.4522972909 0.613704137678 -77.403810269 0.624361168975 102.364303001 0.00560826743981 74.4522972906 0.483227597254 119.533065721
10.125 0.609255079098 -85.4629843062 0.164639663649 -49.7032959391 0.473078269975 -171.049295289 0.614734918547 -80.062364508 0.164639663649 -49.7032959391 0.600038313505 -85.5930461412 0.471164893653 -171.647506335 0.6251811625 99.6957871312 0.473078269975 -171.049295289 0.471164893653 -171.647506335 0.744425723223 -84.5993989634 0.00553079477572 69.942208272 0.614734918547 -80.062364508 0.6251811625 99.6957871312 0.00553079477572 69.9422082717 0.480852269901 116.721889123
10.15 0.604860168018 -88.6321820734 0.158695154686 -53.9484506898 0.479391428239 -175.704816843 0.615746632268 -82.7203980839 0.158695154686 -53.9484506898 0.595811025896 -88.7569022966 0.477460722953 -176.289863477 0.625984311795 97.0285214372 0.479391428239 -175.704816843 0.477460722953 -176.289863477 0.736332190352 -90.3489175031 0.00545466178847 65.463889572 0.615746632268 -82.7203980839 0.625984311795 97.0285214372 0.00545466178847 65.4638895718 0.478508070847 113.897991297
10.175 0.600440520999 -91.7711663485 0.152941778244 -58.199851707 0.485503365937 179.660609958 0.616738597362 -85.3779410068 0.152941778244 -58.199851707 0.591559491934 -91.8902742556 0.48355513258 179.088037808 0.626770002545 94.362437619 0.485503365937 179.660609958 0.48355513258 179.088037808 0.728307479115 -96.0927449433 0.00537986713031 61.0169420575 0.616738597362 -85.3779410068 0.626770002545 94.362437619 0.00537986713031 61.0169420573 0.476197358423 111.061227205
10.2 0.596001536086 -94.8803890091 0.147373419192 -62.45923714 0.491423903638 175.04582489 0.617710130298 -88.0350225654 0.147373419192 -62.45923714 0.587289155951 -94.9935986187 0.489457955259 174.485095647 0.627537605518 91.6974705175 0.491423903638 175.04582489 0.489457955259 174.485095647 0.720350738105 -101.832562561 0.00530641012633 56.6010222614 0.617710130298 -88.0350225654 0.627537605518 91.6974705175 0.00530641012633 56.6010222613 0.473922558063 108.211465355
10.225 0.591548365504 -97.96024376 0.141984307532 -66.7283036129 0.497162070135 170.449721271 0.618660544899 -90.6916712225 0.141984307532 -66.7283036129 0.583005215142 -98.0672549859 0.495178233563 169.900255507 0.628286478112 89.0335580327 0.497162070135 170.449721271 0.495178233563 169.900255507 0.71246118926 -107.570033467 0.00523429129358 52.2158380321 0.618660544899 -90.6916712225 0.628286478112 89.0335580327 0.00523429129358 52.215838032 0.471686160492 105.348588975
10.25 0.587085977865 -101.011069174 0.136769013226 -71.0087053974 0.502726142541 165.871243664 0.619589151956 -93.3479145147 0.136769013226 -71.0087053974 0.578712681304 -101.111569051 0.500724259794 165.332508672 0.629015965753 86.3706410475 0.502726142541 165.871243664 0.500724259794 165.332508672 0.704638190418 -113.306803607 0.00516351278676 47.8611438383 0.619589151956 -93.3479145147 0.629015965753 86.3706410475 0.00516351278677 47.8611438382 0.469490719547 102.472497229
10.275 0.582619214651 -104.033151837 0.131722438372 -75.3020525725 0.508123685061 161.309385675 0.620495259019 -96.0037789565 0.131722438372 -75.3020525725 0.57441643693 -104.126815804 0.506103614572 160.780890712 0.629725403186 83.7086633541 0.508123685061 161.309385675 0.506103614572 160.780890712 0.69688129162 -119.04450268 0.00509407877702 43.5367357155 0.620495259019 -96.0037789565 0.629725403186 83.7086633541 0.00509407877702 43.5367357156 0.467338849593 99.5831064721
10.3 0.57815284148 -107.026729597 0.126839807155 -79.6099079972 0.513361586308 156.763187853 0.621378170361 -98.6592899493 0.126839807155 -79.6099079972 0.570121286177 -107.113222853 0.511323203968 156.244479942 0.630414115659 81.0475715869 0.513361586308 156.763187853 0.511323203968 156.244479942 0.68919028593 -124.784744919 0.00502599576919 39.2424458341 0.621378170361 -98.6592899493 0.630414115659 81.0475715869 0.00502599576919 39.2424458341 0.465233222512 96.6803515298
10.325 0.573691594601 -109.991994941 0.122116653916 -83.9337829007 0.518446095093 152.231735688 0.622237187088 -101.314471696 0.122116653916 -83.9337829007 0.565832001107 -110.070973864 0.516389295135 151.722395915 0.631081420031 78.3873151583 0.518446095093 152.231735688 0.516389295135 151.722395915 0.681565255486 -130.529129721 0.00495927286201 34.9781366671 0.622237187088 -101.314471696 0.631081420031 78.3873151583 0.00495927286201 34.9781366672 0.463176564263 93.7641870034
10.35 0.569240222991 -112.929098496 0.117548809611 -88.2751308826 0.523382854639 147.71415771 0.62307160739 -103.969347119 0.117548809611 -88.2751308826 0.561553363605 -113.000212153 0.521307550375 147.213797945 0.63172662581 75.7278462013 0.523382854639 147.71415771 0.521307550375 147.213797945 0.674006613393 -136.279242047 0.00489392195449 30.7436947391 0.62307160739 -103.969347119 0.63172662581 75.7278462013 0.00489392195449 30.7436947392 0.461171650957 90.8345885883
10.375 0.564803526417 -115.838152688 0.113132386892 -92.6353400931 0.528176935248 143.209623688 0.623880726908 -106.623937793 0.113132386892 -92.6353400931 0.557290203273 -115.901044428 0.526083059659 142.717883669 0.632349036142 73.0691195158 0.528176935248 143.209623688 0.526083059659 142.717883669 0.666515141982 -142.036652585 0.0048299579012 26.5390239357 0.623880726908 -106.623937793 0.632349036142 73.0691195158 0.0048299579012 26.5390239358 0.459221304467 87.8915543986
10.4 0.560386389701 -118.719235572 0.108863763946 -97.0157233511 0.53283286542 138.717342929 0.624663839209 -109.278263868 0.108863763946 -97.0157233511 0.553047431567 -118.773544709 0.530720371627 138.23388767 0.632947948757 70.4110925204 0.53283286542 138.717342929 0.530720371627 138.23388767 0.659092027885 -147.802917595 0.00476739861831 22.3640383599 0.62466383921 -109.278263868 0.632947948757 70.4110925204 0.00476739861831 22.36403836 0.457328387524 84.9351062869
10.425 0.555993813439 -121.572394852 0.104739567231 -101.41750594 0.537354661495 134.236562665 0.625420236371 -111.932344017 0.104739567231 -101.41750594 0.548830072394 -121.617758453 0.535223523113 133.761080142 0.633522656888 67.7537252079 0.537354661495 134.236562665 0.535223523113 133.761080142 0.6517388943 -153.579578413 0.00470626514151 18.218654725 0.625420236371 -111.932344017 0.633522656888 67.7537252079 0.00470626514152 18.2186547251 0.455495798312 81.9652911485
10.45 0.551630941334 -124.397652123 0.100756653175 -105.841810813 0.541745855874 129.766566541 0.62614920964 -114.586195378 0.100756653175 -105.841810813 0.544643289323 -124.433706895 0.539596067261 129.298765621 0.634072450168 65.0969801066 0.541745855874 129.766566541 0.539596067261 129.298765621 0.644457830721 -159.368160548 0.00464658163659 14.1027842846 0.62614920964 -114.586195378 0.634072450168 65.0969801066 0.00464658163659 14.1027842846 0.453726464534 78.9821821975
10.475 0.547303084264 -127.195007345 0.0969120889037 -110.289640936 0.546009523898 125.306673177 0.626850050177 -117.239833502 0.0969120889037 -110.289640936 0.540492409526 -127.221391632 0.543841100309 124.846281769 0.634596615518 62.4408222439 0.546009523898 125.306673177 0.543841100309 124.846281769 0.637251420359 -165.170172314 0.00458837536283 10.0163243054 0.626850050177 -117.239833502 0.634596615518 62.4408222439 0.00458837536283 10.0163243054 0.452023336949 75.9858802004
10.5 0.543015741161 -129.964443583 0.0932031320191 -114.761858497 0.55014830946 120.856234828 0.627522049878 -119.893272317 0.0932031320191 -114.761858497 0.536382944506 -129.98079947 0.547961287124 120.402998219 0.635094438031 59.785219115 0.55014830946 120.856234828 0.547961287124 120.402998219 0.630122765355 -170.987102953 0.0045316765891 5.95914910687 0.627522049878 -119.893272317 0.635094438031 59.785219115 0.0045316765891 5.95914910688 0.450389382392 72.9765146547
10.525 0.538774616742 -132.705932022 0.0896272094513 -119.25916074 0.554164449456 116.414636108 0.628164502241 -122.546524087 0.0896272094513 -119.25916074 0.532320607646 -132.711907558 0.551958885573 115.968315473 0.635565201865 57.1301406545 0.554164449456 116.414636108 0.551958885573 115.968315473 0.623075509857 -176.820420177 0.00447651846231 1.93110070095 0.628164502241 -122.546524087 0.635565201865 57.1301406545 0.00447651846231 1.93110070094 0.448827576254 69.9542448943
10.55 0.534585636066 -135.419437288 0.0861818954112 -123.782052201 0.558059797149 111.981292795 0.62877670331 -125.199599384 0.0861818954112 -123.782052201 0.528311328546 -135.41468881 0.55583576983 111.541663857 0.636008191138 54.4755592106 0.558059797149 111.981292795 0.55583576983 111.541663857 0.61611386089 177.32843293 0.00442293682752 -2.068020914 0.62877670331 -125.199599384 0.636008191138 54.4755592106 0.00442293682751 -2.06802091403 0.44734089446 66.9192611085
10.575 0.530454955888 -138.104923073 0.0828648884629 -128.330813193 0.561835844552 107.555650706 0.629357952647 -127.852507064 0.0828648884629 -128.330813193 0.524361264108 -138.089117642 0.559593452708 107.122502526 0.636422690845 51.8214495227 0.561835844552 107.555650706 0.559593452708 107.122502526 0.609242606913 171.458041702 0.00437096999925 -6.0384677328 0.629357952647 -127.852507064 0.636422690845 51.8214495227 0.00437096999925 -6.03846773283 0.445932304943 63.8717852555
10.6 0.52638897272 -140.762358085 0.0796739877682 -132.905464462 0.565493743916 103.137184625 0.629907554363 -130.50525425 0.0796739877682 -132.905464462 0.520476806274 -140.735176021 0.563233107098 102.710318518 0.636807987794 49.1677887006 0.565493743916 103.137184625 0.563233107098 102.710318518 0.602467133821 165.567024443 0.00432065848337 -9.9805539019 0.629907554363 -130.50525425 0.636807987794 49.1677887006 0.00432065848337 -9.98055390193 0.444604758644 60.8120718544
10.625 0.522394327488 -143.391722314 0.0766070685834 -137.505728044 0.569034328415 98.7253972967 0.630424818176 -133.157846315 0.0766070685834 -137.505728044 0.516664586299 -143.352859827 0.56675558663 98.304625853 0.637163371566 46.5145562061 0.569034328415 98.7253972967 0.56675558663 98.304625853 0.595793438111 159.654037787 0.00427204464918 -13.8946659384 0.630424818176 -133.157846315 0.637163371566 46.5145562061 0.00427204464918 -13.8946659384 0.443361180064 57.7404086388
10.65 0.51847790666 -145.993013623 0.0736620571371 -142.1309845 0.572458132116 94.319818469 0.630909060503 -135.810286881 0.0736620571371 -142.1309845 0.512931475423 -145.94218551 0.570161445618 93.9049646698 0.637488135503 43.8617338351 0.572458132116 94.319818469 0.570161445618 93.9049646698 0.589228136807 153.717782926 0.00422517235176 -17.7812728657 0.630909060503 -135.810286881 0.637488135503 43.8617338351 0.00422517235176 -17.7812728657 0.442204457406 54.6571170539
10.675 0.514646839685 -148.566254623 0.0708369050796 -146.780226877 0.575765409317 89.9200039775 0.631359605577 -138.462577814 0.0708369050796 -146.780226877 0.509284581797 -148.503197041 0.573450958384 89.5109004008 0.637781577728 41.2093057015 0.575765409317 89.9200039775 0.573450958384 89.5109004008 0.582778473677 147.757012731 0.00418008650495 -21.6409360957 0.631359605577 -138.462577814 0.637781577728 41.2093057015 0.00418008650496 -21.6409360956 0.441137432358 51.5625525821
10.7 0.510908492584 -151.111499833 0.068129563775 -151.452011958 0.578956153328 85.5255348714 0.631775786589 -141.114719232 0.068129563775 -151.452011958 0.505731243472 -151.035973093 0.576624138041 85.1220229752 0.638043002196 38.5572582214 0.578956153328 85.5255348714 0.576624138041 85.1220229752 0.576452321201 141.770539815 0.00413683260622 -25.4743188619 0.631775786589 -141.114719232 0.638043002196 38.5572582214 0.00413683260623 -25.4743188618 0.440162889547 48.4571048795
10.725 0.507270457525 -153.628843059 0.065537958797 -156.144409606 0.58203011477 81.1360165714 0.632156946841 -143.766709507 0.065537958797 -156.144409606 0.50227901732 -153.540634442 0.579680754795 80.7379460473 0.638271719783 35.9055800971 0.58203011477 81.1360165714 0.579680754795 80.7379460473 0.570258177669 135.757245533 0.00409545621525 -29.2821949842 0.632156946841 -143.766709507 0.638271719783 35.9055800971 0.00409545621526 -29.2821949841 0.43928354575 45.3411977116
10.75 0.503740538211 -156.118424955 0.0630599651 -160.854951248 0.584986819441 76.7510780527 0.632502440916 -146.41854529 0.0630599651 -160.854951248 0.498935663702 -156.0173515 0.582620353838 76.3583062438 0.638467049412 33.254262301 0.584986819441 76.7510780527 0.582620353838 76.3583062438 0.56420515877 129.716089916 0.00405600238936 -33.0654567237 0.632502440916 -146.41854529 0.638467049412 33.254262301 0.00405600238937 -33.0654567236 0.438502038913 42.215288672
10.775 0.500326730955 -158.580440683 0.0606933834521 -165.580578837 0.587825585828 72.3703710472 0.632811635853 -149.07022152 0.0606933834521 -165.580578837 0.495709126754 -158.466351914 0.585442272876 71.9827624236 0.638628319213 30.6032980585 0.587825585828 72.3703710472 0.585442272876 71.9827624236 0.558302982958 123.646122516 0.00401851507976 -36.8251214715 0.632811635853 -149.07022152 0.638628319213 30.6032980585 0.00401851507978 -36.8251214714 0.437820917041 39.0798686761
10.8 0.497037201292 -161.015147596 0.0584359188417 -170.317595853 0.590545542279 67.9935692582 0.633083912324 -151.721731456 0.0584359188417 -170.317595853 0.492607510182 -160.887928143 0.588145659341 67.6109949451 0.638754867721 27.9526828295 0.590545542279 67.9935692582 0.588145659341 67.6109949451 0.552561949905 117.546494077 0.00398303649427 -40.5623370056 0.633083912324 -151.721731456 0.638754867721 27.9526828295 0.00398303649429 -40.5623370055 0.43724262706 35.9354612202
10.825 0.493880256077 -163.42287282 0.0562851616901 -175.061622152 0.593145643882 63.6203675804 0.633318665823 -154.373066703 0.0562851616901 -175.061622152 0.4896390485 -163.282444889 0.590729487324 63.2427049328 0.638846045118 25.3024142885 0.593145643882 63.6203675804 0.590729487324 63.2427049329 0.546992911358 111.416468958 0.00394960643331 -44.2783850506 0.633318665823 -154.373066703 0.638846045118 25.3024142885 0.00394960643332 -44.2783850505 0.436769503714 32.7826213992
10.85 0.490864311009 -165.804020645 0.0542385728129 -179.807554583 0.595624689076 59.250481319 0.633515307835 -157.024217247 0.0542385728129 -179.807554583 0.486812073687 -165.650346275 0.593192574229 58.8776135394 0.638901214499 22.6524923019 0.595624689076 59.250481319 0.593192574229 58.8776135394 0.541607233749 105.255438143 0.00391826160765 -47.9746828864 0.633515307835 -157.024217247 0.638901214499 22.6524923019 0.00391826160766 -47.9746828863 0.436403758599 29.6219346815
10.875 0.487997853633 -168.159079548 0.0522934731655 175.450464606 0.597981335988 54.8836454 0.633673267011 -159.675171491 0.0522934731655 175.450464606 0.484134977337 -167.992162603 0.595533597182 54.5154611943 0.638919753186 20.0029189031 0.597981335988 54.8836454 0.595533597182 54.5154611943 0.536416752018 99.0629326802 0.00388903494802 -51.6527827744 0.633673267011 -159.675171491 0.638919753186 20.0029189031 0.00388903494802 -51.6527827745 0.436147469409 26.4540154411
10.9 0.485289401922 -170.488628725 0.050447039464 170.719069648 0.600214118491 50.5196135677 0.63379199033 -162.325916299 0.050447039464 170.719069648 0.481616168416 -170.308516565 0.597751109158 50.1560068346 0.638901054067 17.3536982637 0.600214118491 50.5196135677 0.597751109158 50.1560068346 0.531433714195 92.8386372996 0.00386195491781 -55.3143690105 0.63379199033 -162.325916299 0.638901054067 17.3536982637 0.0038619549178 -55.3143690105 0.436002569507 23.2795052494
10.925 0.482747458638 -172.793343958 0.0486963067873 166.005681662 0.602321461976 46.1581575603 0.633870944246 -164.976437047 0.0486963067873 166.005681662 0.47926402687 -172.600128714 0.599843554831 45.7990271127 0.638844526971 14.7048366616 0.602321461976 46.1581575603 0.599843554831 45.7990271127 0.526670716487 86.5824039476 0.00383704484191 -58.9612524627 0.633870944246 -164.976437047 0.638844526971 14.7048366616 0.00383704484188 -58.9612524627 0.435970837895 20.0990709362
10.95 0.480380461771 -175.074002635 0.047038179227 161.318506146 0.604301698779 41.7990662602 0.633909615822 -167.626717664 0.047038179227 161.318506146 0.477086853407 -174.867822044 0.601809286094 41.4443155726 0.638749600063 12.0563424451 0.604301698779 41.7990662602 0.601809286094 41.4443155726 0.522140628777 80.2942649044 0.0038143222653 -62.5953625224 0.633909615822 -167.626717664 0.638749600063 12.0563424451 0.00381432226525 -62.5953625224 0.436053889688 16.9134024291
10.975 0.478196731462 -177.331487758 0.0454694495535 156.666516545 0.606153083237 37.4421448134 0.633907513847 -170.276740697 0.0454694495535 156.666516545 0.475092815895 -177.112525486 0.603646577204 37.0916817936 0.638615721273 9.40822599098 0.606153083237 37.4421448134 0.603646577204 37.0916817936 0.517856510709 73.9744451252 0.00379379835609 -66.2187364734 0.633907513847 -170.276740697 0.638615721273 9.40822599098 0.00379379835601 -66.2187364734 0.436253167179 13.7232103875
11 0.476204413944 -179.566790756 0.0439868287028 152.059423358 0.607873806285 33.0872137125 0.633864169928 -172.926487366 0.0439868287027 152.059423358 0.473289892932 -179.335276171 0.605353639484 32.740950494 0.638442359739 6.7604996595 0.607873806285 33.0872137125 0.605353639484 32.740950494 0.513831518781 67.6233734045 0.00377547736756 -69.8335063747 0.633864169928 -172.926487366 0.638442359739 6.7604996595 0.00377547736747 -69.8335063746 0.436569931574 10.5292236477
11.025 0.474411423114 178.218987052 0.042586985668 147.507628722 0.609462009532 28.7341078418 0.63377913956 -175.575937626 0.042586985668 147.507628722 0.471685815259 178.462779716 0.606928635502 28.3919605941 0.638229007265 4.11317774208 0.609462009532 28.7341078418 0.606928635502 28.3919605941 0.510078805194 61.2416919418 0.00375935617385 -73.4418836468 0.63377913956 -175.575937626 0.638229007265 4.11317774208 0.00375935617374 -73.4418836464 0.437005255495 7.33218650242
11.05 0.472825380529 176.024634514 0.0412665981071 143.022166755 0.610915798722 24.3826754801 0.633652003175 -178.225070233 0.0412665981071 143.022166755 0.470288005809 176.280387618 0.608369692646 24.0445642339 0.637975179795 1.46627640395 0.610915798722 24.3826754801 0.608369692646 24.0445642339 0.506611409467 54.8302638834 0.00374542389241 -77.0461416504 0.633652003175 -178.225070233 0.637975179795 1.46627640396 0.00374542389228 -77.0461416499 0.437560016303 4.13285583709
11.075 0.47145355465 173.848832322 0.0400224136597 138.614630102 0.612233256464 20.0327772614 0.633482367157 179.126137183 0.0400224136596 138.614630102 0.469103519265 174.116186941 0.609674915971 19.6986257462 0.637680418883 -1.18018637994 0.612233256464 20.0327772614 0.609674915971 19.6986257462 0.503442144186 48.3901784227 0.00373366160511 -80.6485966383 0.633482367157 179.126137183 0.637680418883 -1.18018637994 0.00373366160497 -80.6485966376 0.438234890326 0.931998151855
11.1 0.470302800313 171.690156416 0.0388513216257 134.297082925 0.613412454138 15.684285093 0.633269864829 176.477708046 0.0388513216257 134.297082925 0.468138982111 171.968715118 0.610842400218 15.3540205836 0.637344293167 -3.82619089584 0.613412454138 15.684285093 0.610842400218 15.3540205836 0.500583476489 41.9227530833 0.00372404218739 -84.2515875432 0.633269864829 176.477708046 0.637344293167 -3.82619089584 0.00372404218725 -84.2515875423 0.439030348037 -2.26961350306
11.125 0.469379499443 169.547083175 0.0377504342932 130.081959988 0.614451462841 11.3370810323 0.633014157411 173.829666758 0.0377504342932 130.081959988 0.467400534231 169.836413429 0.611870240888 11.0106342032 0.636966399835 -6.47171576925 0.614451462841 11.3370810323 0.611870240888 11.0106342032 0.498047407184 35.429532864 0.00371653025154 -87.8574551334 0.63301415741 173.829666758 0.636966399835 -6.47171576925 0.00371653025142 -87.8574551325 0.439946650232 -5.47120264721
11.15 0.468689504109 167.417996379 0.0367171768221 125.981950384 0.615348363257 6.99105612681 0.632714934938 171.182038616 0.036717176822 125.981950384 0.466893773115 167.717634583 0.612756544231 6.66836090986 0.636546366071 -9.11673805059 0.615348363257 6.99105612681 0.612756544231 6.66836090986 0.495845349549 28.9122860136 0.00371108220712 -91.4685211146 0.632714934938 171.182038616 0.636546366071 -9.11673805059 0.00371108220703 -91.4685211139 0.440983845237 -8.67199251358
11.175 0.468238082995 165.301195922 0.035749384188 122.009862868 0.616101254323 2.64610922119 0.63237191715 168.534849731 0.035749384188 122.009862868 0.466623701793 165.610651984 0.613499436031 2.32710266602 0.636083850479 -11.7612333088 0.616101254323 2.64610922119 0.613499436031 2.32710266601 0.493988009981 22.3729963095 0.00370764643684 -95.0870677745 0.63237191715 168.534849731 0.636083850479 -11.7612333088 0.00370764643681 -95.0870677742 0.442141767182 -11.8712091838
11.2 0.468029872407 163.194908166 0.0348454032382 118.17846775 0.616708260567 -1.69785426089 0.631984854339 165.888126939 0.0348454032383 118.17846775 0.466594681571 163.513670566 0.614097069072 -2.01323212763 0.635578544481 -14.4051757329 0.616708260567 -1.69785426089 0.614097069072 -2.01323212763 0.492485272673 15.813851845 0.00370616358247 -98.715318763 0.631984854339 165.888126939 0.635578544481 -14.4051757329 0.00370616358251 -98.7153187634 0.443420035328 -15.0680846833
11.225 0.468068832829 161.097297783 0.0340041973762 114.500308019 0.617167538001 -6.04092355094 0.631553528156 163.241897711 0.0340041973762 114.500308019 0.466810390565 161.424839032 0.614547629137 -6.35272986925 0.635030173663 -17.0485382424 0.617167538001 -6.04092355095 0.614547629137 -6.35272986925 0.491346090394 9.23723047164 0.00370656693027 -102.355421565 0.631553528157 163.241897711 0.635030173663 -17.0485382424 0.00370656693039 -102.355421566 0.444818054464 -18.261860005
11.25 0.468358212 159.006480886 0.0332254507315 110.987470155 0.617477278459 -10.383183775 0.631077752385 160.596190061 0.0332254507316 110.987470156 0.467273788982 159.342263276 0.614849339471 -10.6914730007 0.634438499087 -19.6912926061 0.617477278459 -10.383183775 0.614849339471 -10.6914730007 0.490578383224 2.64568219044 0.00370878288166 -106.009432158 0.631077752385 160.596190061 0.634438499087 -19.6912926061 0.00370878288187 -106.009432161 0.446335016357 -21.4517880321
11.275 0.468900515344 156.920539196 0.032509667829 107.651303427 0.617635712294 -14.7247171843 0.630557373664 157.951032449 0.0325096678291 107.651303427 0.46798709192 157.264020723 0.615000463571 -15.0295412463 0.633803318534 -22.3334095694 0.617635712294 -14.7247171844 0.615000463571 -15.0295412463 0.490188946772 -3.95809106599 0.00371273149032 -109.679302263 0.630557373664 157.951032449 0.633803318534 -22.3334095694 0.00371273149063 -109.679302268 0.447969902217 -24.6371363324
11.3 0.469697484421 154.837534947 0.0318582637195 104.502076019 0.617641109351 -19.0656043624 0.629992272169 155.306453678 0.0318582637197 104.502076019 0.468951750329 155.188175289 0.614999306265 -19.3670128299 0.633124467687 -24.9748589915 0.617641109351 -19.0656043624 0.614999306265 -19.3670128299 0.49018337097 -10.5712576911 0.00371832704382 -113.366869491 0.62999227217 155.306453678 0.633124467686 -24.9748589915 0.00371832704422 -113.366869499 0.44972148615 -27.8171897989
11.325 0.470750083906 152.75552622 0.0312736382842 101.548558195 0.617491778179 -23.4059253896 0.629382362256 152.662482799 0.0312736382846 101.548558195 0.470168440569 153.112792628 0.614844213003 -23.7039656526 0.632401821233 -27.6156099904 0.617491778179 -23.4059253896 0.614844213003 -23.7039656526 0.490565970023 -17.1908800228 0.0037254786647 -117.073850554 0.629382362256 152.662482799 0.632401821233 -27.6156099904 0.00372547866518 -117.073850564 0.451588339555 -30.9912531136
11.35 0.472058497376 150.672582355 0.0307592270535 98.7975278135 0.617186063451 -27.7457609474 0.628727593044 150.019148998 0.0307592270539 98.7975278141 0.4716370628 151.035955349 0.614533567352 -28.0404784117 0.631635293888 -30.2556310983 0.617186063451 -27.7457609474 0.614533567352 -28.0404784117 0.491339723524 -23.8139385715 0.00373409090448 -120.801837602 0.628727593044 150.019148998 0.631635293888 -30.2556310983 0.003734090905 -120.801837615 0.453568836389 -34.1586530168
11.375 0.473622131985 148.586799102 0.0303195196028 96.2532032369 0.616722341611 -32.085193338 0.628027948963 147.376481492 0.0303195196033 96.2532032376 0.473356748223 148.955777834 0.614065786698 -32.3766316376 0.630824841318 -32.8948904247 0.616722341611 -32.085193338 0.614065786698 -32.3766316375 0.492506228201 -30.4373560704 0.00374406430262 -124.552297608 0.628027948963 147.376481492 0.630824841318 -32.8948904247 0.00374406430316 -124.552297624 0.455661159257 -37.3187403641
11.4 0.475439631863 146.49631317 0.0299600357517 93.9166236847 0.616099014804 -36.4243073976 0.627283450244 144.734509415 0.0299600357523 93.9166236854 0.475325874963 146.870420363 0.61343931621 -36.7125086272 0.629970460961 -35.5333558298 0.616099014804 -36.4243073976 0.61343931621 -36.7125086271 0.494065659172 -37.0580205738 0.00375529588312 -128.326574585 0.627283450245 144.734509415 0.629970460961 -35.5333558298 0.00375529588363 -128.326574602 0.457863306239 -40.4708919608
11.425 0.477508899866 144.399315869 0.0296872499207 91.7850172443 0.615314503173 -40.7631912778 0.626494153364 142.093261707 0.0296872499212 91.785017245 0.477542092166 144.778102214 0.612652621148 -41.0481962465 0.629072192739 -38.1709951053 0.615314503173 -40.7631912778 0.612652621148 -41.0481962465 0.496016739168 -43.6728068783 0.00376767956208 -132.125894329 0.626494153365 142.093261707 0.629072192739 -38.1709951053 0.00376767956252 -132.125894346 0.460173098385 -43.6145121638
11.45 0.479827127099 142.29406555 0.0295084557087 89.8512200572 0.614367235672 -45.101937067 0.625660151432 139.452766995 0.0295084557092 89.8512200577 0.480002351697 142.677113502 0.611704177665 -45.383785577 0.628130119645 -40.8077761652 0.614367235672 -45.1019370671 0.611704177665 -45.383785577 0.498356713804 -50.2785956413 0.00378110644224 -135.951371273 0.625660151433 139.452766995 0.628130119644 -40.8077761652 0.00378110644256 -135.951371288 0.462588187793 -46.7490342464
11.475 0.482390829424 140.178898602 0.029431566622 88.1032321151 0.613255639577 -49.4406412262 0.624781574529 136.813053472 0.0294315666223 88.1032321154 0.482702946622 140.565825505 0.610592462272 -49.7193723765 0.627144368198 -43.4436672439 0.613255639577 -49.4406412262 0.610592462272 -49.7193723765 0.501081330792 -56.872289695 0.0037954649733 -139.804016953 0.624781574529 136.813053472 0.627144368198 -43.4436672439 0.00379546497347 -139.804016963 0.465106066182 -49.8739215239
11.5 0.485195890036 138.052238828 0.029464855168 86.5240085013 0.611978128944 -53.7794048085 0.623858589983 134.174148777 0.029464855168 86.5240085013 0.485639555518 138.442699336 0.609315940212 -54.0550573277 0.62611510877 -46.078637103 0.611978128944 -53.7794048085 0.609315940212 -54.0550573277 0.504184820986 -63.4508272111 0.00381064096124 -143.68474953 0.623858589983 134.174148777 0.62611510877 -46.078637103 0.00381064096125 -143.68474953 0.467724073883 -52.9886682431
