! Generated from PyAEDT SolutionData; AEDT ExportNetworkData workaround
# GHz S MA R 50
9 0.235167199832 144.017126162 0.518395785057 -176.310038432 0.49407954117 -95.2808590725 0.657151128094 46.1577920401 0.518395785057 -176.310038432 0.235812562383 144.114822473 0.493595964583 -95.3320616897 0.65728324884 -133.87815181 0.49407954117 -95.2808590725 0.493595964583 -95.3320616897 0.715714914048 177.809829322 0.000769775406781 120.92598996 0.657151128094 46.1577920401 0.65728324884 -133.87815181 0.00076977540678 120.92598996 0.368958714608 -115.429561179
9.025 0.232900543139 141.09225676 0.518389154472 -179.122780978 0.495697426855 -99.7088575394 0.656745438916 43.2511946078 0.518389154472 -179.122780978 0.233526522355 141.191802563 0.495207135603 -99.7602453932 0.656893014909 -136.784141983 0.495697426855 -99.7088575394 0.495207135603 -99.7602453932 0.713482499066 171.714297906 0.000772084395823 116.082130803 0.656745438916 43.2511946078 0.656893014909 -136.784141983 0.000772084395823 116.082130803 0.370373365033 -118.145398754
9.05 0.230648673848 138.171956721 0.518384676116 178.071305713 0.497294536793 -104.128657188 0.656336281634 40.3526302625 0.518384676116 178.071305713 0.231254671292 138.273209746 0.496797331855 -104.180236093 0.656499561152 -139.682109922 0.497294536793 -104.128657188 0.496797331855 -104.180236093 0.711262901462 165.628505389 0.000774224684606 111.248634988 0.656336281634 40.3526302625 0.656499561152 -139.682109922 0.000774224684607 111.248634988 0.371793557795 -120.855893822
9.075 0.228410948698 135.255673356 0.518381241387 175.271985372 0.498872836363 -108.540281009 0.655923647689 37.4619480625 0.518381241387 175.271985372 0.228996363542 135.358481819 0.498368509583 -108.59205609 0.656102886414 -142.572207212 0.498872836363 -108.540281009 0.498368509583 -108.59205609 0.709054655389 159.552725453 0.000776192800725 106.42586183 0.655923647689 37.4619480625 0.656102886414 -142.572207212 0.000776192800726 106.425861829 0.37321923952 -123.561149553
9.1 0.226186620394 132.342840696 0.518377618606 172.479038076 0.500434403264 -112.943768529 0.65550752639 34.5790008022 0.518377618606 172.479038076 0.22675085008 132.447042692 0.499922737047 -112.995744175 0.655702987403 -145.454581766 0.500434403264 -112.943768529 0.499922737047 -112.995744175 0.706855804919 153.487181644 0.000777985370315 101.614177714 0.65550752639 34.5790008022 0.655702987403 -145.454581766 0.000777985370315 101.614177714 0.374650359768 -126.261267502
9.125 0.22397483548 129.432880634 0.518372462472 169.69226067 0.50198141918 -117.339176518 0.655087905325 31.7036448759 0.518372462472 169.69226067 0.224517276812 129.538303584 0.501462186215 -117.391356337 0.655299859002 -148.329377966 0.50198141918 -117.339176518 0.501462186215 -117.391356337 0.704663967992 147.432045909 0.000779599134681 96.8139579638 0.655087905325 31.7036448759 0.655299859002 -148.329377966 0.000779599134681 96.8139579637 0.376086870978 -128.956347681
9.15 0.2217746333 126.525204126 0.518364322394 166.911467067 0.503516160789 -121.72657964 0.654664770696 28.8357401479 0.518364322394 166.911467067 0.222294683944 126.631664263 0.502989123814 -121.778966416 0.654893494509 -151.196736795 0.503516160789 -121.72657964 0.502989123814 -121.778966416 0.70247639345 141.387437012 0.00078103096575 92.0255886073 0.654664770696 28.8357401479 0.654893494509 -151.196736795 0.000781030965749 92.0255886073 0.37752872839 -131.646488628
9.175 0.219584945938 123.619212422 0.518351649972 164.136488437 0.50504099024 -126.106071035 0.654238107603 25.9751498271 0.518351649972 164.136488437 0.220082006308 123.726514286 0.504505901828 -126.158666676 0.654483885827 -154.056795965 0.50504099024 -126.106071035 0.504505901828 -126.158666676 0.700290011456 135.353418883 0.000782277880331 87.2494681047 0.654238107603 25.9751498271 0.654483885827 -154.056795965 0.00078227788033 87.2494681049 0.378975889983 -134.331787472
9.2 0.217404599018 120.714298277 0.518332806205 161.367173216 0.506558345174 -130.47776283 0.653807900263 23.1217403475 0.518332806205 161.367173216 0.217878074529 120.822234228 0.506014947549 -130.53056832 0.654071023587 -156.909690037 0.506558345174 -130.47776283 0.506014947549 -130.53056832 0.698101477697 129.329998941 0.000783337053322 82.4860090523 0.653807900263 23.1217403475 0.654071023587 -156.909690037 0.000783337053322 82.4860090525 0.380428316394 -137.012339993
9.225 0.215232313238 117.809847123 0.518306069157 158.603386996 0.508070728378 -134.841786584 0.653374132201 20.2753812536 0.518306069157 158.603386996 0.215681616896 117.918196844 0.507518753266 -134.89480193 0.653654897251 -159.755550532 0.508070728378 -134.841786584 0.507518753266 -134.89480193 0.695907211851 123.31712643 0.000784205829997 77.7356399031 0.653374132201 20.2753812536 0.653654897251 -159.755550532 0.000784205829996 77.7356399033 0.381885970843 -139.688240681
9.25 0.213066706521 114.905238178 0.518269642702 155.845012348 0.509580697159 -139.198293663 0.652936786394 17.4359450903 0.518269642702 155.845012348 0.213491261836 115.013768166 0.509019865668 -139.251517846 0.653235495166 -162.594506046 0.509580697159 -139.198293663 0.509019865668 -139.251517846 0.693703430849 117.314690814 0.00078488173763 72.9988067385 0.652936786394 17.4359450903 0.653235495166 -162.594506046 0.00078488173763 72.9988067387 0.383348819053 -142.359582794
9.275 0.21090629668 111.999845453 0.518221666472 153.091948685 0.5110908525 -143.547455549 0.652495845389 14.6033072976 0.518221666472 153.091948685 0.211305540875 112.108308493 0.510520875026 -143.600886469 0.652812804602 -165.426682348 0.5110908525 -143.547455549 0.510520875026 -143.600886469 0.691486177499 111.322520228 0.000785362496764 68.2759751201 0.652495845389 14.6033072976 0.652812804602 -165.426682348 0.000785362496764 68.2759751202 0.384816829172 -145.02645841
9.3 0.208749504466 109.093038656 0.518160226543 150.344112273 0.512603828076 -147.889464083 0.652051291401 11.7773461103 0.518160226543 150.344112273 0.209122891968 109.201173274 0.51202440424 -147.94309851 0.652386811763 -168.25220248 0.512603828076 -147.889464083 0.51202440424 -147.94309851 0.689251345034 105.34038003 0.00078564603249 63.5676320529 0.652051291401 11.7773461103 0.652386811763 -168.25220248 0.00078564603249 63.5676320529 0.386289971695 -147.688958476
9.325 0.206594656916 106.184183979 0.518083365995 147.601436418 0.514122279159 -152.224531651 0.651603106383 8.95794246044 0.518083365995 147.601436418 0.206941663109 106.291713859 0.513533097779 -152.278365169 0.651957501785 -171.07118685 0.514122279159 -152.224531651 0.513533097779 -152.278365169 0.686994698166 99.3679714337 0.000785730486165 58.8742880875 0.651603106383 8.95794246044 0.651957501785 -171.07118685 0.000785730486165 58.8742880873 0.387768219382 -150.347172856
9.35 0.204439990903 103.272644735 0.517989094532 144.863871822 0.515648871481 -156.552891303 0.651151272086 6.14497988524 0.517989094532 144.863871822 0.204760116141 103.379278114 0.515049610567 -156.60691826 0.651524858727 -173.88375332 0.515648871481 -156.552891303 0.515049610567 -156.60691826 0.684711891198 93.4049302458 0.000785614228066 54.1964795861 0.651151272086 6.14497988524 0.651524858727 -173.88375332 0.000785614228066 54.1964795858 0.389251547182 -153.001190376
9.375 0.202283656808 100.357781865 0.517875396765 142.131387014 0.517186270065 -160.874796824 0.65069577011 3.33834443747 0.517875396765 142.131387014 0.202576430662 100.463210885 0.516576596854 -160.92901028 0.651088865548 -176.69001729 0.517186270065 -160.874796824 0.516576596854 -160.92901028 0.682398483719 87.450825696 0.000785295871512 49.5347711747 0.65069577011 3.33834443747 0.651088865548 -176.69001729 0.000785295871512 49.5347711742 0.390739932155 -155.651098865
9.4 0.200123722235 97.4389542901 0.517740239208 139.403968812 0.51873712806 -165.190522751 0.650236581933 0.537924599914 0.517740239208 139.403968812 0.200388707983 97.5428543161 0.518116699075 -165.244914424 0.650649504085 -179.490091777 0.51873712806 -165.190522751 0.518116699075 -165.244914424 0.680049954393 81.5051593472 0.000784774289039 44.8897584 0.650236581933 0.537924599914 0.650649504085 -179.490091777 0.000784774289038 44.8897583994 0.3922333534 -158.296985194
9.425 0.197958175721 94.5155191101 0.517581576375 136.681622756 0.520304075583 -169.500364335 0.649773688943 -2.25638879725 0.517581576375 136.681622756 0.19819497506 94.6175480072 0.519672536732 -169.554924552 0.650206755026 177.715912505 0.520304075583 -169.500364335 0.519672536732 -169.554924552 0.6776617133 75.5673640794 0.000784048631258 40.2620706066 0.649773688943 -2.25638879725 0.650206755026 177.715912505 0.000784048631257 40.2620706059 0.393731791977 -160.938935311
9.45 0.195784930383 91.5868316451 0.517397356447 133.964373509 0.521889708569 -173.804637472 0.649307072465 -5.04470265596 0.517397356447 133.964373509 0.195993188362 91.6866290101 0.521246695276 -173.859355119 0.649760597886 174.927887078 0.521889708569 -173.804637472 0.521246695276 -173.859355119 0.675229113266 69.636803126 0.000783118349075 35.6523740446 0.649307072465 -5.04470265596 0.649760597886 174.927887078 0.000783118349073 35.6523740438 0.395235230842 -163.577034279
9.475 0.193601827457 88.6522453212 0.517185526883 131.252265227 0.523496577626 -178.103678576 0.648836713769 -7.82712168714 0.517185526883 131.252265227 0.19378123763 88.7494316659 0.522841714999 -178.158541048 0.649311010982 172.145725628 0.523496577626 -178.103678576 0.522841714999 -178.158541048 0.67274746056 63.7127691445 0.000781983219964 31.0613752148 0.648836713769 -7.82712168714 0.649311010982 172.145725628 0.000781983219962 31.0613752141 0.39674365477 -166.211366301
9.5 0.191406639704 85.7111113962 0.516944040251 128.545361932 0.525127176857 177.602155571 0.648362594092 -10.6037484848 0.516944040251 128.545361932 0.191556949495 85.8052872785 0.524460079895 177.547162418 0.648857971417 169.369323936 0.525127176857 177.602155571 0.524460079895 177.547162418 0.67021202533 57.7944832985 0.000780643379062 26.4898244524 0.648362594092 -10.6037484848 0.648857971417 169.369323936 0.00078064337906 26.4898244517 0.398257050299 -168.842014754
9.525 0.18919707466 82.7627785265 0.516670860403 125.843747902 0.526783932649 173.312488019 0.647884694646 -13.3746835982 0.516670860403 125.843747902 0.189318090935 82.853523623 0.526104206485 173.257379912 0.648401455062 166.59857982 0.526783932649 173.312488019 0.526104206485 173.257379912 0.667618052101 51.8810943277 0.000779099355843 21.9385197427 0.647884694646 -13.3746835982 0.648401455062 166.59857982 0.000779099355841 21.9385197421 0.399775405657 -171.469062213
9.55 0.186970777722 79.8065921752 0.516363969097 123.147528103 0.528469192357 169.026921867 0.64740299662 -16.1400256008 0.516363969097 123.147528103 0.187062372561 79.8934642899 0.527776432551 168.971716164 0.647941436546 163.833393072 0.528469192357 169.026921867 0.527776432551 168.971716164 0.664960770621 45.9716775804 0.0007773521172 17.4083107586 0.64740299662 -16.1400256008 0.647941436546 163.833393072 0.000777352117197 17.408310758 0.401298710706 -174.092590476
9.575 0.184725335049 76.8418938597 0.516021373083 120.456828668 0.530185212869 164.745040527 0.64691748119 -18.8998711584 0.516021373083 120.456828668 0.184787451716 76.9244278606 0.529479005737 164.68975626 0.647477889252 161.073665398 0.530185212869 164.745040527 0.529479005737 164.68975626 0.662235407345 40.0652339825 0.00077540311778 12.9001030971 0.64691748119 -18.8998711584 0.647477889252 161.073665398 0.000775403117777 12.9001030966 0.402826956881 -176.712680585
9.6 0.1824582763 73.8680202381 0.515641111722 117.771797448 0.531934148971 160.466408008 0.646428129514 -21.6543150943 0.515641111722 117.771797448 0.182490935405 73.9457269137 0.53121407197 160.411065919 0.647010785319 158.319300364 0.531934148971 160.466408008 0.53121407197 160.411065919 0.659437197816 34.1606889189 0.000773254358464 8.41486268483 0.646428129514 -21.6543150943 0.647010785319 158.319300364 0.000773254358463 8.41486268445 0.404360137137 -179.329412847
9.625 0.180167077215 70.884302031 0.515221265177 115.092604619 0.533718041475 156.190569229 0.645934922729 -24.4034504531 0.515221265177 115.092604619 0.18017038305 70.9566668562 0.532983663632 156.135191816 0.64654009565 155.570203344 0.533718041475 156.190569229 0.532983663632 156.135191816 0.65656140018 28.256891 0.000770908453903 3.95362030883 0.645934922729 -24.4034504531 0.64654009565 155.570203344 0.000770908453902 3.95362030858 0.40589824589 178.05713315
9.65 0.177849162051 67.8900627741 0.514759963256 112.419443371 0.535538805025 151.917050366 0.645437841943 -27.1473685624 0.514759963256 112.419443371 0.177823309104 67.9565445742 0.534789687421 151.861661915 0.646065789923 152.826281461 0.535538805025 151.917050366 0.534789687421 151.861661915 0.653603310099 22.35261069 0.00076836871006 -0.482523786339 0.645437841943 -27.1473685624 0.646065789923 152.826281461 0.00076836871006 -0.482523786479 0.407441278973 175.44687852
9.675 0.175501905906 64.884617396 0.514255395001 109.752530657 0.537398215519 147.645359224 0.644936868222 -29.8861590934 0.514255395001 109.752530657 0.175447185529 64.9446468933 0.536633911836 147.589985845 0.645587836616 150.087443548 0.537398215519 147.645359224 0.536633911836 147.589985845 0.650558277315 16.4465387744 0.000765639212763 -4.8923953116 0.644936868222 -29.8861590934 0.645587836616 150.087443548 0.000765639212763 -4.89239531163 0.408989233583 172.839745066
9.7 0.173122636966 61.8672706095 0.51370581913 107.092108028 0.539297897076 143.374985644 0.644431982572 -32.6199101187 0.51370581913 107.092108028 0.173039444193 61.920248839 0.538517954197 143.3196553 0.64510620303 147.353600088 0.539297897076 143.374985644 0.538517954197 143.3196553 0.64742172411 10.537284643 0.000762724928246 -9.27474145594 0.644431982572 -32.6199101187 0.64510620303 147.353600088 0.000762724928246 -9.27474145587 0.410542108239 170.235655269
9.725 0.170708638711 58.8373151052 0.513109575461 104.438442523 0.541239308454 139.105401936 0.643923165913 -35.3487081702 0.513109575461 104.438442523 0.170597479203 58.8826116774 0.540443267135 139.050144473 0.644620855325 144.624663176 0.541239308454 139.105401936 0.540443267135 139.050144473 0.644189165985 4.62337437149 0.000759631816735 -13.6282266453 0.643923165913 -35.3487081702 0.644620855325 144.624663176 0.000759631816736 -13.6282266451 0.412099902733 167.634532274
9.75 0.16825715213 55.7940295279 0.512465097452 101.791827637 0.543223728853 134.836063355 0.643410399049 -38.0726382936 0.512465097452 101.791827637 0.168118649235 55.8309807198 0.542411124462 134.780910528 0.644131758557 141.90054647 0.543223728853 134.836063355 0.542411124462 134.780910528 0.640856234828 -1.29675141721 0.000756366960076 -17.9514286972 0.643410399049 -38.0726382936 0.644131758557 141.90054647 0.000756366960078 -17.951428697 0.413662618096 165.03629989
9.775 0.165765378005 52.736676214 0.511770926027 99.1525843493 0.545252243012 130.566408614 0.642893662631 -40.7917841027 0.511770926027 99.1525843493 0.16560027991 52.7645828598 0.544422606342 130.511394109 0.643638876724 139.181165145 0.545252243012 130.566408614 0.544422606342 130.511394109 0.637418704953 -7.22473992465 0.000752938704425 -22.242835571 0.642893662631 -40.7917841027 0.643638876724 139.181165145 0.000752938704427 -22.2428355707 0.415230256554 162.440882574
9.8 0.163230479322 49.6644986581 0.511025724834 96.5210622021 0.54732572552 126.295860445 0.642372937112 -43.5062278316 0.511025724834 96.5210622021 0.163039666279 49.6826238117 0.546478583686 126.241019895 0.643142172819 136.466435856 0.54732572552 126.295860445 0.546478583686 126.241019895 0.633872522371 -13.1623287922 0.000749356818929 -26.5008429605 0.642372937112 -43.5062278316 0.643142172819 136.466435856 0.000749356818932 -26.5008429602 0.416802821497 159.848205433
9.825 0.160649583883 46.576718671 0.510228297133 93.8976404291 0.549444824265 122.023826204 0.641848202692 -46.2160503853 0.510228297133 93.8976404291 0.160434075478 46.5842850042 0.548579701683 121.969197207 0.642641608887 133.756276689 0.549444824265 122.023826204 0.548579701683 121.969197207 0.630213837735 -19.1113489651 0.000745632671264 -30.723753033 0.641848202692 -46.2160503853 0.642641608887 133.756276689 0.000745632671266 -30.7237530328 0.418380317438 157.258194219
9.85 0.158019787203 43.4725331795 0.509377604487 91.2827291135 0.551609942937 117.749698543 0.641319439259 -48.9213313884 0.509377604487 91.2827291135 0.157780749649 43.4687200738 0.550726362395 117.695320674 0.642137146088 131.050607126 0.551609942937 117.749698543 0.550726362395 117.695320674 0.626439043439 -25.0737278062 0.000741779420674 -34.9097746852 0.641319439259 -48.9213313884 0.642137146088 131.050607126 0.000741779420677 -34.909774685 0.419962749985 154.670775326
9.875 0.155338155775 40.3511106035 0.50847278746 88.6767703605 0.553821222521 113.472856145 0.64078662632 -51.6221492333 0.50847278746 88.6767703605 0.155076909199 40.3350508876 0.552918706352 113.418770961 0.641628744769 128.349348004 0.553821222521 113.472856145 0.552918706352 113.418770961 0.622544815406 -31.0514924506 0.000737812228974 -39.0570257604 0.64078662632 -51.6221492333 0.641628744769 128.349348004 0.000737812228977 -39.0570257603 0.421550125812 152.085875789
9.9 0.15260173081 37.2115867319 0.50751318852 86.0802394625 0.556078521715 109.192664531 0.640249742921 -54.3185811253 0.50751318852 86.0802394625 0.152319756494 37.1823630072 0.55515659307 109.138915575 0.641116364537 125.652421473 0.556078521715 109.192664531 0.55515659307 109.138915575 0.618528160158 -37.0467733883 0.000733748489558 -43.1635377625 0.640249742921 -54.3185811253 0.641116364537 125.652421473 0.00073374848956 -43.1635377624 0.423142452628 149.503423287
9.925 0.149807532549 34.0530599955 0.506498377351 83.4936460286 0.558381396214 104.908476956 0.639708767563 -57.0107031264 0.506498377351 83.4936460286 0.149506480109 34.0097004791 0.557439580447 104.855109758 0.640599964345 122.95975096 0.558381396214 104.908476956 0.557439580447 104.855109758 0.614386467825 -43.061808247 0.000729608074001 -47.2272636926 0.639708767563 -57.0107031264 0.640599964345 122.95975096 0.000729608074002 -47.2272636925 0.424739739149 146.923346147
9.95 0.146952565286 30.8745860066 0.505428178782 80.9175350446 0.560729076835 100.619635404 0.639163678109 -59.6985901982 0.505428178782 80.9175350446 0.146634259737 30.8160598124 0.559766903009 100.566697477 0.640079502573 120.27126113 0.560729076835 100.619635404 0.559766903009 100.566697477 0.610117571806 -49.0989457374 0.000725413595151 -51.2460897417 0.639163678109 -59.6985901982 0.640079502573 120.27126113 0.000725413595152 -51.2460897416 0.426341995077 144.345573341
9.975 0.144033823211 27.6751712035 0.504302703518 78.3524878205 0.563120446442 96.3254716897 0.638614451678 -62.3823162414 0.504302703518 78.3524878205 0.143700271894 27.6003829609 0.562137448958 96.2730125179 0.639554937131 117.586877851 0.563120446442 96.3254716897 0.562137448958 96.2730125179 0.605719815847 -55.1606497048 0.000721190684743 -55.2178516738 0.638614451678 -62.3823162414 0.639554937131 117.586877851 0.000721190684743 -55.2178516738 0.427949231075 141.770034498
10 0.141048297233 24.4537653898 0.503122381874 75.7991227769 0.565554015683 92.0253086868 0.638061064542 -65.0619541345 0.503122381874 75.7991227769 0.140701696558 24.3615490836 0.564549736043 91.9733797129 0.639026225548 114.906528151 0.565554015683 92.0253086868 0.564549736043 91.9733797129 0.601192129358 -61.2495032127 0.000716968282402 -59.1403568396 0.638061064542 -65.0619541345 0.639026225548 114.906528151 0.000716968282402 -59.1403568397 0.429561458742 139.196659904
10.025 0.137992982938 21.2092529009 0.501888000666 73.2580960067 0.568027897559 87.7184616903 0.637503492008 -67.7375757698 0.501888000666 73.2580960067 0.137635724913 21.0983647892 0.567001886272 87.6671162981 0.638493325079 112.230140185 0.568027897559 87.7184616903 0.567001886272 87.6671162981 0.596534111839 -67.3682125566 0.000712778931523 -63.0114128423 0.637503492008 -67.7375757698 0.638493325079 112.230140185 0.000712778931521 -63.0114128424 0.431178690597 136.625380514
10.05 0.134864889839 17.9404420547 0.500600743379 70.730101542 0.570539780876 83.4042399374 0.636941708297 -70.4092520877 0.500600743379 70.730101542 0.134499568348 17.809552493 0.569491599507 83.3535334286 0.637956192817 109.557643196 0.570539780876 83.4042399374 0.569491599507 83.3535334286 0.591746127296 -73.5196110748 0.000708659075708 -66.8288639393 0.636941708297 -70.4092520877 0.637956192817 109.557643196 0.000708659075706 -66.8288639394 0.432800940055 134.056127954
10.075 0.13166105213 14.6460524413 0.499262233733 68.2158712401 0.573086902665 79.0819482974 0.636375686421 -73.0770531084 0.499262233733 68.2158712401 0.131290468913 14.4937364019 0.572016126042 79.031937864 0.637414785797 106.888967477 0.573086902665 79.0819482974 0.572016126042 79.031937864 0.586829409544 -79.7066625883 0.000704649347386 -70.5906362669 0.636375686421 -73.0770531084 0.637414785797 106.888967477 0.000704649347384 -70.590636267 0.434428221413 131.488834533
10.1 0.128378541115 11.3246994745 0.497874582642 65.71617419 0.575666019713 74.750889149 0.635805398057 -75.7410479617 0.497874582642 65.71617419 0.128005711447 11.1494255043 0.574572238298 74.7016338414 0.636869061114 104.224044331 0.575666019713 74.750889149 0.574572238298 74.7016338414 0.58178617927 -85.9324642469 0.000700794837737 -74.294792908 0.635805398057 -75.7410479617 0.636869061114 104.224044331 0.000700794837734 -74.2947929081 0.436060549827 128.923433253
10.125 0.125014479574 7.97487544809 0.496440438534 63.2318155258 0.578273379369 70.4103644647 0.635230813416 -78.4013049138 0.496440438534 63.2318155258 0.124642637594 7.77499274864 0.577156201793 70.3619251543 0.636318976039 101.562806035 0.578273379369 70.4103644647 0.577156201793 70.3619251543 0.576619773672 -92.2002485078 0.000697145334307 -77.9395996466 0.635230813416 -78.4013049138 0.636318976039 101.562806035 0.000697145334304 -77.9395996466 0.437697941298 126.359857817
10.15 0.121566058276 4.59492609969 0.494963040901 60.7636345152 0.580904689872 66.0596781185 0.634651901118 -81.0578913926 0.494963040901 60.7636345152 0.121198661974 4.36864933831 0.579763745641 66.012117456 0.635764488127 98.9051857967 0.580904689872 66.0596781185 0.579763745641 66.012117456 0.57133478936 -98.5133838967 0.00069375550968 -81.5236019302 0.634651901118 -81.0578913926 0.635764488127 98.9051857967 0.000693755509677 -81.5236019303 0.439340412656 123.798042638
10.175 0.118030554937 1.18302135481 0.493446276784 58.3125017783 0.58355509048 61.6981384367 0.634068628067 -83.7108740092 0.493446276784 58.3125017783 0.11767129081 0.928412722066 0.582390032865 61.6515208048 0.635205555338 96.2511177144 0.58355509048 61.6981384367 0.582390032865 61.6515208048 0.565937239043 -104.875374121 0.000690685041502 -85.045713058 0.634068628067 -83.7108740092 0.635205555338 96.2511177144 0.0006906850415 -85.0457130581 0.440987981541 121.237922857
10.2 0.114405355932 -2.26288152904 0.491894739797 55.8793154719 0.586219121792 57.3250610072 0.633480959331 -86.3603185779 0.491894739797 55.8793154719 0.11405814333 -2.54793362155 0.585029630892 57.2794524691 0.634642136136 93.6005367351 0.586219121792 57.3250610072 0.585029630892 57.2794524691 0.560434722232 -111.289855 0.000687998641286 -88.5053128864 0.633480959331 -86.3603185779 0.634642136136 93.6005367351 0.000687998641284 -88.5053128864 0.442640666388 118.679434346
10.225 0.110687981106 -5.74508483179 0.49031379109 53.4649962607 0.588890696673 52.9397717664 0.632888858038 -89.006290133 0.49031379109 53.4649962607 0.110356976358 -6.06289117259 0.587676482662 52.8952400092 0.634074189594 90.9533786097 0.588890696673 52.9397717664 0.587676482662 52.8952400092 0.554836609837 -117.760588562 0.000685765967022 -91.9023553806 0.632888858038 -89.006290133 0.634074189594 90.9533786097 0.000685765967021 -91.9023553806 0.44429848641 116.122513725
10.25 0.106876112131 -9.26621056101 0.488709621432 51.0704808837 0.591563072346 48.5416103776 0.63229228527 -91.6488529431 0.488709621432 51.0704808837 0.106565712566 -9.61931163535 0.590323878894 48.4982246502 0.633501675477 88.3095798481 0.591563072346 48.5416103776 0.590323878894 48.4982246502 0.549154241998 -124.291453529 0.00068406139332 -95.2374821306 0.63229228527 -91.6488529431 0.633501675477 88.3095798481 0.000684061393319 -95.2374821306 0.445961461581 113.567098375
10.275 0.102967624916 -12.8292785494 0.487089313361 48.6967141115 0.594228824239 44.1299339133 0.631691199988 -94.2880705222 0.487089313361 48.6967141115 0.102682472991 -13.220481321 0.592964432116 44.0877649602 0.632924554324 85.6690776716 0.594228824239 44.1299339133 0.592964432116 44.0877649602 0.543401137796 -130.886431236 0.000682963612922 -98.5121375367 0.631691199988 -94.2880705222 0.632924554324 85.6690776716 0.000682963612922 -98.5121375367 0.447629612615 111.013126447
10.3 0.098960626736 -16.4378089046 0.485460902043 46.3446388904 0.596879822326 39.704120853 0.631085558962 -96.9240056394 0.485460902043 46.3446388904 0.0987056145765 -16.8702314163 0.595590053163 39.6632408422 0.632342787496 83.0318099648 0.596879822326 39.704120853 0.595590053163 39.6632408422 0.537593214637 -137.549585906 0.000682555045805 -101.728679843 0.631085558962 -96.9240056394 0.632342787496 83.0318099648 0.000682555045805 -101.728679843 0.449302960953 108.460536878
10.325 0.0948534989747 -20.0959579995 0.483833433189 44.0151844683 0.59950721076 35.2635754008 0.630475316737 -99.5567203245 0.483833433189 44.0151844683 0.0946337737916 -20.5730837407 0.598191930973 35.2240578479 0.631756337213 80.3977152246 0.59950721076 35.2635754008 0.598191930973 35.2240578479 0.53174901392 -144.285037989 0.00068292103711 -104.890480701 0.630475316737 -99.5567203245 0.631756337213 80.3977152246 0.000682921037109 -104.890480701 0.450981528735 105.909269402
10.35 0.0906449466838 -23.8087013105 0.482217015985 41.7092523154 0.602101391722 30.8077321246 0.629860425621 -102.186275872 0.482217015985 41.7092523154 0.090465917745 -24.3344458196 0.600760516575 30.7696518113 0.631165166562 77.766732508 0.602101391722 30.8077321246 0.600760516575 30.7696518113 0.525889928247 -151.096929132 0.000684148833313 -108.00200472 0.629860425621 -102.186275872 0.631165166562 77.766732508 0.000684148833313 -108.00200472 0.452665338783 103.359264564
10.375 0.0863340567164 -27.5820827177 0.480622868673 39.4276996792 0.604652014491 26.3360609128 0.629240835702 -104.812732843 0.480622868673 39.4276996792 0.0862014048636 -28.1608755287 0.60328551228 26.2994938006 0.630569239464 75.1388013792 0.604652014491 26.3360609128 0.60328551228 26.2994938006 0.520040423679 -157.989377203 0.000686326337502 -111.068859744 0.629240835702 -104.812732843 0.630569239464 75.1388013792 0.000686326337502 -111.068859744 0.45435441457 100.81046373
10.4 0.0819203670358 -31.4235597386 0.479063353983 37.1713206616 0.60714797085 21.8480722343 0.628616494914 -107.436151064 0.479063353983 37.1713206616 0.0818400581863 -32.060445523 0.60575586718 21.8130953741 0.629968520619 72.5138618539 0.60714797085 21.8480722343 0.60575586718 21.8130953741 0.514228248573 -164.966419681 0.000689540658962 -114.097808704 0.628616494914 -107.436151064 0.629968520619 72.5138618539 0.000689540658961 -114.097808704 0.456048780197 98.2628091045
10.425 0.077403951206 -35.342489929 0.47755200127 34.9408247717 0.609577397985 17.3433226833 0.627987349137 -110.056589627 0.47755200127 34.9408247717 0.0773822559383 -36.0432534548 0.608159780115 17.3100141195 0.629362975391 69.891854344 0.609577397985 17.3433226833 0.608159780115 17.3100141195 0.508484618152 -172.031943726 0.000693876488669 -117.096735101 0.627987349137 -110.056589627 0.629362975391 69.891854344 0.000693876488667 -117.096735101 0.457748460361 95.7162437374
10.45 0.0727855244234 -39.3508295505 0.476103511873 32.736813004 0.61192769015 12.8214207774 0.62735334235 -112.674106884 0.476103511873 32.736813004 0.0728290467236 -40.1221496103 0.61048471136 12.789859448 0.628752569663 67.2727196007 0.61192769015 12.8214207774 0.61048471136 12.789859448 0.502844361406 -179.18960137 0.000699414349213 -120.074556535 0.62735334235 -112.674106884 0.628752569663 67.2727196007 0.000699414349211 -120.074556535 0.459453480319 93.1707115396
10.475 0.0680665814967 -43.4641592374 0.474733743909 30.5597516076 0.614185520344 8.28203296762 0.626714416839 -115.288760442 0.474733743909 30.5597516076 0.0681823012047 -44.3137963103 0.612717404287 8.25229859986 0.628137269629 64.656398659 0.614185520344 8.28203296762 0.612717404287 8.25229859986 0.497346014188 173.557291424 0.00070622878311 -123.041084286 0.626714416839 -115.288760442 0.628137269629 64.656398659 0.000706228783107 -123.041084286 0.461163865847 90.6261572933
10.5 0.0632495843438 -47.7032273773 0.473459672559 28.4099438666 0.616336873301 3.72488980822 0.626070513459 -117.900607163 0.473459672559 28.4099438666 0.0634449200582 -48.6402467315 0.614843918287 3.69706280938 0.627517041537 62.0428327809 0.616336873301 3.72488980822 0.614843918287 3.69706280938 0.492031839641 166.205872506 0.000714386555193 -126.006831418 0.626070513459 -117.900607163 0.627517041537 62.0428327809 0.00071438655519 -126.006831418 0.462879643204 88.0825266634
10.525 0.0583382296966 -52.0963389304 0.472299321871 26.2875003846 0.618367091023 -0.850207781455 0.625421571959 -120.50970316 0.472299321871 26.2875003846 0.0586211322688 -53.1313607661 0.616849674175 -0.87604643707 0.626891851373 59.431963402 0.618367091023 -0.850207781455 0.616849674175 -0.876046437069 0.486947754732 158.75386784 0.000723944950788 -128.982776724 0.625421571959 -120.50970316 0.626891851373 59.431963402 0.000723944950784 -128.982776723 0.464600839073 85.5397662075
10.55 0.0533378526972 -56.6831744295 0.471271664274 24.1923085727 0.620260932018 -5.44338224201 0.624767531375 -123.116103793 0.471271664274 24.1923085727 0.0537169445377 -57.8286143198 0.618719513231 -5.46715113047 0.626261664485 56.8237320787 0.620260932018 -5.44338224201 0.618719513231 -5.46715113047 0.48214313999 151.199740819 0.000734950250082 -131.9800964 0.624767531375 -123.116103793 0.626261664485 56.8237320787 0.000734950250078 -131.980096399 0.466327480517 82.9978233866
10.575 0.04825607194 -61.5211278883 0.470396484419 22.1240022565 0.622002645239 -10.0546731805 0.624108330488 -125.719863674 0.470396484419 22.1240022565 0.0487408547578 -62.7913148906 0.620437770883 -10.0762905495 0.625626445154 54.2180804399 0.622002645239 -10.0546731805 0.620437770883 -10.0762905495 0.477670509132 143.542853314 0.000747436450248 -135.009878898 0.624108330488 -125.719863674 0.625626445154 54.2180804399 0.000747436450245 -135.009878897 0.46805959491 80.4566465739
10.6 0.0431038865383 -66.6962911412 0.469694204666 20.0819325423 0.623576059535 -14.6840313661 0.623443908342 -128.321036669 0.469694204666 20.0819325423 0.0437050495366 -68.1071472472 0.621988365812 -14.7034152603 0.624986156098 51.6149501423 0.623576059535 -14.6840313661 0.621988365812 -14.7034152603 0.473585016658 135.783633035 0.000761424291112 -138.082840334 0.623443908342 -128.321036669 0.624986156098 51.6149501423 0.000761424291109 -138.082840334 0.469797209873 77.9161850634
10.625 0.0378976713407 -72.3434753646 0.469185670599 18.0651412916 0.624964689129 -19.331313036 0.622774204833 -130.919675916 0.469185670599 18.0651412916 0.0386275379661 -73.9108762913 0.623354905007 -19.3483814258 0.624340757933 49.0142828313 0.624964689129 -19.331313036 0.623354905007 -19.3483814258 0.469943785458 127.923739347 0.000776920619482 -141.209057817 0.622774204833 -130.919675916 0.624340757933 49.0142828313 0.00077692061948 -141.209057816 0.4715403532 75.3763890771
10.65 0.0326630848385 -78.6848949742 0.468891896342 16.0723387309 0.626151855287 -23.9962746446 0.622099161352 -133.515833836 0.468891896342 16.0723387309 0.0335362104739 -80.4191928474 0.624520804925 -24.0109455586 0.623690208581 46.4160201081 0.626151855287 -23.9962746446 0.624520804925 -24.0109455586 0.46680504349 119.966217156 0.000793918104438 -144.397736052 0.622099161352 -133.515833836 0.623690208581 46.4160201081 0.000793918104437 -144.397736052 0.473289052775 72.8372097722
10.675 0.0274433956399 -86.10996749 0.468833771172 14.1018868342 0.627120823921 -28.6785681987 0.621418721473 -136.109562162 0.468833771172 14.1018868342 0.0284771392682 -87.9990770063 0.625469428497 -28.6907598596 0.623034462647 43.8201035054 0.627120823921 -28.6785681987 0.625469428497 -28.6907598596 0.464227069074 111.915626224 0.000812395293768 -147.65701903 0.621418721473 -136.109562162 0.623034462647 43.8201035054 0.000812395293767 -147.65701903 0.475043336477 70.2985992461
10.7 0.0223190138655 -95.3511711588 0.469031731003 12.1517901449 0.62785495838 -33.3777373271 0.620732831682 -138.700911972 0.469031731003 12.1517901449 0.0235329420645 -97.3078796241 0.626184237235 -33.3873682908 0.622373470762 41.2264744702 0.62785495838 -33.3777373271 0.626184237235 -33.3873682908 0.462266958305 103.77813176 0.000832316983093 -150.993853985 0.620732831682 -138.700911972 0.622373470762 41.2264744702 0.000832316983093 -150.993853985 0.476803232082 67.7605105413
10.725 0.0174582266554 -107.885391569 0.469505400524 10.2196956099 0.628337886129 -38.0932142386 0.620041442133 -141.289933741 0.469505400524 10.2196956099 0.0188665574416 -109.578974647 0.626648957143 -38.1002035363 0.621707178923 38.6350743581 0.628337886129 -38.0932142386 0.626648957143 -38.1002035363 0.46097924473 95.5615418588 0.000853634855748 -154.413910009 0.620041442133 -141.289933741 0.621707178923 38.6350743581 0.000853634855747 -154.413910009 0.478568767154 65.2228976481
10.75 0.0132574184374 -126.712134727 0.470273214151 8.30290277915 0.628553677414 -42.824317717 0.619344507398 -143.876677391 0.470273214151 8.30290277915 0.0148279052829 -127.074891902 0.62684775653 -42.8285850003 0.621035527831 36.0458444361 0.628553677414 -42.824317717 0.62684775653 -42.8285850003 0.460414419559 87.2752788822 0.000876288343943 -157.92154925 0.619344507398 -143.876677391 0.621035527831 36.0458444361 0.000876288343943 -157.92154925 0.480339968917 62.6857155068
10.775 0.0106492421165 -155.961065552 0.471352026189 6.39838535144 0.62848703342 -47.5702522983 0.618641987208 -146.461192362 0.471352026189 6.39838535144 0.0121551811209 -152.663195191 0.626765433264 -47.5717179867 0.620358452258 33.4587258977 0.62848703342 -47.5702522983 0.626765433264 -47.5717179867 0.460617417952 78.9302754619 0.00090020565993 -161.519845112 0.618641987208 -146.461192362 0.620358452258 33.4587258977 0.00090020565993 -161.519845112 0.482116864128 60.1489200081
10.8 0.0109422200933 168.55178242 0.472756722597 4.50282454161 0.628123480812 -52.3301087596 0.617933847157 -149.043527697 0.472756722597 4.50282454161 0.011893122254 175.720468624 0.62638760832 -52.3286941908 0.619675880464 30.8736598883 0.628123480812 -52.3301087596 0.62638760832 -52.3286941908 0.46162615086 70.5387914443 0.000925304948661 -165.210639502 0.617933847157 -149.043527697 0.619675880464 30.8736598883 0.00092530494866 -165.210639502 0.48389947893 57.612467992
10.825 0.0140117034581 141.02316418 0.474499848215 2.61265411766 0.627449568967 -57.1028660325 0.617220059332 -151.623732135 0.474499848215 2.61265411766 0.0142278992642 148.235435168 0.625700922004 -57.098493615 0.618987733669 28.2905875423 0.627449568967 -57.1028660325 0.625700922004 -57.098493615 0.463470169577 62.1141553623 0.000951495519445 -168.994630045 0.617220059332 -151.623732135 0.618987733669 28.2905875423 0.000951495519445 -168.994630045 0.485687838689 55.0763172448
10.85 0.018556066902 123.386118283 0.476591264139 0.724116257258 0.626453065722 -61.8873946265 0.616500602867 -154.201854215 0.476591264139 0.724116257258 0.0182141786937 129.108025969 0.624693228656 -61.8799879942 0.618293925635 25.7094500298 0.626453065722 -61.8873946265 0.624693228656 -61.8799879942 0.466169549493 53.6704419365 0.000978679121659 -172.871478083 0.616500602867 -154.201854215 0.618293925635 25.7094500298 0.00097867912166 -172.871478083 0.487481967826 52.5404264948
10.875 0.0237564066809 111.407454766 0.479037849864 -1.16667334572 0.625123147078 -66.6824616176 0.615775464375 -156.777942394 0.479037849864 -1.16667334572 0.0230217363155 115.824879992 0.623353785299 -66.6719457864 0.617594362351 23.1301886138 0.625123147078 -66.6824616176 0.623353785299 -66.6719457864 0.469734069227 45.222104467 0.00100675123736 -176.839928982 0.615775464375 -156.777942394 0.617594362351 23.1301886138 0.00100675123736 -176.839928982 0.489281889629 50.0047554061
10.9 0.0292668176811 102.382283642 0.481843263816 -3.06365336203 0.623450576027 -71.4867372212 0.615044638258 -159.352045173 0.481843263816 -3.06365336203 0.0282356969276 105.863962499 0.621673429431 -71.4730387475 0.616888941862 20.5527447149 0.623450576027 -71.4867372212 0.621673429431 -71.4730387475 0.474162742082 36.7835864333 0.00103560237072 179.102062495 0.615044638258 -159.352045173 0.616888941862 20.5527447149 0.00103560237072 179.102062496 0.491087626043 47.4692645697
10.925 0.0349343192647 94.9920898054 0.48500777397 -4.97074048122 0.621427865613 -76.2988029257 0.614308126861 -161.924211229 0.48500777397 -4.97074048122 0.0336613880728 97.8069440543 0.619644741099 -76.2818500664 0.616177554253 17.9770599825 0.621427865613 -76.2988029257 0.619644741099 -76.2818500664 0.479443730522 28.3689391296 0.00106511931967 174.957207518 0.614308126861 -161.924211229 0.616177554253 17.9770599825 0.00106511931968 174.957207519 0.492899197453 44.9339154933
10.95 0.0406805597888 88.5773536429 0.488528167437 -6.891751992 0.619049421453 -81.117161122 0.613565940471 -164.494489552 0.488528167437 -6.891751992 0.0391987116912 90.9021833122 0.617262184485 -81.0968839958 0.615460081812 15.40307637 0.619049421453 -81.117161122 0.617262184485 -81.0968839958 0.485554644864 19.9914712199 0.00109518641932 170.728763515 0.613565940471 -164.494489552 0.615460081812 15.40307637 0.00109518641934 170.728763515 0.494716622441 42.3986705882
10.975 0.0464588595267 82.7840709617 0.492397744401 -8.83033058246 0.616311659266 -85.9402461178 0.612818097146 -167.062929583 0.492397744401 -8.83033058246 0.0447894988548 84.7356961788 0.614522224596 -85.9165768683 0.61473639938 12.8307362111 0.616311659266 -85.9402461178 0.614522224596 -85.9165768683 0.492463198527 11.6634519039 0.00112568674873 166.420422388 0.612818097146 -167.062929583 0.61473639938 12.8307362111 0.00112568674876 166.420422389 0.496539917522 39.8634931544
11 0.0522374710747 77.4088419771 0.496606397894 -10.78987455 0.613213093485 -90.7664363829 0.612064622387 -169.629581354 0.496606397894 -10.78987455 0.0503957201854 79.0666656717 0.611423415149 -90.7393093422 0.6140063749 10.2599822951 0.613213093485 -90.7664363829 0.611423415149 -90.7393093422 0.500128167907 3.39588277938 0.00115650329398 162.036208366 0.612064622387 -169.629581354 0.6140063749 10.2599822951 0.00115650329401 162.036208367 0.498369096863 37.3283473624
11.025 0.0579924070735 72.3278865793 0.501140776858 -12.7734762702 0.609754393786 -95.5940678306 0.611305548653 -172.194495619 0.501140776858 -12.7734762702 0.0559898706589 73.7476140033 0.607966454492 -95.5634196841 0.613269870161 7.69075793603 0.609754393786 -95.5940678306 0.607966454492 -95.5634196841 0.508500587867 -4.80165428723 0.00118752006014 157.580386291 0.611305548653 -172.194495619 0.613269870161 7.69075793603 0.00118752006018 157.580386292 0.500204171969 34.7931982331
11.05 0.063704106539 67.4622586538 0.50598452609 -14.7838712347 0.605938407225 -100.421447906 0.610540914741 -174.757723986 0.50598452609 -14.7838712347 0.0615504179114 68.6841455707 0.604154207301 -100.387217859 0.612526741741 5.12300703409 0.605938407225 -100.421447906 0.604154207301 -100.387217859 0.517525105333 -12.9210735961 0.00121862312452 153.057380478 0.610540914741 -174.757723986 0.612526741741 5.12300703409 0.00121862312457 153.05738048 0.502045151351 32.2580116144
11.075 0.069355787551 62.7596583022 0.511118593332 -16.8233992845 0.601770144755 -105.246870225 0.609770765044 -177.31931903 0.511118593332 -16.8233992845 0.0670595153435 63.813573471 0.599991690793 -105.209000166 0.611776842135 2.55667412508 0.601770144755 -105.246870225 0.599991690793 -105.209000166 0.527141413077 -20.9557930556 0.0012497016225 148.471703789 0.609770765044 -177.31931903 0.611776842135 2.55667412508 0.00124970162255 148.47170379 0.503892040163 29.7227541548
11.1 0.074932599792 58.1843602413 0.516521591085 -18.8939789127 0.59725673196 -110.068629476 0.608995148722 -179.879334412 0.516521591085 -18.8939789127 0.0725018001722 59.0929838697 0.595486025342 -110.027064148 0.611020021043 -0.00829558568124 0.59725673196 -110.068629476 0.595486025342 -110.027064148 0.537285692181 -28.9006838115 0.00128064865664 143.827896267 0.608995148723 -179.879334412 0.611020021043 -0.00829558568277 0.0012806486567 143.827896268 0.505744839802 27.1873932746
11.125 0.0804211802108 53.711351782 0.522170198975 -20.9970947527 0.592407325015 -114.885036322 0.608214118812 177.562175029 0.522170198975 -20.9970947527 0.0778637422998 54.4922574581 0.590646350481 -114.839723486 0.610256126812 -2.57195620776 0.592407325015 -114.885036322 0.590646350481 -114.839723486 0.547892002648 -36.7519756204 0.00131136211961 139.130472538 0.608214118812 177.562175029 0.610256126812 -2.57195620776 0.00131136211966 139.130472539 0.507603547477 24.6518971331
11.15 0.0858094209096 49.322770697 0.528039591582 -23.133797679 0.587232993959 -119.694431979 0.607427731291 175.005153184 0.528039591582 -23.133797679 0.0831332857346 49.989819349 0.585483708387 -119.645322583 0.609485007974 -5.13436117134 0.587232993959 -119.694431979 0.585483708387 -119.645322583 0.558893574961 -44.507131974 0.0013417454211 134.383877106 0.607427731291 175.005153184 0.609485007974 -5.13436117134 0.00134174542113 134.383877106 0.509468155747 22.1162345934
11.175 0.091086351417 45.005658098 0.53410387671 -25.3047163704 0.581746576394 -124.49520223 0.606636044146 172.449542592 0.53410387671 -25.3047163704 0.0882996501248 45.5699557947 0.580010897951 -124.442250577 0.608706514878 -7.69556325653 0.581746576394 -124.49520223 0.580010897951 -124.442250577 0.570223969202 -52.1647079611 0.00137170811007 129.592446672 0.606636044146 172.449542592 0.608706514878 -7.69556325653 0.00137170811009 129.592446672 0.511338652005 19.5803751832
11.2 0.096242082408 40.7504937749 0.540336529843 -27.5100787535 0.575962505584 -129.285790599 0.605839116446 169.895284376 0.540336529843 -27.5100787535 0.0933532209122 41.2210654519 0.574242303395 -129.228954513 0.607920501346 -10.2556146482 0.575962505584 -129.285790599 0.574242303395 -129.228954513 0.581818081123 -59.7242018715 0.00140116638451 124.760378701 0.605839116446 169.895284376 0.607920501346 -10.2556146482 0.00140116638449 124.7603787 0.513215017928 17.0442890528
11.225 0.10126778092 36.5502137815 0.54671081205 -29.749741473 0.569896617603 -134.064710459 0.605037007449 167.342318173 0.54671081205 -29.749741473 0.0982854877986 36.9344872783 0.56819370207 -134.003951455 0.607126826328 -12.8145670174 0.569896617603 -134.064710459 0.56819370207 -134.003951455 0.593612985484 -67.1859091306 0.00143004348253 119.891705466 0.605037007449 167.342318173 0.607126826328 -12.8145670174 0.00143004348246 119.891705466 0.515097228874 14.5079469293
11.25 0.106155659551 32.3995346787 0.553200160501 -32.0232254127 0.563565942676 -138.83055589 0.604229775763 164.790582083 0.553200160501 -32.0232254127 0.103089008023 32.7036951957 0.561882056554 -138.765839339 0.606325355514 -15.3724716299 0.563565942676 -138.83055589 0.561882056554 -138.765839339 0.605548615723 -74.5507846807 0.00145826995098 114.990272965 0.604229775762 164.790582083 0.606325355514 -15.3724716299 0.00145826995086 114.990272965 0.516985253225 11.9713200676
11.275 0.110898969216 28.2944783338 0.559778542982 -34.3297553094 0.556988486077 -143.582011135 0.603417478542 162.240012608 0.559778542982 -34.3297553094 0.107757380446 28.5237325157 0.555325296396 -143.51330643 0.605515962844 -17.929379482 0.556988486077 -143.582011135 0.555325296396 -143.51330643 0.617568285514 -81.8203176922 0.00148578378973 110.059724109 0.603417478542 162.240012608 0.605515962844 -17.929379482 0.00148578378954 110.059724109 0.518879051674 9.43438019868
11.3 0.115491989309 24.2320312581 0.566420770162 -36.66830162 0.550183003984 -148.317858535 0.602600170753 159.690544606 0.566420770162 -36.66830162 0.112285222077 24.3908070487 0.548542094885 -148.245139259 0.604698531891 -20.4853414624 0.550183003984 -148.317858535 0.548542094885 -148.245139259 0.629619062315 -88.9964206187 0.00151253047227 105.103485726 0.602600170753 159.690544606 0.604698531891 -20.4853414624 0.00151253047201 105.103485726 0.520778576452 6.89709947333
11.325 0.119930011781 20.2098963164 0.573102761603 -39.0376230099 0.543168779506 -153.036984899 0.601777904474 157.142111227 0.573102761603 -39.0376230099 0.116668142146 20.3019963743 0.541551646028 -152.96022899 0.603872957063 -23.0404085392 0.543168779506 -153.036984899 0.541551646028 -152.96022899 0.641652005919 -96.0813331843 0.00153846284593 100.124758955 0.601777904473 157.142111227 0.603872957063 -23.0404085392 0.0015384628456 100.124758956 0.522683770478 4.35945040405
11.35 0.124209317403 16.226309215 0.579801763691 -41.4363080754 0.535965403704 -157.738386277 0.600950728233 154.594643864 0.579801763691 -41.4363080754 0.120902711061 16.2550302227 0.534373446544 -157.657576189 0.603039144601 -25.5946319694 0.535965403704 -157.738386276 0.534373446544 -157.657576189 0.653622286602 -103.077540863 0.00156354091685 95.1265126857 0.600950728233 154.594643864 0.603039144601 -25.5946319694 0.00156354091644 95.1265126881 0.524594566451 1.82140580336
11.375 0.128327143651 12.2799013121 0.586496519504 -43.8628151902 0.52859256594 -162.421171159 0.60011868637 152.048072085 0.586496519504 -43.8628151902 0.124986423049 12.2481278738 0.527027087172 -162.336294031 0.602197013326 -28.1480635295 0.52859256594 -162.421171159 0.527027087171 -162.336294031 0.665489198189 -109.987706753 0.00158773152737 90.1114797338 0.60011868637 152.048072085 0.602197013327 -28.1480635295 0.00158773152691 90.1114797374 0.526510885848 -0.717061280505
11.4 0.132281644439 8.36959614488 0.593167392251 -46.3155096337 0.521069857203 -167.084562165 0.599281818392 149.502323567 0.593167392251 -46.3155096337 0.128917652269 8.27987549951 0.519532056949 -166.995609974 0.601346495127 -30.7007557632 0.521069857203 -167.084562165 0.519532056949 -166.995609974 0.677216081273 -116.814615384 0.00161100793492 85.0821555111 0.599281818392 149.502323567 0.601346495127 -30.7007557632 0.00161100793444 85.0821555159 0.528432637848 -3.25597763031
11.425 0.13607184247 4.49453089363 0.599796445128 -48.792697418 0.513416589421 -171.727896293 0.598440158318 146.957324019 0.599796445128 -48.792697418 0.132695602814 4.34913296928 0.511907563419 -171.634866021 0.600487535144 -33.2527622442 0.513416589421 -171.727896293 0.511907563419 -171.634866021 0.688770171417 -123.561126809 0.00163334930304 80.0407989623 0.598440158318 146.957324019 0.600487535144 -33.2527622442 0.00163334930258 80.0407989678 0.530359718162 -5.79536992868
11.45 0.139697575276 0.653996556381 0.606367481403 -51.292655458 0.505651632978 -176.350623872 0.597593733979 144.412997104 0.606367481403 -51.2926554581 0.136320253433 0.45496269601 0.504172370995 -176.253517658 0.599620091663 -35.8041378498 0.505651632978 -176.350623872 0.504172370995 -176.253517658 0.700122386332 -130.230139375 0.00165474011618 74.9894355855 0.597593733979 144.412997104 0.599620091663 -35.8041378498 0.00165474011579 74.9894355909 0.532292007767 -8.33526482868
11.475 0.143159436242 -3.15260766614 0.612866049148 -53.8136579231 0.497793273959 179.047693692 0.596742566263 141.869264347 0.612866049148 -53.8136579231 0.139792298067 -3.4034248244 0.496344658992 179.148868394 0.598744135679 -38.354939043 0.497793273959 179.047693692 0.496344658992 179.148868394 0.711247065108 -136.824559613 0.00167516953069 69.9298623778 0.596742566263 141.869264347 0.598744135679 -38.354939043 0.00167516953045 69.9298623816 0.534229371537 -10.8756890257
11.5 0.146458711976 -6.92580907815 0.61927941535 -56.3539987685 0.489859091964 174.467387193 0.595886668277 139.32604504 0.61927941535 -56.3539987685 0.143113083376 -7.22671269496 0.488441900142 174.572617465 0.597859650149 -40.9052241588 0.489859091964 174.467387193 0.488441900142 174.572617465 0.722121671488 -143.347277869 0.0016946306747 64.8636545692 0.595886668277 139.32604504 0.597859650149 -40.9052241588 0.0016946306747 64.8636545692 0.536171656767 -13.4166693303
