! Generated from PyAEDT SolutionData; AEDT ExportNetworkData workaround
# GHz S MA R 50
9 0.317946681767 -9.03917272524 0.306343491094 -91.5929496451 0.622121462455 -26.1628475921 0.646551203673 45.33377885 0.306343491094 -91.5929496451 0.318289268735 -10.0358303432 0.625284141835 -26.2313998758 0.643323673466 -134.748290617 0.622121462455 -26.1628475921 0.625284141835 -26.2313998758 0.47115173157 177.232570207 0.000820828938409 121.565211749 0.646551203673 45.33377885 0.643323673466 -134.748290617 0.000820828938409 121.565211749 0.410006729734 -127.609437287
9.025 0.316730457673 -12.0020121415 0.306125472516 -95.0781161467 0.623237359595 -30.685691984 0.646173937478 42.4554909174 0.306125472515 -95.0781161466 0.31701798506 -13.0016112333 0.626400792677 -30.7555394532 0.642966348775 -137.628270301 0.623237359595 -30.685691984 0.626400792677 -30.7555394532 0.46817833014 171.490808903 0.000816971887403 118.027807565 0.646173937477 42.4554909174 0.642966348774 -137.628270301 0.000816971887868 118.027807595 0.411159769484 -130.257429218
9.05 0.315570244176 -14.9555522719 0.305941866486 -98.5443877665 0.624307480159 -35.1950583795 0.645793954199 39.5851109536 0.305941866486 -98.5443877665 0.315803543232 -15.9580816551 0.627471651891 -35.2662054647 0.642605798676 -140.500363659 0.624307480159 -35.1950583795 0.627471651891 -35.2662054647 0.465305676971 165.758806543 0.000813462982814 114.512952204 0.645793954198 39.5851109535 0.642605798674 -140.500363659 0.000813462983582 114.512952251 0.412318469626 -132.900470702
9.075 0.314462319749 -17.9002974643 0.305793438107 -101.992387386 0.625333566866 -39.6909912076 0.64541122992 36.7224981043 0.305793438107 -101.992387386 0.314642204232 -18.9057615981 0.628498468184 -39.7634427559 0.642242043544 -143.364712036 0.625333566866 -39.6909912075 0.628498468184 -39.763442756 0.462531307101 160.038054898 0.000810314824874 111.01875085 0.645411229918 36.7224981043 0.642242043542 -143.364712036 0.00081031482581 111.018750903 0.413482703578 -135.538659922
9.1 0.313403034258 -20.8367068541 0.305680718046 -105.422745844 0.626317438171 -44.1735636924 0.645025747401 33.8675138527 0.305680718046 -105.422745844 0.313530298294 -21.845124995 0.629483066451 -44.2473250218 0.641875102777 -146.221454208 0.62631743817 -44.1735636923 0.629483066452 -44.2473250219 0.459852345037 154.329858398 0.000807537065883 107.543295856 0.645025747399 33.8675138527 0.641875102775 -146.221454208 0.000807537066881 107.54329591 0.414652350336 -138.172093163
9.125 0.312388813317 -23.7651955398 0.30560401988 -108.836097992 0.627260972762 -48.642874598 0.644637494987 31.0200220772 0.30560401988 -108.836097992 0.312464229533 -24.776600926 0.630427332192 -48.7179515431 0.641504994728 -149.070726363 0.627260972762 -48.642874598 0.630427332192 -48.7179515432 0.457265557847 148.635343708 0.000805136723611 104.084682762 0.644637494986 31.0200220772 0.641504994726 -149.070726363 0.000805136724588 104.084682812 0.415827294259 -140.800864841
9.15 0.311416162247 -26.6861357499 0.305563456679 -112.233079171 0.628166095317 -53.0990452097 0.644246465622 28.1798890938 0.305563456679 -112.233079171 0.31144048012 -27.7005748117 0.631333197175 -53.1754441605 0.641131736661 -151.912662092 0.628166095317 -53.0990452096 0.631333197176 -53.1754441606 0.454767405896 142.955470391 0.000803118473541 100.641024074 0.644246465621 28.1798890937 0.641131736659 -151.912662092 0.000803118474437 100.641024117 0.417007424866 -143.425067531
9.175 0.310481669721 -29.5998580032 0.30555895673 -115.614322062 0.629034763485 -57.5422165551 0.643852655973 25.3469836828 0.30555895673 -115.614322062 0.310455614106 -30.6173895955 0.63220262636 -57.6199444894 0.640755344716 -154.747392392 0.629034763485 -57.542216555 0.63220262636 -57.6199444894 0.452354090508 137.291042334 0.000801484918152 97.210461056 0.643852655972 25.3469836828 0.640755344715 -154.747392391 0.000801484918928 97.210461091 0.418192636652 -146.044791993
9.2 0.309582011197 -32.5066522638 0.305590278379 -118.980453901 0.629868956098 -61.9725468652 0.64345606565 22.5211771032 0.305590278379 -118.980453901 0.309506281 -33.5273469211 0.633037606026 -62.0516113743 0.640375833895 -157.575045679 0.629868956098 -61.9725468651 0.633037606026 -62.0516113743 0.450021598053 131.642719592 0.000800236832616 93.7911737695 0.643456065649 22.5211771032 0.640375833894 -157.575045679 0.000800236833247 93.7911737962 0.419382828903 -148.660127216
9.225 0.308713952191 -35.4067690961 0.305657023934 -122.332094023 0.630670662537 -66.3902092718 0.643056696517 19.702343094 0.305657023934 -122.332094023 0.308589219155 -36.4307083045 0.633840133092 -66.470618581 0.639993218047 -160.395747811 0.630670662537 -66.3902092718 0.633840133092 -66.470618581 0.447765740173 126.011030389 0.000799373387155 90.3813895608 0.643056696517 19.702343094 0.639993218046 -160.395747811 0.000799373387632 90.3813895796 0.420577905531 -151.271160447
9.25 0.30787435145 -38.3004208206 0.305758652653 -125.669851707 0.631441873221 -70.7953897354 0.642654552092 16.8903578664 0.305758652653 -125.669851707 0.307701259034 -39.3276963054 0.634612205538 -70.8771527193 0.639607509871 -163.209622113 0.63144187322 -70.7953897354 0.634612205538 -70.8771527193 0.445582190029 120.396383003 0.000798892346959 86.9793901918 0.642654552092 16.8903578664 0.63960750987 -163.209622113 0.000798892347284 86.9793902037 0.421777774915 -153.877977232
9.275 0.307060164049 -41.1877826731 0.305894492815 -128.994324297 0.632184571144 -75.1882851951 0.642249637015 14.0851000853 0.305894492815 -128.994324297 0.306839326379 -42.2184956999 0.635355813903 -75.2714113884 0.639218720922 -166.016789413 0.632184571144 -75.1882851951 0.635355813903 -75.2714113884 0.443466514566 114.799077327 0.000798790250988 83.5835177796 0.642249637015 14.0851000853 0.639218720922 -166.016789413 0.000798790251171 83.5835177857 0.42298234975 -156.48066146
9.3 0.306268444456 -44.0689939707 0.306063752903 -132.306095585 0.632900724395 -79.5691019308 0.641841956596 11.2864508445 0.306063752903 -132.306095585 0.306000445337 -45.1032546568 0.636072933754 -79.6536015357 0.638826861626 -168.817368082 0.632900724395 -79.5691019308 0.636072933754 -79.6536015357 0.441414202975 109.219315919 0.00079906257127 80.1921796901 0.641841956596 11.2864508445 0.638826861626 -168.817368082 0.000799062571326 80.1921796917 0.424191546901 -159.079295396
9.325 0.305496349556 -46.9441592852 0.306265531944 -135.605734415 0.633592279587 -83.9380541266 0.641431516428 8.49429363317 0.306265531944 -135.605734415 0.305181741533 -47.9820859196 0.636765519079 -84.023938016 0.638431941294 -171.611474077 0.633592279587 -83.9380541266 0.636765519079 -84.023938016 0.43942069153 103.65721441 0.000799703854434 76.8038525105 0.641431516428 8.49429363317 0.638431941294 -171.611474077 0.000799703854384 76.8038525088 0.425405287274 -161.673959733
9.35 0.304741141662 -49.8133496254 0.306498829031 -138.893793502 0.634261156111 -88.2953626214 0.641018322049 5.70851429812 0.306498829031 -138.893793502 0.304380445124 -50.855067995 0.637435496519 -88.3826423401 0.638033968149 -174.399220992 0.634261156111 -88.2953626214 0.637435496519 -88.3826423401 0.437481385138 98.1128111421 0.000800707847309 73.4170852058 0.641018322049 5.70851429813 0.638033968149 -174.399220992 0.000800707847175 73.4170852019 0.42662349568 -164.264733628
9.375 0.304000191497 -52.6766036308 0.306762552092 -142.170808442 0.634909241164 -92.6412538353 0.640602378671 2.92900099976 0.306762552092 -142.170808442 0.303593893816 -53.722246351 0.638084760356 -92.7299415979 0.637632949343 -177.180720109 0.634909241164 -92.6412538353 0.638084760356 -92.7299415979 0.435591675883 92.5860759837 0.000802067608354 70.030501547 0.640602378671 2.92900099977 0.637632949343 -177.180720109 0.000802067608159 70.0305015418 0.427846100718 -166.851694748
9.4 0.303270981146 -55.5339287743 0.307055525953 -145.437296888 0.635538385449 -96.9759588558 0.64018369095 0.155644164736 0.307055525953 -145.437296888 0.302819535856 -56.5836346221 0.638715168197 -97.0660675438 0.63722889099 -179.956080449 0.635538385449 -96.9759588558 0.638715168197 -97.0660675438 0.433746958951 87.076918257 0.00080377560665 66.6428018848 0.640183690951 0.155644164747 0.63722889099 -179.956080449 0.000803775606416 66.6428018791 0.429073034653 -169.434919316
9.425 0.302551106976 -58.3853025763 0.307376499732 -148.693757887 0.63615039949 -101.299712672 0.639762262797 -2.61166356499 0.307376499732 -148.693757887 0.302054932978 -59.4392158247 0.639328537273 -101.391255829 0.636821798188 177.274591169 0.63615039949 -101.299712672 0.639328537273 -101.391255829 0.431942646251 81.585193774 0.000805823810054 63.2527643298 0.639762262797 -2.61166356498 0.636821798188 177.274591169 0.000805823809802 63.2527643243 0.430304233307 -172.014482151
9.45 0.301838282485 -61.2306738284 0.307724153636 -151.94067135 0.636747050499 -105.612753542 0.63933809723 -5.37302738565 0.307724153636 -151.94067135 0.301297763301 -62.2889435797 0.639926641289 -105.705745365 0.636411675053 174.511190072 0.6367470505 -105.612753542 0.639926641289 -105.705745365 0.430174178087 76.1107109766 0.000808203763993 59.8592453899 0.63933809723 -5.37302738564 0.636411675053 174.511190072 0.000808203763741 59.8592453849 0.43153963595 -174.590456713
9.475 0.301130341101 -64.0699638251 0.308097105205 -155.17849765 0.63733005972 -109.915322477 0.638911196262 -8.1285503871 0.308097105205 -155.17849765 0.300545824151 -65.1327433431 0.640511207759 -110.009777814 0.63599852474 171.753613674 0.63733005972 -109.915322477 0.640511207759 -110.009777814 0.428437033205 70.6532362078 0.000810906662212 56.4611801055 0.638911196262 -8.12855038709 0.63599852474 171.753613674 0.000810906661976 56.4611801013 0.432779185196 -177.162915147
9.5 0.300425238875 -66.9030676035 0.308493915039 -158.407677328 0.637901100186 -114.207662833 0.638481560812 -10.8783336097 0.308493915039 -158.407677328 0.299797034806 -67.9705136423 0.641083915756 -114.303597171 0.635582349479 169.001761417 0.637901100186 -114.207662833 0.641083915756 -114.303597171 0.426726737475 65.2124981526 0.000813923410666 53.057581722 0.638481560812 -10.8783336096 0.635582349479 169.001761417 0.000813923410457 53.0575817187 0.434022826901 -179.731928327
9.525 0.299721057088 -69.7298551868 0.308913092077 -161.628630898 0.638461794856 -118.490019995 0.638049190647 -13.6224761017 0.308913092077 -161.628630898 0.29904943914 -70.802127316 0.641646394043 -118.587449457 0.635163150596 166.255534713 0.638461794856 -118.490019995 0.641646394043 -118.587449457 0.425038871497 59.7881915015 0.000817244685543 49.6475409274 0.638049190647 -13.6224761017 0.635163150597 166.255534713 0.000817244685371 49.6475409251 0.435270510071 177.702434104
9.55 0.299016004721 -72.5501728318 0.309353098457 -164.841758742 0.63901371505 -122.762641141 0.637614084343 -16.3610749778 0.309353098457 -164.841758742 0.298301208151 -73.627432757 0.642200219507 -122.861582475 0.634740928546 163.514836885 0.63901371505 -122.762641141 0.642200219507 -122.861582475 0.423369077331 54.3799798958 0.000820860986305 46.2302246866 0.637614084343 -16.3610749778 0.634740928546 163.514836885 0.000820860986175 46.2302246851 0.436522186763 175.140103689
9.575 0.298308420807 -75.3638442761 0.309812354 -168.047441076 0.639558379159 -127.025775074 0.637176239263 -19.0942254768 0.309812354 -168.047441076 0.297550642359 -76.4462551531 0.64274691587 -127.126245647 0.634315682934 160.779573107 0.639558379159 -127.025775074 0.64274691587 -127.126245647 0.421713064545 48.9874982244 0.00082476268443 42.8048746974 0.637176239263 -19.0942254767 0.634315682934 160.779573107 0.000824762684345 42.8048746965 0.437777811995 172.58101312
9.6 0.297596776632 -78.1706719828 0.310289240368 -171.246037988 0.640097251571 -131.279672112 0.636735651554 -21.822021019 0.310289240368 -171.246037988 0.296796174069 -79.2583977265 0.643287952615 -131.381689904 0.633887412543 158.04965035 0.640097251571 -131.279672112 0.643287952615 -131.381689904 0.42006661574 43.6103543401 0.00082894006846 39.3708054957 0.636735651554 -21.822021019 0.633887412543 158.04965035 0.000828940068419 39.3708054954 0.43903734366 170.025096193
9.625 0.296879677779 -80.9704383813 0.310782104911 -174.437889534 0.640631741793 -135.524584025 0.636292316154 -24.5445532638 0.310782104911 -174.437889534 0.296036369477 -82.0636429665 0.643824744109 -135.628167625 0.63345611536 155.32497732 0.640631741793 -135.524584025 0.643824744109 -135.628167625 0.418425591656 38.2481302714 0.000833383385776 35.9274022364 0.636292316154 -24.5445532638 0.63345611536 155.32497732 0.000833383385777 35.9274022364 0.440300742434 167.472287772
9.65 0.296155866025 -83.7629071 0.311289264258 -177.623315877 0.641163203708 -139.760764015 0.635846226809 -27.2619121654 0.311289264258 -177.623315877 0.295269930634 -84.8617538554 0.644358648868 -139.865932613 0.633021788596 152.605464405 0.641163203708 -139.760764015 0.644358648868 -139.865932613 0.41678593598 32.900382997 0.000838082881456 32.474118176 0.635846226808 -27.2619121654 0.633021788596 152.605464405 0.000838082881493 32.4741181762 0.441567971694 164.922523749
9.675 0.295424221064 -86.5478241903 0.311809007666 179.197382523 0.641692934965 -143.988466718 0.635397376096 -29.9741860276 0.311809007666 179.197382523 0.294495697244 -87.6524750835 0.644890968952 -144.095240102 0.632584428707 149.891023622 0.641692934965 -143.988466718 0.644890968952 -144.095240102 0.415143679892 27.5666448565 0.000843028834432 29.0104718886 0.635397376096 -29.9741860276 0.632584428707 149.891023622 0.0008430288345 29.0104718888 0.442838997432 162.375741008
9.7 0.294683762089 -89.3249193397 0.312339600158 176.023924687 0.642222176458 -148.207948238 0.634945755459 -32.6814615572 0.312339600158 176.023924687 0.293712648319 -90.4355342535 0.645422949445 -148.316346791 0.632144031422 147.18156856 0.642222176458 -148.207948238 0.645422949445 -148.316346791 0.413494946434 22.2464236597 0.000848211591115 25.5360442418 0.634945755459 -32.6814615572 0.632144031422 147.18156856 0.000848211591208 25.536044242 0.444113788176 159.831877384
9.725 0.293933649214 -92.0939070723 0.312879285481 172.856048872 0.642752111873 -152.419466189 0.634491355237 -35.3838239167 0.312879285481 172.856048872 0.292919903682 -93.2106430713 0.645955778009 -152.529510889 0.631700591757 144.477014329 0.642752111873 -152.419466189 0.645955778009 -152.529510889 0.411835954703 16.9392025561 0.00085362159655 22.0504751681 0.634491355237 -35.3838239167 0.631700591756 144.477014329 0.000853621596659 22.0504751682 0.445392314905 157.290871633
9.75 0.293173184762 -94.8544879377 0.313426288891 169.693512295 0.643283867282 -156.623279756 0.634034164705 -38.081356774 0.313426288891 169.693512295 0.29211672534 -95.9774985242 0.64649058449 -156.734992173 0.631254104034 141.777277512 0.643283867282 -156.623279756 0.64649058449 -156.734992173 0.410163023906 11.64443972 0.000859249423128 18.5534602619 0.634034164705 -38.081356774 0.631254104034 141.777277512 0.000859249423245 18.553460262 0.446674550972 154.752663394
9.775 0.292401814429 -97.6063496878 0.3139788198 166.536090846 0.643818510778 -160.819649758 0.633574172112 -40.7741423517 0.3139788198 166.536090846 0.291302518735 -98.7357840466 0.647028440548 -160.933052057 0.630804561905 139.082276113 0.643818510778 -160.819649758 0.647028440548 -160.933052057 0.408472577296 6.36156789955 0.000865085796848 15.0447472385 0.633574172111 -40.7741423517 0.630804561905 139.082276113 0.000865085796967 15.0447472385 0.447960472024 152.217193155
9.8 0.291619128338 -100.349168443 0.3145350743 163.383578795 0.64435705211 -165.008838711 0.633111364715 -43.4622614742 0.3145350743 163.383578795 0.290476833891 -101.485170674 0.647570359311 -165.123953652 0.630351958366 136.39192951 0.64435705211 -165.008838711 0.647570359311 -165.123953652 0.406761145972 1.0899938704 0.000871121621071 11.5241322895 0.633111364715 -43.4622614742 0.630351958366 136.39192951 0.000871121621184 11.5241322894 0.449250055923 149.684402224
9.825 0.290824862016 -103.082609852 0.315093237569 160.235788483 0.644900442336 -169.191110897 0.632645728824 -46.1457936129 0.315093237569 160.235788483 0.289639366485 -104.225318191 0.64811729502 -169.30796184 0.629896285776 133.706158409 0.644900442336 -169.191110897 0.64811729502 -169.30796184 0.405025372585 -4.1709021689 0.000877347997718 7.99145637007 0.632645728824 -46.1457936129 0.629896285776 133.706158409 0.000877347997821 7.99145637004 0.450543282669 147.154232695
9.85 0.290018897298 -105.806330246 0.315651486186 157.092550022 0.645449573457 -173.366732423 0.632177249829 -48.8248169298 0.315651486186 157.092550022 0.288789958851 -106.955876269 0.64867014268 -173.485343332 0.629437535871 131.024884799 0.645449573457 -173.366732423 0.64867014268 -173.485343332 0.403262014924 -9.42176723335 0.000883756245853 4.44660145468 0.632177249829 -48.8248169298 0.629437535871 131.024884799 0.00088375624594 4.44660145477 0.451840134323 144.626627415
9.875 0.2892012632 -108.519977798 0.31620799037 153.953710999 0.646005278039 -177.535971282 0.631705912239 -51.4994083198 0.31620799037 153.953710999 0.287928600959 -109.676485615 0.649229737677 -177.656366728 0.628975699786 128.348031909 0.646005278039 -177.535971282 0.649229737677 -177.656366728 0.401467949427 -14.6632761976 0.000890337917592 0.889486794181 0.631705912238 -51.4994083198 0.628975699786 128.348031909 0.00089033791766 0.889486794452 0.45314059493 142.101529959
9.9 0.288372136771 -111.223193691 0.316760916145 150.819136188 0.646568328801 178.300902602 0.631231699709 -54.1696434509 0.316760916145 150.819136188 0.287055431378 -112.386779118 0.649796855379 178.17869743 0.628510768067 125.675524165 0.646568328801 178.300902602 0.649796855379 178.17869743 0.399640174611 -19.8961324373 0.000897084811325 -2.67993479057 0.631231699709 -54.1696434509 0.628510768067 125.675524165 0.000897084811371 -2.67993479005 0.454444650447 139.578884601
9.925 0.287531843965 -113.9156133 0.317308427456 147.688707275 0.647139438182 174.143617326 0.630754595074 -56.8355968023 0.317308427456 147.688707275 0.286170738258 -115.086383021 0.650372210699 174.019576614 0.628042730688 123.007287151 0.647139438182 174.143617326 0.650372210699 174.019576614 0.397775814461 -25.121068456 0.000903988982231 -6.26168054766 0.630754595074 -56.8355968023 0.628042730687 123.007287151 0.000903988982255 -6.26168054682 0.455752288659 137.058636282
9.95 0.286680860528 -116.596867404 0.317848688238 144.562322605 0.647719257858 169.991898969 0.630274580369 -59.4973417025 0.317848688238 144.562322605 0.285274960349 -117.774918117 0.650956457621 169.86599627 0.627571577068 120.343247568 0.647719257858 169.991898969 0.650956457621 169.86599627 0.395872121805 -30.3388464963 0.000911042750129 -9.85574133603 0.630274580369 -59.4973417025 0.627571577067 120.343247568 0.000911042750131 -9.85574133485 0.457063499112 134.540730589
9.975 0.285819812956 -119.266583445 0.31837986447 141.439896954 0.648308378226 165.845471567 0.629791636852 -62.1549503639 0.31837986447 141.439896954 0.28436868808 -120.45200098 0.651550188683 165.717679787 0.627097296086 117.683333196 0.648308378226 165.845471567 0.651550188683 165.717679787 0.393926481728 -35.5502591352 0.000918238704717 -13.4620850438 0.629791636852 -62.1549503639 0.627097296086 117.683333196 0.000918238704698 -13.4620850422 0.458378273034 132.025113724
10 0.284949479501 -121.924386828 0.318900126197 138.321361324 0.648907327835 161.70405708 0.629305745029 -64.8084939178 0.318900126197 138.321361324 0.283452664718 -123.117245263 0.652153934409 161.57434847 0.6266198761 115.027472856 0.648907327835 161.70405708 0.652153934409 161.57434847 0.391936415059 -40.7561298723 0.000925569708306 -17.0806598591 0.629305745029 -64.8084939178 0.6266198761 115.027472856 0.000925569708269 -17.0806598572 0.459696603261 129.511732484
10.025 0.284070791265 -124.5699023 0.319407649565 135.20666277 0.649516572771 157.567375379 0.628816884666 -67.4580424468 0.319407649565 135.20666277 0.282527787602 -125.770263048 0.652768162701 157.435721517 0.626139304958 112.375596375 0.649516572771 157.567375379 0.652768162701 157.435721517 0.389899582012 -45.95731372 0.000933028896197 -20.7113973742 0.628816884666 -67.4580424468 0.626139304958 112.375596375 0.000933028896145 -20.711397372 0.461018484161 127.000534233
10.05 0.283184833372 -127.202755408 0.319900618868 132.09576427 0.650136515992 153.435144224 0.628325034807 -70.1036650167 0.319900618868 132.09576427 0.281595109486 -128.4106663 0.653393278169 153.301516004 0.625655570016 109.727634553 0.650136515992 153.435144224 0.653393278169 153.301516004 0.387813786037 -51.1546978111 0.000940609674863 -24.3542155053 0.628325034807 -70.1036650167 0.625655570016 109.727634553 0.000940609674798 -24.3542155029 0.462343911559 124.49146688
10.075 0.28229284621 -129.82257407 0.320377228626 128.988644625 0.650767496607 149.307079249 0.62783017379 -72.7454297073 0.320377228626 128.988644625 0.28065583996 -131.038068414 0.654029621412 149.171446865 0.625168658157 107.083519121 0.650767496607 149.307079249 0.654029621412 149.171446865 0.385676977961 -56.3492020394 0.000948305718155 -28.0090212169 0.62783017379 -72.7454297073 0.625168658157 107.083519121 0.000948305718082 -28.0090212144 0.463672882666 121.984478856
10.1 0.281396226748 -132.428990259 0.320835685715 125.885298407 0.651409789101 145.182893951 0.627332279255 -75.3834036415 0.320835685715 125.885298407 0.279711346959 -133.652085894 0.654677468249 145.045226877 0.624678555803 104.443182715 0.651409789101 145.182893951 0.654677468249 145.045226877 0.383487260511 -61.5417797527 0.000956110961781 -31.6757130402 0.627332279255 -75.3834036415 0.624678555803 104.443182715 0.000956110961704 -31.6757130377 0.465005395999 119.479519094
10.125 0.280496529881 -135.021641838 0.321274211564 122.78573596 0.652063602512 141.062299669 0.626831328161 -78.0176530143 0.321274211564 122.78573596 0.278763158318 -136.252340179 0.655337028882 140.922566643 0.624185248933 101.806558841 0.652063602512 141.062299669 0.655337028882 140.922566643 0.381242893304 -66.7334185185 0.000964019596306 -35.3541833824 0.626831328161 -78.0176530143 0.624185248933 101.806558841 0.000964019596228 -35.3541833801 0.466341451307 116.976537005
10.15 0.279595469795 -137.600174557 0.321691044454 119.689983437 0.652729079537 136.945005565 0.626327296796 -80.6482431204 0.321691044454 119.689983437 0.277812963369 -138.838459644 0.656008447018 136.80317457 0.6236887231 99.1735818384 0.652729079537 136.945005565 0.656008447018 136.80317457 0.378942298406 -71.9251409827 0.000972026058967 -39.0443206242 0.626327296796 -80.6482431204 0.6236887231 99.1735818384 0.000972026058892 -39.0443206221 0.467681049497 114.475482459
10.175 0.278694921284 -140.164244239 0.322084441923 116.59808291 0.653406295602 132.830718601 0.625820160787 -83.2752383814 0.322084441923 116.59808291 0.276862614512 -141.410081783 0.656691798925 132.68675684 0.623188963445 96.5441868534 0.653406295602 132.830718601 0.656691798925 132.68675684 0.376584066566 -77.1180058421 0.00098012502461 -42.7460110076 0.625820160787 -83.2752383814 0.623188963445 96.5441868534 0.000980125024541 -42.7460110059 0.469024192557 111.976305767
10.2 0.277796920977 -142.713519169 0.322452683321 113.510092523 0.654095257857 128.719143502 0.625309895118 -85.8987023725 0.322452683321 113.510092523 0.275914128706 -143.966855617 0.657387092432 128.573017378 0.622685954714 93.9183098045 0.654095257857 128.719143502 0.657387092433 128.573017378 0.374166964239 -82.3131089519 0.000988311396034 -46.4591403206 0.625309895118 -85.8987023724 0.622685954714 93.9183098044 0.000988311395973 -46.4591403193 0.470370883479 109.478957655
10.225 0.276903668398 -145.247682718 0.322794072542 110.426086713 0.654795904128 124.609982718 0.624796474141 -88.5186978476 0.322794072542 110.426086713 0.274969688828 -146.50844434 0.658094265883 124.461657811 0.622179681275 91.295887352 0.654795904128 124.609982718 0.658094265883 124.461657811 0.3716899415 -87.511584585 0.000996580294063 -50.1835953845 0.624796474141 -88.5186978476 0.622179681275 91.295887352 0.000996580294012 -50.1835953837 0.471721126182 106.983389254
10.25 0.276017526776 -147.766436208 0.323106940961 107.346156497 0.655508101809 120.502936368 0.624279871595 -91.1352867659 0.323106940961 107.346156497 0.274031644792 -149.034528221 0.658813187018 120.352377406 0.621670127131 88.6768568672 0.655508101809 120.502936368 0.658813187018 120.352377406 0.369152140988 -92.7146068611 0.00100492704765 -53.9192653562 0.624279871595 -91.1352867659 0.621670127131 88.6768568672 0.00100492704761 -53.9192653559 0.473074925436 104.489552075
10.275 0.275141023505 -150.269502045 0.323389650611 104.270409818 0.656231646695 116.397702177 0.623760060626 -93.7485303156 0.323389650611 104.270409818 0.273102514351 -151.544807788 0.65954365182 116.244873008 0.621157275937 86.0611564014 0.656231646695 116.397702177 0.65954365182 116.244873008 0.366552907993 -97.9233913575 0.00101334718428 -57.6660428566 0.623760060626 -93.7485303156 0.621157275937 86.0611564014 0.00101334718425 -57.666042857 0.474432286779 101.997397995
10.3 0.274276850152 -152.756627134 0.32364059765 101.198971976 0.656966261773 112.293975392 0.623237013808 -96.3584889397 0.32364059765 101.198971976 0.272184983454 -154.039007311 0.660285383292 112.138838957 0.620641111017 83.4487246553 0.656966261773 112.293975392 0.660285383292 112.138838957 0.363891801808 -103.139196913 0.00102183642102 -61.4238249406 0.623237013808 -96.3584889397 0.620641111017 83.4487246553 0.001021836421 -61.4238249416 0.475793216441 99.5068792364
10.325 0.273427861869 -155.227586575 0.323858216153 98.1319861163 0.657711595946 108.191448689 0.622710703172 -98.9652223596 0.323858216153 98.1319861163 0.271281906037 -156.516878586 0.661038030189 108.033966988 0.620121615373 80.8395009488 0.657711595946 108.191448689 0.661038030189 108.033966988 0.361168608501 -108.363327625 0.00103039065633 -65.1925139217 0.622710703172 -98.9652223596 0.620121615373 80.8395009488 0.00103039065632 -65.1925139232 0.477157721261 97.0179483544
10.35 0.272597076103 -157.682187665 0.324040982275 95.0696138031 0.658467222715 104.089812056 0.622181100236 -101.5687896 0.324040982275 95.0696138031 0.270396303119 -158.978205048 0.6618011657 103.929946114 0.619598771704 78.23342519 0.658467222715 104.089812056 0.6618011657 103.929946114 0.358383355216 -113.59713505 0.0010390059631 -68.9720180696 0.622181100236 -101.5687896 0.619598771704 78.23342519 0.0010390059631 -68.9720180716 0.478525808606 94.5305582168
10.375 0.271787670431 -160.120274194 0.324187418851 92.0120356705 0.659232638807 99.9887526602 0.621648176041 -104.169249011 0.324187418851 92.0120356705 0.26953136104 -161.422806204 0.662574286075 99.8264624896 0.619072562419 75.6304378453 0.659232638807 99.9887526602 0.662574286075 99.8264624896 0.35553632616 -118.842020576 0.00104767858292 -72.7622521964 0.621648176041 -104.169249011 0.619072562419 75.6304378453 0.00104767858293 -72.7622521986 0.479897486283 92.0446619891
10.4 0.271002979378 -162.54173103 0.324296100474 88.9594521512 0.66000726276 95.8879546911 0.621111901191 -106.766658295 0.324296100474 88.9594521512 0.268690428678 -163.850542381 0.663356809212 95.7231992554 0.618542969648 73.030479908 0.66000726276 95.8879546911 0.663356809212 95.7231992554 0.352628080413 -124.099437984 0.00105640492191 -76.5631381471 0.621111901191 -106.766658295 0.618542969648 73.030479908 0.00105640492192 -76.5631381496 0.481272762459 89.5602131195
10.425 0.270246490048 -164.94648899 0.324365659121 85.9120842883 0.660790433454 91.7870991865 0.620572245897 -109.361074527 0.324365659121 85.9120842883 0.267877013495 -166.261319791 0.664148073196 91.6198363555 0.618009975258 70.4334928684 0.660790433454 91.7870991865 0.664148073196 91.6198363555 0.349659471708 -129.370896133 0.00106518154827 -80.374605213 0.620572245897 -109.361074527 0.618009975258 70.4334928684 0.00106518154829 -80.3746052156 0.48265164557 87.0771653227
10.45 0.269521836401 -167.334529964 0.324394790397 82.8701746319 0.661581408611 87.6858638286 0.620029180032 -111.952554182 0.324394790397 82.8701746319 0.267094776209 -168.655095883 0.664947334796 87.5160503339 0.617473560862 67.8394186821 0.661581408611 87.6858638286 0.664947334796 87.5160503339 0.346631670325 -134.657961766 0.00107400519173 -84.1965904821 0.620029180032 -111.952554182 0.617473560862 67.8394186821 0.00107400519174 -84.1965904845 0.484034144232 84.5954725649
10.475 0.268832792013 -169.705892267 0.324382260471 79.8339882187 0.66237936325 83.5839227186 0.619482673185 -114.541153153 0.324382260471 79.8339882187 0.266347523934 -171.031884956 0.665753767929 83.4115141046 0.616933707832 65.2481997394 0.66237936325 83.5839227186 0.665753767929 83.4115141046 0.343546187251 -139.962262361 0.00108287274498 -88.0290391426 0.619482673185 -114.541153153 0.616933707832 65.2481997394 0.00108287274499 -88.0290391447 0.485420267149 82.1150890494
10.5 0.268183261127 -172.060676185 0.324326913781 76.8038136378 0.663183388105 79.4809461214 0.618932694724 -117.126926779 0.324326913781 76.8038136378 0.265639201589 -173.391764002 0.666566462085 79.3058966931 0.61639039731 62.6597788339 0.663183388105 79.4809461214 0.666566462085 79.3058966931 0.340404900751 -145.285488968 0.0010917812674 -91.8719047548 0.618932694724 -117.126926779 0.61639039731 62.6597788339 0.00109178126741 -91.8719047565 0.486810023015 79.635969202
10.525 0.267577267853 -174.399049654 0.3242276816 73.7799641815 0.663992488019 75.3766001826 0.618379213865 -119.709929866 0.3242276816 73.7799641815 0.264973881416 -175.734878719 0.667384420727 75.1988629488 0.615843610219 60.0740991305 0.663992488019 75.3766001826 0.667384420727 75.1988629488 0.337210085486 -150.62939894 0.00110072799105 -95.7251495049 0.618379213865 -119.709929866 0.615843610219 60.0740991305 0.00110072799106 -95.725149506 0.488203420423 77.1580676565
10.55 0.267018943334 -176.721254019 0.324083591564 70.7627790799 0.664805580309 71.2705466129 0.617822199743 -122.290216711 0.324083591564 70.7627790799 0.264355750418 -178.061449637 0.668206559668 71.0900732255 0.615293327274 57.4911041337 0.664805580309 71.2705466129 0.668206559668 71.0900732255 0.333964444337 -155.995818466 0.00110971032923 -99.5887444532 0.617822199743 -122.290216711 0.615293327274 57.4911041337 0.00110971032923 -99.5887444535 0.489600467757 74.6813392409
10.575 0.266512510742 -179.027609799 0.323893778259 67.7526248182 0.665621493114 67.1624423381 0.617261621496 -124.867841123 0.323893778259 67.7526248182 0.26378909556 179.628221711 0.669031705427 66.9791830262 0.614739528991 54.9107376549 0.665621493114 67.1624423381 0.669031705427 66.9791830262 0.330671143021 -161.386644747 0.00111872588767 -103.46266979 0.617261621496 -124.867841123 0.614739528991 54.9107376549 0.00111872588767 -103.46266979 0.491001173091 72.2057389636
10.6 0.266062267965 178.681477623 0.323657495 64.7498965331 0.666438963729 63.0519391123 0.616697448346 -127.442856448 0.323657495 64.7498965331 0.26327828659 177.333746668 0.66985859358 62.8658426113 0.614182195697 52.33294378 0.666438963729 63.0519391123 0.66985859358 62.8658426113 0.327333847644 -166.803847669 0.00112777247866 -107.346915112 0.616697448346 -127.442856448 0.614182195697 52.33294378 0.00112777247866 -107.346915111 0.492405544082 69.7312219999
10.625 0.265672567865 176.405512473 0.323374126906 61.7550194834 0.667256636932 58.9386830889 0.616129649692 -130.015315591 0.323374126906 61.7550194833 0.262827756345 175.054643461 0.6706858671 58.7496965633 0.613621307541 49.757666836 0.667256636932 58.9386830888 0.6706858671 58.7496965633 0.323956765239 -172.24947078 0.00113684813825 -111.241479728 0.616129649692 -130.015315591 0.613621307541 49.757666836 0.00113684813824 -111.241479726 0.493813587851 67.2577436782
10.65 0.265347796012 174.143903324 0.323043205442 58.7684505891 0.668073063318 54.8223143455 0.615558195201 -132.585271037 0.323043205442 58.7684505891 0.26244197842 172.790331454 0.671512074709 54.6303833066 0.613056844504 47.1848513567 0.668073063318 54.8223143455 0.671512074709 54.6303833066 0.320544687347 -177.725631317 0.00114595114684 -115.146373006 0.615558195201 -132.585271037 0.613056844504 47.1848513567 0.00114595114682 -115.146373003 0.495225310875 64.7852594671
10.675 0.265092345825 171.895958199 0.322664424556 55.7906800303 0.668886697633 50.7024663583 0.614983054914 -135.152774874 0.322664424556 55.7906800303 0.262125442147 170.540125756 0.672335669239 50.5075345735 0.612488786411 44.614442049 0.668886697633 50.7024663583 0.672335669239 50.5075345735 0.317103036616 176.765480974 0.00115508005349 -119.061614777 0.614983054914 -135.152774874 0.612488786411 44.614442049 0.00115508005347 -119.061614773 0.496640718854 62.313724962
10.7 0.264910591063 169.660880151 0.322237658605 52.8222328926 0.669695897134 46.5787654169 0.614404199346 -137.717878816 0.322237658605 52.8222328926 0.261882624784 168.303232286 0.673155006006 46.3807748128 0.611917112938 42.0463837572 0.669695897134 46.5787654169 0.673155006006 46.3807748128 0.313637916365 171.221606561 0.00116423370434 -122.987235805 0.614404199346 -137.717878816 0.611917112938 42.0463837572 0.00116423370432 -122.987235801 0.498059816593 59.8430958722
10.725 0.264806855661 167.437763418 0.32176298224 49.8636708466 0.670498919965 42.4508299739 0.613821599596 -140.280634222 0.32176298224 49.8636708465 0.26171796093 166.078743429 0.673968341223 42.2497205299 0.611341803632 39.4806214272 0.670498919965 42.4508299739 0.673968341223 42.2497205299 0.310156162914 165.640420776 0.00117341127558 -126.923278334 0.613821599596 -140.280634222 0.611341803632 39.4806214272 0.00117341127555 -126.923278329 0.499482607859 57.3733280075
10.75 0.264785380908 165.225590268 0.321240692485 46.91559384 0.671293923567 38.3182699175 0.613235227465 -142.841092121 0.321240692485 46.91559384 0.261635809128 163.865634387 0.674773830436 38.1139795511 0.610762837913 36.9171000697 0.671293923567 38.3182699174 0.674773830436 38.1139795511 0.306665400439 160.019540816 0.00118261231149 -130.869796729 0.613235227465 -142.841092121 0.610762837913 36.9171000697 0.00118261231146 -130.869796724 0.500909095247 54.9043772653
10.775 0.264850290012 163.023228624 0.320671333213 43.9786417791 0.672078963121 34.1806857573 0.612645055568 -145.399303231 0.320671333213 43.9786417791 0.261640415716 161.662760336 0.675569527007 33.9731501991 0.610180195101 34.3557647225 0.672078963121 34.1806857573 0.675569527007 33.9731501991 0.303174097915 154.356535609 0.00119183676834 -134.826858237 0.612645055568 -145.399303231 0.610180195101 34.3557647225 0.00119183676832 -134.826858232 0.502339280026 52.4361996177
10.8 0.265005550098 160.829430554 0.320055722314 41.053496168 0.672851990024 30.0376677091 0.612051057468 -147.955317984 0.320055722314 41.053496168 0.261735875973 159.468854486 0.676353380628 29.8268203657 0.609593854419 31.796560411 0.672851990024 30.0376677091 0.676353380628 29.8268203658 0.299691627576 148.64893908 0.00120108506476 -138.794543869 0.612051057468 -147.955317984 0.609593854419 31.796560411 0.00120108506474 -138.794543864 0.503773161988 49.968751098
10.825 0.265254931732 158.642831704 0.319394981813 38.1408816672 0.673610850408 25.8887946607 0.611453207795 -150.509186539 0.319394981813 38.1408816672 0.261926092641 157.282527127 0.677123235887 25.6745664668 0.60900379502 29.2394321079 0.673610850408 25.8887946607 0.677123235887 25.6745664668 0.296228324095 142.894267458 0.00121035813947 -142.77294945 0.611453207795 -150.509186539 0.60900379502 29.2394321079 0.00121035813945 -142.772949446 0.505210739278 47.5019877878
10.85 0.26560196606 156.461951704 0.318690571286 35.2415675241 0.67435328368 21.7336330029 0.610851482395 -153.060958813 0.318690571286 35.2415675241 0.262214731929 155.102265711 0.677876830866 21.5159522575 0.608409996001 26.6843246912 0.67435328368 21.7336330029 0.677876830866 21.5159522575 0.292795543457 137.090041263 0.00121965751753 -146.762186843 0.610851482395 -153.060958813 0.608409996001 26.6843246912 0.00121965751751 -146.762186839 0.506652008222 45.0358658033
10.875 0.266049899653 154.285195595 0.317944324918 32.3563688152 0.675076921079 17.5717352988 0.610245858465 -155.610684495 0.317944324918 32.3563688152 0.262605177113 152.926436021 0.678611795753 17.3505274875 0.607812436423 24.1311829002 0.675076921079 17.5717352988 0.678611795753 17.3505274875 0.289405720202 131.233812684 0.0012289853861 -150.762385399 0.610245858465 -155.610684495 0.607812436423 24.1311829001 0.00122898538609 -150.762385395 0.508096963139 42.5703412816
10.9 0.266601647178 152.110856255 0.317158492622 29.4861474268 0.67577928424 13.4026387687 0.609636314716 -158.158413071 0.317158492622 29.4861474268 0.263100479834 150.753284417 0.679325651476 13.1778263675 0.607211095335 21.579951289 0.67577928424 13.4026387687 0.679325651476 13.1778263675 0.286072421414 125.323199042 0.00123834468121 -154.773693659 0.609636314716 -158.158413071 0.607211095335 21.579951289 0.0012383446812 -154.773693657 0.509545596148 40.1053703671
10.925 0.26725974196 149.937117789 0.316335785664 26.631812686 0.676457783704 9.2258635555 0.60902283154 -160.704193841 0.316335785664 26.631812686 0.263703309224 148.580941122 0.680015808292 8.99736581556 0.606605951796 19.0305741784 0.676457783704 9.2258635555 0.680015808292 8.99736581556 0.28281039544 119.355923012 0.00124773918691 -158.796281368 0.60902283154 -160.704193841 0.606605951796 19.0305741784 0.0012477391869 -158.796281367 0.510997896952 37.6409091968
10.95 0.268026284509 147.762059817 0.315479427311 23.7943215309 0.677109717364 5.04091073667 0.608405391193 -163.248075945 0.315479427311 23.7943215309 0.264415898919 146.407424499 0.680679564319 4.80864344677 0.605996984897 16.4829956042 0.677109717364 5.04091073667 0.680679564319 4.80864344677 0.279635613012 113.329860197 0.00125717364869 -162.830341837 0.608405391193 -163.248075945 0.605996984897 16.4829956042 0.00125717364868 -162.830341837 0.512453852618 35.1769138861
10.975 0.268902889037 145.58366255 0.314593209068 20.9746780877 0.677732268752 0.847260038115 0.607783978001 -165.79010838 0.314593209068 20.9746780877 0.265239992024 144.230646185 0.681314103925 0.611135262109 0.605384173787 13.9371592619 0.677732268752 0.847260038115 0.681314103925 0.611135262109 0.276565297991 107.243094478 0.00126665390304 -166.876094741 0.607783978001 -165.79010838 0.605384173787 13.9371592619 0.00126665390303 -166.876094741 0.513913447339 32.713340513
11 0.269890627931 143.399812501 0.313681553162 18.1739324935 0.678322505101 -3.3556327998 0.607158578588 -168.33034002 0.313681553162 18.1739324935 0.266176784032 142.048416943 0.6819164959 -3.59570701388 0.604767497699 11.3930084484 0.678322505101 -3.3556327998 0.6819164959 -3.59570701388 0.273617944674 101.093981351 0.0012761870254 -170.933789406 0.607158578588 -168.33034002 0.604767497698 11.3930084484 0.00127618702539 -170.933789408 0.515376662169 30.2501451031
11.025 0.27098997409 141.20830865 0.312749581994 15.3931787708 0.678877375064 -7.56833906284 0.606529182131 -170.868819641 0.312749581994 15.3931787708 0.267226863616 139.858453029 0.682483691303 -7.81245900592 0.604146935965 8.85048599847 0.678877375064 -7.56833906284 0.682483691303 -7.81245900592 0.270813318272 94.8812190683 0.0012857814991 -175.003708695 0.606529182131 -170.868819641 0.604146935965 8.85048599848 0.0012857814991 -175.003708697 0.516843474755 27.7872836127
11.05 0.27220074094 139.00686883 0.311803195387 12.6335515178 0.679393705932 -11.7914605787 0.605895780657 -173.405595937 0.311803195387 12.6335515178 0.268390151156 137.658382835 0.683012520825 -12.0397272406 0.603522468041 6.3095342166 0.679393705932 -11.7914605787 0.683012520825 -12.0397272406 0.268172435006 88.6039269933 0.0012954474082 -179.08617357 0.605895780657 -173.405595937 0.603522468041 6.3095342166 0.00129544740819 -179.086173572 0.51831385904 25.3247119122
11.075 0.273522019851 136.793136083 0.310849156564 9.89622113704 0.679868200178 -16.0256337877 0.605258369373 -175.94071754 0.310849156564 9.89622113705 0.269665834728 135.445753518 0.683499691494 -16.2781532594 0.602894073518 3.77009480235 0.679868200178 -16.0256337877 0.683499691494 -16.2781532594 0.265717518293 82.2617299215 0.00130519665747 176.818451526 0.605258369373 -175.94071754 0.602894073518 3.77009480236 0.00130519665746 176.818451523 0.519787784939 22.8623857681
11.1 0.274952114523 134.56468466 0.309895187916 7.18238726626 0.680297431065 -20.2715344628 0.604616947046 -178.474233037 0.309895187916 7.18238726627 0.271052303184 133.218037295 0.683941782463 -20.5284183867 0.602261732125 1.2321087695 0.680297431065 -20.2715344628 0.683941782463 -20.5284183867 0.263471927736 75.8548464481 0.00131504322352 172.709752343 0.604616947046 -178.474233037 0.602261732125 1.2321087695 0.00131504322351 172.70975234 0.521265217997 20.4002608246
11.125 0.276488471782 132.31902533 0.308950077764 4.49327001575 0.680677837021 -24.5298831866 0.603971516448 178.993809013 0.308950077764 4.49327001576 0.272547075757 130.972637002 0.684335239596 -24.7912492627 0.601625423725 -1.30448364296 0.680677837021 -24.5298831866 0.684335239596 -24.7912492627 0.261460058207 69.3841786305 0.00132500344142 168.587257396 0.603971516448 178.993809013 0.601625423725 -1.30448364296 0.00132500344142 168.587257393 0.522746119022 17.9382925837
11.15 0.278127608023 130.053609598 0.308023799485 1.83009854387 0.681005714392 -28.8014517151 0.603322084845 176.463360067 0.308023799485 1.83009854387 0.274146727473 128.706890524 0.684676368447 -29.0674242711 0.600985128291 -3.83974306851 0.681005714392 -28.8014517151 0.684676368447 -29.0674242711 0.259707207317 62.8513993441 0.00133509633207 164.450429235 0.603322084845 176.463360067 0.600985128291 -3.83974306851 0.00133509633206 164.450429234 0.524230443672 15.4764363851
11.175 0.279865030295 127.765832381 0.307127644566 -0.805903579964 0.68127720808 -33.0870703765 0.602668664575 173.934371591 0.307127644566 -0.805903579962 0.275846809383 126.418073567 0.684961325165 -33.3577810124 0.600340825864 -6.37373112102 0.68127720808 -33.0870703765 0.684961325165 -33.3577810124 0.258239410957 56.2590329146 0.0013453439764 160.298654211 0.602668664575 173.934371591 0.600340825864 -6.37373112102 0.00134534397639 160.29865421 0.525718142032 13.0146473846
11.2 0.281695150736 125.453032632 0.306274371393 -3.41353686752 0.681488299473 -37.3876366831 0.60201127368 171.406795054 0.306274371393 -3.41353686752 0.277641762344 124.103400242 0.685186104711 -37.6632250015 0.599692496484 -8.90651051409 0.681488299473 -37.3876366831 0.685186104711 -37.6632250015 0.257083248478 49.6105239309 0.00135577194377 156.131230461 0.60201127368 171.406795054 0.599692496484 -8.90651051409 0.00135577194377 156.131230461 0.527209158132 10.5528805313
11.225 0.283611192659 123.112491302 0.305478371821 -5.99164900565 0.681634790894 -41.7041253627 0.601349936635 168.880581933 0.305478371821 -5.99164900565 0.279524822684 121.760020804 0.685346525636 -41.9847397996 0.599040120082 -11.4381451936 0.681634790894 -41.7041253627 0.685346525636 -41.9847397996 0.256265621369 42.9102887523 0.00136640978312 151.947353836 0.601349936635 168.880581933 0.599040120082 -11.4381451936 0.00136640978312 151.947353837 0.528703429439 8.0910905437
11.25 0.285605086094 120.741425947 0.304755857926 -8.53916341154 0.681712285642 -46.0376000567 0.60068468514 166.355683721 0.304755857926 -8.53916341154 0.28148791759 119.385015778 0.685438210496 -46.3233988281 0.598383676331 -13.9687004847 0.681712285642 -46.0376000568 0.685438210496 -46.3233988281 0.255813511836 36.1637442357 0.0013772915873 147.746101399 0.60068468514 166.355683721 0.598383676331 -13.9687004847 0.00137729158731 147.746101401 0.530200886302 5.62923188522
11.275 0.287667349874 118.336981113 0.3041250717 -11.0551142329 0.68171616246 -50.3892269744 0.600015559002 163.832051954 0.3041250717 -11.0551142329 0.283521547345 116.975385555 0.685456560725 -50.6803791602 0.597723144442 -16.4982432565 0.68171616246 -50.3892269745 0.685456560725 -50.6803791602 0.255753730401 29.3773087707 0.00138845664328 143.526412063 0.600015559002 163.832051954 0.597723144442 -16.4982432566 0.0013884566433 143.526412065 0.531701451342 3.16725873765
11.3 0.289786956412 115.896213457 0.303606520919 -13.5386889076 0.681641542963 -54.7602908521 0.599342607088 161.309638238 0.303606520919 -13.5386889076 0.285614650632 114.528034329 0.685396724534 -55.0569776396 0.597058502883 -19.0268421044 0.681641542963 -54.7602908521 0.685396724534 -55.0569776396 0.256112664075 22.5583718826 0.0013999501835 139.287063878 0.599342607088 161.309638238 0.597058502883 -19.0268421045 0.00139995018351 139.28706388 0.533205038803 0.705124974022
11.325 0.291951173973 113.416070266 0.303223244988 -15.9892795351 0.68148325023 -59.1522136295 0.598665888337 158.788394302 0.303223244988 -15.9892795351 0.287754447809 112.039746948 0.685253556012 -59.454629745 0.596389729017 -21.5545675548 0.68148325023 -59.1522136295 0.685253556012 -59.454629745 0.256916038677 15.7152304509 0.0014118242572 135.026647331 0.598665888337 158.788394302 0.596389729017 -21.5545675548 0.00141182425721 135.026647332 0.53471155383 -1.75721586998
11.35 0.294145379388 110.893359701 0.303001115238 -18.4065444521 0.681235756306 -63.5665763422 0.597985472833 156.26827206 0.303001115238 -18.4065444521 0.289926255209 109.507156882 0.685021563211 -63.8749317037 0.595716798629 -24.0814922933 0.681235756306 -63.5665763422 0.685021563211 -63.8749317037 0.258188709972 8.85699190696 0.001424138745 130.743533909 0.597985472833 156.26827206 0.595716798629 -24.0814922933 0.00142413874499 130.743533909 0.5362208917 -4.21981062555
11.375 0.296352831462 108.324710541 0.302969175041 -20.7904815469 0.680893115783 -68.0051448258 0.597301442911 153.749223689 0.302969175041 -20.7904815469 0.292113260966 106.926702925 0.684694842363 -68.3196664597 0.595039685324 -26.60769142 0.680893115783 -68.0051448258 0.684694842363 -68.3196664597 0.259954498282 1.99344738489 0.0014369625452 126.435839011 0.597301442911 153.749223689 0.595039685324 -26.60769142 0.00143696254517 126.435839009 0.537732936968 -6.68270652143
11.4 0.298554391536 105.706518553 0.303160026145 -23.141514986 0.68044888192 -72.4698999593 0.596613894264 151.231201737 0.303160026145 -23.1415149859 0.294296249089 104.294571555 0.684266994724 -72.7908342279 0.594358359754 -29.1332427353 0.680448881921 -72.4698999593 0.684266994724 -72.7908342279 0.26223607981 -4.86507956043 0.00145037496771 122.101378039 0.596613894264 151.231201737 0.594358359754 -29.1332427353 0.00145037496766 122.101378034 0.539247562557 -9.14595121543
11.425 0.30072817211 103.034875598 0.303610268983 -25.4605971647 0.679896000859 -76.9630733258 0.595922937051 148.714159238 0.303610268983 -25.4605971647 0.296453253171 101.606620785 0.683731021572 -77.2906885267 0.593672788662 -31.6582270586 0.679896000859 -76.9630733257 0.683731021572 -77.2906885267 0.265054945138 -11.7079007632 0.00146446737976 117.737614243 0.595922937051 148.714159238 0.593672788662 -31.6582270586 0.00146446737969 117.737614235 0.540764628755 -11.6095928268
11.45 0.302849086364 100.305476275 0.304361006339 -27.7493278393 0.679226678264 -81.4871893675 0.595228696945 146.198049862 0.304361006339 -27.7493278393 0.29855911325 98.8582799137 0.683079191733 -81.8217787787 0.592982933675 -34.1827285854 0.679226678265 -81.4871893675 0.683079191733 -81.8217787787 0.268431431314 -18.5241382484 0.00147934515914 113.341596509 0.595228696945 146.198049862 0.592982933675 -34.1827285854 0.00147934515905 113.341596501 0.542283982132 -14.0736799689
11.475 0.30488825946 97.5134949831 0.305458421797 -30.0100925567 0.678432211251 -86.0451153568 0.594531316113 143.682828078 0.305458421797 -30.0100925567 0.300584897762 96.0444175334 0.682302874454 -86.3870008153 0.592288749811 -36.7068352861 0.678432211251 -86.0451153568 0.682302874454 -86.3870008153 0.272384828902 -25.3028957832 0.00149513002458 108.909884769 0.594531316113 143.682828078 0.592288749811 -36.7068352861 0.0014951300245 108.909884763 0.543805454359 -16.5382617826
11.5 0.306812244716 94.6534236142 0.306954446835 -32.2462227098 0.67750277641 -90.6401208112 0.593830954074 141.168449339 0.306954446835 -32.2462227098 0.3024971353 93.1591672242 0.681392328487 -90.9896569379 0.591590183643 -39.2306393508 0.67750277641 -90.6401208112 0.681392328487 -90.9896569379 0.276933559909 -32.0334172722 0.00151196283087 104.438460077 0.593830954074 141.168449339 0.591590183643 -39.2306393508 0.00151196283088 104.438460077 0.545328860936 -19.0033879693
