! Generated from PyAEDT SolutionData; AEDT ExportNetworkData workaround
# GHz S MA R 50
9 0.288395826658 -15.2915473623 0.324615139835 -98.9647618864 0.628078455209 -29.3581667083 0.645732384397 45.6045938816 0.324615139835 -98.9647618864 0.288799808834 -15.4649337659 0.629225061881 -29.4446903088 0.64443425026 -134.463995213 0.628078455209 -29.3581667083 0.629225061881 -29.4446903088 0.457813204558 -178.625996293 0.000587652857479 -45.4327581359 0.645732384397 45.6045938816 0.64443425026 -134.463995213 0.000587652857477 -45.4327581359 0.409553219371 -125.447268031
9.025 0.28721038449 -18.2542706105 0.324545621898 -102.409756866 0.629018477604 -33.869808937 0.64538026135 42.7268642221 0.324545621898 -102.409756866 0.28760870973 -18.4284140447 0.630175678589 -33.9564369717 0.644072557458 -137.342051056 0.629018477604 -33.869808937 0.630175678589 -33.9564369717 0.455229764205 175.683809326 0.000592637860035 -49.780786114 0.64538026135 42.7268642221 0.644072557458 -137.342051056 0.00059263786 -49.7807861057 0.410675531183 -128.08975874
9.05 0.286076185125 -21.2081636159 0.324509914683 -105.836592179 0.629916931654 -38.3685284771 0.645025445923 39.8570445782 0.324509914682 -105.836592179 0.286468851838 -21.3831198912 0.631084846599 -38.4552599468 0.643708071488 -140.212199672 0.629916931654 -38.3685284771 0.631084846599 -38.4552599468 0.45273376 170.004453554 0.000597568743755 -54.1209450184 0.645025445923 39.8570445782 0.643708071488 -140.212199672 0.000597568743699 -54.120945005 0.411802814102 -130.7273535
9.075 0.28498958926 -24.1538014139 0.324508796884 -109.245871814 0.630775424415 -42.854413129 0.64466795511 36.9949914125 0.324508796884 -109.245871814 0.28537659302 -24.3296292282 0.631954174785 -42.9412472872 0.643340799879 -143.074583579 0.630775424415 -42.854413129 0.631954174786 -42.9412472872 0.450325129098 164.336941316 0.000602445357433 -58.4526603099 0.64466795511 36.9949914125 0.643340799879 -143.074583579 0.000602445357367 -58.4526602939 0.412934955593 -133.360151677
9.1 0.283947011256 -27.0917043102 0.324542838246 -112.638208049 0.631595607666 -47.3275718459 0.644307805359 34.1405640469 0.324542838246 -112.638208049 0.28432834497 -27.2684650677 0.632785317117 -47.4145081823 0.642970750957 -145.929342636 0.631595607666 -47.3275718459 0.632785317117 -47.4145081823 0.448003125395 158.682160145 0.000607267992907 -62.775399259 0.644307805359 34.1405640468 0.642970750957 -145.929342636 0.000607267992839 -62.7753992423 0.414071848033 -135.988250631
9.125 0.282944925207 -30.0223398344 0.324612413158 -116.014217726 0.632379168282 -51.7881321286 0.643945012493 31.293624646 0.324612413158 -116.014217726 0.283320579292 -30.2000974668 0.633579962982 -51.8751703539 0.642597933514 -148.776614035 0.632379168282 -51.7881321286 0.633579962983 -51.8751703539 0.44576638726 153.04088774 0.000612037365077 -67.0886687941 0.643945012493 31.2936246459 0.642597933514 -148.776614035 0.000612037365012 -67.0886687781 0.415213388565 -138.611745769
9.15 0.281979870383 -32.9461246243 0.324717713793 -119.374518884 0.633127819493 -56.236237664 0.643579591638 28.4540381927 0.324717713793 -119.374518884 0.28234983293 -33.1249454138 0.634339828407 -56.3233776953 0.64222235652 -151.616532294 0.633127819493 -56.236237664 0.634339828407 -56.3233776953 0.443613004695 147.413799535 0.000616754591762 -71.3920133159 0.643579591638 28.4540381926 0.64222235652 -151.616532294 0.000616754591704 -71.3920133014 0.416359478951 -141.230730581
9.175 0.281048456176 -35.8634262473 0.324858762675 -122.719727738 0.633843292983 -60.6720462 0.643211557171 25.6216724552 0.324858762675 -122.719727738 0.281412713117 -36.0433786517 0.635066648106 -60.7592881477 0.641844028873 -154.449229269 0.633843292983 -60.6720462 0.635066648106 -60.7592881477 0.441540584765 141.801476152 0.00062142117382 -75.6850125175 0.643211557171 25.6216724552 0.641844028873 -154.449229269 0.000621421173771 -75.6850125052 0.417510025431 -143.845296698
9.2 0.280147366667 -38.774564964 0.325035424657 -126.050455982 0.634527331756 -65.0957276506 0.642840922684 22.7963979478 0.325035424657 -126.050455982 0.280505901928 -38.955719443 0.63576216832 -65.1830718051 0.64146295919 -157.274834171 0.634527331756 -65.0957276505 0.63576216832 -65.1830718051 0.439546314426 136.204410627 0.000626038975878 -79.967279246 0.642840922684 22.7963979478 0.64146295919 -157.274834171 0.000626038975839 -79.9672792361 0.418664938591 -146.455533933
9.225 0.279273364914 -41.6798154413 0.325247418257 -129.367308384 0.635181683741 -69.5074624191 0.642467700949 19.9780878855 0.325247418257 -129.367308384 0.279626160556 -41.8622442843 0.636428140381 -69.5949092387 0.64107915563 -160.09347359 0.635181683741 -69.5074624191 0.636428140381 -69.5949092387 0.437627020041 130.623015319 0.000630610207976 -84.2384574354 0.642467700948 19.9780878855 0.64107915563 -160.09347359 0.000630610207948 -84.2384574278 0.419824133225 -149.061530333
9.25 0.278423297011 -44.5794084196 0.325494326342 -132.670880671 0.635808096043 -73.9074399307 0.6420919039 17.1666181341 0.325494326342 -132.670880671 0.278770333357 -44.7631855741 0.637066314938 -73.9949900299 0.640692625749 -162.90527153 0.635808096043 -73.9074399307 0.637066314938 -73.9949900299 0.435779223129 125.057628426 0.000635137408335 -88.4982201408 0.6420919039 17.1666181341 0.640692625749 -162.90527153 0.000635137408316 -88.4982201356 0.420987528215 -151.663372227
9.275 0.277594095985 -47.4735323404 0.325775606178 -135.961757655 0.636408309804 -78.2958573592 0.641713542621 14.3618671561 0.325775606178 -135.961757655 0.277935351736 -47.6587332413 0.637678436787 -78.383511497 0.640303376374 -165.71034945 0.636408309804 -78.2958573592 0.637678436787 -78.383511497 0.433999192002 119.508520052 0.000639623427401 -92.7462676977 0.641713542621 14.3618671561 0.640303376374 -165.71034945 0.000639623427391 -92.7462676946 0.422155046399 -154.261144279
9.3 0.276782785565 -50.362334939 0.326090598837 -139.240511604 0.636984055603 -82.6729185353 0.641332627339 11.5637159536 0.326090598837 -139.240511604 0.277118237892 -50.5490363383 0.638266240255 -82.7606776041 0.639911413515 -168.508826302 0.636984055603 -82.6729185353 0.638266240255 -82.7606776041 0.432282989134 113.975897789 0.000644071413279 -96.9823260236 0.641332627339 11.5637159536 0.639911413515 -168.508826302 0.000644071413276 -96.9823260224 0.423326614453 -156.854929529
9.325 0.275986483848 -53.2459248074 0.326438537997 -142.507700823 0.637537049337 -87.0388330226 0.640949167423 8.77204800804 0.326438537997 -142.507700823 0.276316108473 -53.4342046045 0.638831445056 -87.1266980372 0.639516742281 -171.300818587 0.637537049337 -87.0388330226 0.638831445056 -87.1266980372 0.430626514213 108.459911793 0.000648484798566 -101.20614508 0.640949167423 8.77204800804 0.639516742281 -171.300818587 0.000648484798569 -101.20614508 0.424502162777 -159.444809449
9.35 0.27520240688 -56.1243729305 0.326818558162 -145.763868438 0.638068988534 -91.3938153462 0.640563171387 5.98674921867 0.326818558162 -145.763868438 0.275526178135 -56.3143100027 0.639375752594 -91.4817874327 0.639119366828 -174.0864404 0.638068988534 -91.3938153462 0.639375752594 -91.4817874327 0.429025542916 102.960659329 0.00065286728861 -105.4174975 0.640563171387 5.98674921867 0.639119366828 -174.0864404 0.000652867288618 -105.417497502 0.425681625375 -162.030863991
9.375 0.274427872149 -58.9977141996 0.327229702337 -149.009541348 0.638581549043 -95.7380843598 0.640174646895 3.20770783903 0.327229702337 -149.009541348 0.274745763018 -59.1893882327 0.639900842639 -95.8261647442 0.638719290314 -176.86580349 0.638581549043 -95.7380843598 0.639900842638 -95.8261647442 0.427475761557 97.4781888123 0.000657222851115 -109.616177398 0.640174646895 3.20770783904 0.638719290314 -176.86580349 0.000657222851126 -109.6161774 0.426864939748 -164.61317163
9.4 0.273660302007 -61.8659489057 0.327670929184 -152.245229357 0.639076382052 -100.071862736 0.639783600776 0.434814412875 0.327670929184 -152.245229357 0.273972284146 -62.0594402248 0.640408370335 -100.160052733 0.638316514873 -179.639017315 0.639076382052 -100.071862736 0.640408370335 -100.160052733 0.425972797774 92.012503339 0.000661555707024 -113.801999344 0.639783600776 0.434814412882 0.638316514873 -179.639017315 0.000661555707037 -113.801999347 0.428052046788 -167.191809414
9.425 0.272897226993 -64.7290442135 0.328141119717 -155.471424432 0.639555111399 -104.395376568 0.639390039028 -2.33203829054 0.328141119717 -155.471424432 0.273203270735 -64.9244336133 0.64089996351 -104.48367757 0.637911041595 177.5938109 0.639555111399 -104.395376568 0.64089996351 -104.48367757 0.42451224751 86.5635637404 0.000665870322573 -117.974797526 0.639390039028 -2.33203829053 0.637911041595 177.5938109 0.000665870322587 -117.974797529 0.429242890668 -169.766853013
9.45 0.272136289067 -67.5869356192 0.328639083559 -158.688600118 0.640019331123 -108.708855067 0.638993966838 -5.09295534113 0.328639083559 -158.688600118 0.272436363409 -67.7843041947 0.641377220217 -108.797268532 0.637502870518 174.832576102 0.640019331123 -108.708855067 0.641377220217 -108.797268532 0.423089698541 81.1312911854 0.000670171402381 -122.134425071 0.638993966838 -5.09295534112 0.637502870518 174.832576102 0.000670171402394 -122.134425074 0.430437418747 -172.33837676
9.475 0.271375244732 -70.4395283902 0.329163564807 -161.897211053 0.640470603238 -113.012530341 0.638595388589 -7.84803971249 0.329163564807 -161.897211053 0.2716693173 -70.638957367 0.641841706513 -113.10105778 0.637092000633 172.07717535 0.640470603238 -113.012530341 0.641841706513 -113.10105778 0.421700750834 75.7155693704 0.000674463883442 -126.280753529 0.638595388589 -7.84803971249 0.637092000633 172.07717535 0.000674463883454 -126.280753532 0.431635581465 -174.906453696
9.5 0.270611968033 -73.2866989895 0.329713247551 -165.097692604 0.640910455679 -117.306637251 0.638194307882 -10.5973923458 0.329713247551 -165.097692604 0.27090000503 -73.4882695535 0.642294954404 -117.395280216 0.636678429886 169.327507755 0.640910455679 -117.306637251 0.642294954404 -117.395280216 0.420341034042 70.3162463341 0.000678752929881 -130.413672509 0.638194307882 -10.5973923458 0.636678429886 169.327507755 0.000678752929891 -130.413672512 0.432837332252 -177.471155617
9.525 0.26984445342 -76.1282964818 0.330286761068 -168.290460596 0.641340380414 -121.591413324 0.637790727544 -13.3411122126 0.330286761068 -168.290460596 0.27012641956 -76.332089609 0.642738459961 -121.680173395 0.636262155188 166.583474417 0.641340380414 -121.591413324 0.642738459961 -121.680173395 0.419006222414 64.93313594 0.000683043928319 -134.533089444 0.637790727544 -13.3411122126 0.636262155188 166.583474417 0.000683043928328 -134.533089446 0.434042627431 179.967446886
9.55 0.269070818456 -78.9641439227 0.330882684743 -171.475911126 0.641761831678 -125.867098712 0.637384649649 -16.0792963775 0.330882684743 -171.475911126 0.269346676885 -79.170240208 0.643173681561 -125.955977484 0.635843172435 163.844978368 0.641761831678 -125.867098712 0.643173681561 -125.955977484 0.417692047416 59.5660190703 0.00068734248373 -138.63892948 0.637384649649 -16.0792963775 0.635843172435 163.844978368 0.000687342483736 -138.638929482 0.435251426129 177.409284387
9.575 0.268289306377 -81.7940397285 0.331499552741 -174.654420458 0.642176224326 -130.133936201 0.63697607553 -18.8120400581 0.331499552741 -174.654420458 0.268559018574 -82.0025192146 0.643602038244 -130.222935271 0.635421476524 161.111924511 0.642176224326 -130.133936201 0.643602038244 -130.222935271 0.416394308359 54.2146445727 0.000691654415638 -142.731135465 0.63697607553 -18.8120400581 0.635421476524 161.111924511 0.000691654415643 -142.731135466 0.436463690188 174.854288582
9.6 0.267498288466 -84.6177590264 0.332135858466 -177.826344983 0.642584932279 -134.392171247 0.636565005795 -21.539436685 0.332135858466 -177.826344983 0.267761814135 -84.8287010313 0.644024908166 -134.481292196 0.63499706137 158.384219563 0.642584932279 -134.392171247 0.644024908166 -134.481292196 0.415108881275 48.8787300028 0.000695985754578 -146.809668023 0.636565005795 -21.539436685 0.63499706137 158.384219563 0.00069598575458 -146.809668023 0.437679384077 172.302392249
9.625 0.266696266262 -87.4350549845 0.332790058832 179.007978759 0.642989287045 -138.642052035 0.636151440343 -24.2615779597 0.332790058832 179.007978759 0.266953563216 -87.6485379284 0.644443627132 -138.731296419 0.634569919929 155.661771993 0.642989287045 -138.642052035 0.644443627132 -138.731296419 0.413831726327 43.5579621999 0.000700342738682 -150.874505693 0.636151440343 -24.2615779597 0.634569919929 155.661771993 0.000700342738683 -150.874505693 0.438898474811 169.753529215
9.65 0.265881873584 -90.2456601192 0.333460578378 175.848234004 0.64339057631 -142.883829561 0.63573537838 -26.9785539108 0.333460578378 175.848234004 0.266132897615 -90.4617613505 0.644859487199 -142.973198891 0.634140044219 152.944491972 0.64339057631 -142.883829561 0.644859487199 -142.973198891 0.412558893976 38.2519977345 0.000704731810351 -154.925645124 0.63573537838 -26.9785539108 0.634140044219 152.944491972 0.000704731810351 -154.925645124 0.440120931865 167.207634315
9.675 0.265053878377 -93.0492875816 0.334145813247 172.694123644 0.643790042592 -147.117757723 0.635316818431 -29.6904529489 0.334145813247 172.694123644 0.265298583128 -93.268083202 0.645273735332 -147.207253453 0.63370742534 150.232291314 0.643790042592 -147.117757723 0.645273735332 -147.207253453 0.411286530118 32.9604632568 0.00070915961293 -158.963101287 0.635316818431 -29.6904529489 0.63370742534 150.232291314 0.000709159612929 -158.963101287 0.441346727099 164.664643356
9.7 0.264211184385 -95.845632423 0.334844135051 169.54537007 0.644188881928 -151.344093424 0.63489575836 -32.3973619196 0.334844135051 169.54537007 0.264449521213 -96.0671971106 0.645687572114 -151.433716933 0.633272053493 147.525083426 0.644188881928 -151.344093424 0.645687572114 -151.433716933 0.410010880422 27.6829557768 0.000713632987345 -162.986907712 0.63489575836 -32.3973619196 0.633272053493 147.525083426 0.000713632987343 -162.986907711 0.442575834676 162.124493083
9.725 0.263352832659 -98.6343728387 0.335553894645 166.401714977 0.64458824262 -155.563096679 0.634472195381 -35.0993661555 0.335553894645 166.401714977 0.263584750498 -98.8587796699 0.646102150492 -155.652849253 0.632833918 144.822783252 0.64458824262 -155.563096679 0.646102150492 -155.652849253 0.408728294029 22.4190428987 0.000718158968704 -166.997116715 0.634472195381 -35.0993661555 0.632833918 144.822783252 0.000718158968702 -166.997116713 0.443808230987 159.58712115
9.75 0.2624780029 -101.415171395 0.336273425827 163.262919146 0.644989223999 -159.775030716 0.634046126076 -37.796549525 0.336273425827 163.262919146 0.262703448135 -101.642491665 0.646518574562 -159.864913535 0.632393007321 142.125307228 0.644989223999 -159.775030716 0.646518574562 -159.864913535 0.407435226788 17.1682630293 0.000722744782827 -170.993799606 0.634046126076 -37.796549525 0.632393007321 142.125307228 0.000722744782824 -170.993799604 0.445043894576 157.052466079
9.775 0.261586014672 -104.18767624 0.337001048977 160.128762203 0.645392875228 -163.980162088 0.633617546408 -40.4889944816 0.337001048977 160.128762203 0.261804931013 -104.417979281 0.646937898379 -164.070176206 0.63194930907 139.432573229 0.645392875228 -163.980162088 0.646937898379 -164.070176206 0.406128244194 11.9301255746 0.000727397842746 -174.977046869 0.633617546408 -40.4889944816 0.63194930907 139.432573229 0.000727397842744 -174.977046867 0.446282806068 154.520467236
9.8 0.260676328484 -106.951522306 0.337735074657 156.99904236 0.645800194126 -168.178760777 0.633186451744 -43.1767821098 0.337735074657 156.99904236 0.26088865685 -107.184875302 0.647361124797 -168.268907106 0.631502810025 136.744500525 0.645800194126 -168.178760777 0.647361124797 -168.268907106 0.404804024141 6.70411113454 0.000732125745192 -178.946968291 0.633186451744 -43.1767821098 0.631502810025 136.744500525 0.00073212574519 -178.946968289 0.447524948099 151.991064796
9.825 0.259748546764 -109.706332505 0.338473807177 153.873576149 0.646212126015 -172.371100294 0.632752836864 -45.8599921701 0.338473807177 153.873576149 0.259954225193 -109.942800307 0.647789204323 -172.461379583 0.631053496147 134.061009735 0.646212126015 -172.371100294 0.647789204323 -172.461379583 0.403459359623 1.48967170282 0.000736936267116 177.096306966 0.632752836864 -45.8599921701 0.631053496147 134.061009735 0.000736936267115 177.096306967 0.448770305241 149.464199718
9.85 0.25880241475 -112.451718929 0.339215548145 150.752198142 0.646629562573 -176.557457777 0.632316695983 -48.5387031432 0.339215548145 150.752198142 0.259001378318 -112.691363865 0.648223033994 -176.647870597 0.630601352585 131.382022785 0.646629562573 -176.557457777 0.648223033994 -176.647870597 0.402091161483 -3.71376912722 0.000741837362308 173.152630356 0.632316695983 -48.5387031432 0.630601352585 131.382022785 0.000741837362308 173.152630357 0.45001886394 146.939813712
9.875 0.257837821303 -115.187284064 0.339958600022 147.634760675 0.647053340714 179.26188591 0.631878022769 -51.2129922713 0.339958600022 147.634760675 0.258030002078 -115.430165747 0.648663456255 179.171339185 0.630146363682 128.707462864 0.647053340714 179.26188591 0.648663456255 179.171339185 0.400696461306 -8.90681595212 0.000746837158176 169.221834016 0.631878022769 -51.2129922713 0.630146363682 128.707462864 0.000746837158175 169.221834017 0.451270612442 144.417849215
9.9 0.256854799683 -117.912622028 0.34070126967 144.521133572 0.647484241467 175.086646083 0.631436810363 -53.8829355998 0.34070126967 144.521133572 0.257040126708 -118.158797161 0.649111257864 174.995965299 0.629688512988 126.037254383 0.647484241467 175.086646083 0.649111257864 174.995965299 0.399272414521 -14.0901013479 0.000751943952764 165.303730922 0.631436810363 -53.8829355998 0.629688512988 126.037254383 0.000751943952764 165.303730922 0.452525540732 141.898249363
9.925 0.255853528277 -120.627319843 0.341441871937 141.411203874 0.647922988859 170.916534145 0.630993051399 -56.5486080162 0.341441871937 141.411203874 0.256031927587 -120.876842022 0.649567168783 170.825719384 0.629227783257 123.371322939 0.647922988859 170.916534145 0.649567168783 170.825719384 0.397816303797 -19.2642856674 0.000757166212112 161.398115114 0.630993051399 -56.5486080162 0.629227783257 123.371322939 0.000757166212113 161.398115114 0.453783640466 139.380957967
9.95 0.254834331308 -123.330958772 0.34217873327 138.304875582 0.648370248808 166.751257491 0.630546738025 -59.210083289 0.34217873327 138.304875582 0.255005726002 -123.583878281 0.65003186108 166.660309089 0.628764156455 120.709595274 0.648370248808 166.751257491 0.65003186108 166.660309089 0.39632554277 -24.4300568551 0.000762512568033 157.504762032 0.630546738025 -59.210083289 0.628764156455 120.709595274 0.000762512568034 157.504762032 0.455044904905 136.865919486
9.975 0.253797679535 -126.023115708 0.342910195379 135.202069408 0.648826627999 162.590519404 0.630097861928 -61.8674341047 0.342910195379 135.202069408 0.253961989888 -126.279479322 0.65050594783 162.499437975 0.628297613755 118.051999241 0.648826627999 162.590519404 0.65050594783 162.499437975 0.39479768017 -29.5881302913 0.000767991816423 153.62342893 0.630097861928 -61.8674341047 0.628297613755 118.051999241 0.000767991816425 153.62342893 0.456309328857 134.353079005
10 0.25274419093 -128.703364675 0.343634618973 132.102722557 0.649292672767 158.434018958 0.629646414358 -64.5207321047 0.343634618973 132.102722557 0.252901334574 -128.963215448 0.650989982002 158.342805412 0.62782813554 115.39846377 0.649292672767 158.434018958 0.650989982002 158.342805412 0.393230404375 -34.7392486775 0.000773612916213 149.753855388 0.629646414358 -64.5207321047 0.62782813554 115.39846377 0.000773612916215 149.753855388 0.457576908605 131.842382211
10.025 0.251674631341 -131.371278425 0.344350387571 129.006788516 0.649768867956 154.281450898 0.629192386154 -67.1700479205 0.344350387571 129.006788516 0.25182452351 -131.63465548 0.651484455336 154.190106462 0.6273557014 112.74891883 0.649768867956 154.281450898 0.651484455336 154.190106462 0.391621548432 -39.8841819778 0.000779384989072 145.895763921 0.629192386154 -67.1700479205 0.6273557014 112.74891883 0.000779384989074 145.895763921 0.458847641852 129.333775372
10.05 0.250589915122 -134.026430179 0.345055911435 125.914236881 0.650255635768 150.13250552 0.628735767773 -69.8154512084 0.345055911435 125.914236881 0.250732468972 -134.293368503 0.65198979721 150.041031758 0.626880290126 110.1032954 0.650255635768 150.13250552 0.65198979721 150.041031758 0.389969095588 -45.0237274283 0.000785317319995 142.048860675 0.628735767773 -69.8154512084 0.626880290126 110.1032954 0.000785317319997 142.048860675 0.460121527657 126.827205314
10.075 0.249491105705 -136.668395528 0.345749631622 122.825053209 0.650753334583 145.986868532 0.628276549316 -72.4570106841 0.345749631622 122.825053209 0.24962623272 -136.938925757 0.652506373474 145.895267369 0.626401879707 107.461525435 0.650753334583 145.986868532 0.652506373474 145.895267369 0.388271185351 -50.1587096293 0.000791419358895 138.212836222 0.628276549316 -72.4570106841 0.626401879707 107.461525435 0.000791419358897 138.212836221 0.461398566371 124.322619399
10.1 0.248379416079 -139.296754525 0.346430024199 119.739238903 0.651262257761 141.844220903 0.627814720566 -75.0947941555 0.346430024199 119.739238903 0.248507026573 -139.570902736 0.653034485265 141.752494642 0.625920447323 104.82354184 0.651262257761 141.844220903 0.653034485265 141.752494642 0.386526120119 -55.2899807314 0.00079770072335 134.387366433 0.627814720566 -75.0947941555 0.625920447323 104.82354184 0.000797700723351 134.387366432 0.462678759574 121.819965508
10.125 0.247256209133 -141.911093989 0.347095604653 116.656811132 0.651782632396 137.704238684 0.627350271014 -77.7288685567 0.347095604653 116.656811132 0.247376212855 -142.188881489 0.653574367785 137.612390034 0.625435969337 102.18927843 0.651782632396 137.704238684 0.653574367785 137.612390034 0.384732372418 -60.4184207287 0.000804171202649 130.572113452 0.627350271014 -77.7288685567 0.625435969337 102.18927843 0.000804171202651 130.572113452 0.463962110018 119.31919202
10.15 0.246122997799 -144.51101006 0.347744932519 113.577802794 0.652314618043 133.566592817 0.626883189899 -80.3592999795 0.347744932519 113.577802794 0.246235304652 -144.792453188 0.654126189042 133.474624908 0.62494842129 99.5586699138 0.652314618043 133.566592817 0.654126189042 133.474624908 0.38288859278 -65.544937866 0.000810840763313 126.76672674 0.626883189899 -80.3592999795 0.62494842129 99.5586699138 0.000810840763314 126.76672674 0.465248621562 116.820247792
10.175 0.24498144493 -147.09611103 0.348376616284 110.502262514 0.652858305386 129.430948908 0.626413466244 -82.9861537067 0.348376616284 110.502262514 0.24508596581 -147.381220956 0.654690048539 129.338865321 0.624457777887 96.9316518549 0.652858305386 129.430948908 0.654690048539 129.338865321 0.38099361832 -70.6704691703 0.00081771955625 122.970844203 0.626413466244 -82.9861537067 0.624457777887 96.9316518549 0.000817719556251 122.970844202 0.46653829911 114.32308214
10.2 0.243833362809 -149.666020481 0.348989318604 107.430254694 0.653413714858 125.296966978 0.625941088894 -85.6094942435 0.348989318604 107.430254694 0.243930010587 -149.954803024 0.655265975916 125.204771763 0.623964012992 94.3081606502 0.653413714858 125.296966978 0.655265975916 125.204771763 0.379046482053 -75.7959811098 0.00082481792578 119.184093394 0.625941088894 -85.6094942435 0.623964012992 94.3081606502 0.000824817925781 119.184093394 0.467831148546 111.827644825
10.225 0.242680712206 -152.220380752 0.349581761889 104.361859601 0.653980795198 121.164301175 0.625466046557 -88.2293853499 0.349581761889 104.361859601 0.242769402845 -152.512836208 0.65585392953 121.071998878 0.623467099616 91.688133501 0.653980795198 121.164301175 0.65585392953 121.071998878 0.37704642304 -80.9224703824 0.000832146420717 115.406092788 0.625466046557 -88.2293853499 0.623467099616 91.688133501 0.000832146420719 115.406092788 0.469127176676 109.333886031
10.25 0.241525600849 -154.758856782 0.350152734314 101.297173508 0.654559421932 117.032599455 0.624988327848 -90.8458900722 0.350152734314 101.297173508 0.241606254682 -155.054979773 0.656453794962 116.940195139 0.622967009906 89.0715083866 0.654559421932 117.032599455 0.656453794962 116.940195139 0.374992897422 -86.0509648336 0.000839715807793 111.636453118 0.624988327848 -90.8458900722 0.622967009906 89.0715083866 0.000839715807795 111.636453118 0.47042639116 106.841756352
10.275 0.240370281183 -157.281140336 0.350701096332 98.2363088775 0.655149395786 112.901503218 0.624507921337 -93.4590707748 0.350701096332 98.2363088775 0.240442824351 -157.580919683 0.657065383447 112.809002492 0.622463715134 86.4582240394 0.655149395786 112.901503218 0.657065383447 112.809002492 0.372885590458 -91.1825244978 0.000847537087688 107.874778772 0.624507921337 -93.4590707748 0.622463715134 86.4582240394 0.00084753708769 107.874778772 0.471728800448 104.351206771
10.3 0.239217147265 -159.78695464 0.35122578775 95.1793945972 0.655750440996 108.770646902 0.624024815591 -96.0689891724 0.35122578775 95.1793945972 0.239281513332 -160.090373268 0.657688430225 108.678055945 0.621957185685 83.8482199192 0.655750440996 108.770646902 0.657688430225 108.678055945 0.37072442966 -96.318242753 0.000855621514005 104.120669251 0.624024815591 -96.0689891724 0.621957185685 83.8482199192 0.000855621514008 104.120669251 0.473034413715 101.86218865
10.325 0.23806873063 -162.276059462 0.351725835462 92.126576263 0.656362203526 104.639657529 0.623538999231 -98.6757063616 0.351725835462 92.126576263 0.238124862377 -162.583094342 0.658322592784 104.546983117 0.621447391046 81.2414361892 0.656362203526 104.639657529 0.658322592784 104.546983117 0.368509599177 -101.459247577 0.000863980615557 100.373720668 0.623538999231 -98.6757063616 0.621447391046 81.2414361892 0.00086398061556 100.373720668 0.474343240792 99.3746537076
10.35 0.236927694944 -164.748256626 0.352200361934 89.0780165065 0.656984249181 100.508154195 0.62305046098 -101.279282854 0.352200361934 89.0780165065 0.236975546355 -165.058878768 0.658967449006 100.415403729 0.620934299787 78.6378136917 0.656984249181 100.508154195 0.658967449006 100.415403729 0.366241555563 -106.606702882 0.000872626222388 96.6335272979 0.62305046098 -101.279282854 0.620934299787 78.6378136917 0.000872626222392 96.6335272979 0.475655292099 96.8885540109
10.375 0.235796829257 -167.203395991 0.352648594538 86.0338953678 0.65761606159 96.3757475049 0.622559189722 -103.879778606 0.352648594538 86.0338953678 0.2358363677 -167.517570492 0.659622495185 96.2829290392 0.620417879558 76.0372939253 0.65761606159 96.3757475049 0.659622495185 96.2829290392 0.363921045102 -111.761809911 0.000881570496017 92.8996831583 0.622559189722 -103.879778606 0.620417879558 76.0372939253 0.000881570496022 92.8996831582 0.476970578577 94.4038419551
10.4 0.234679039641 -169.641381884 0.353069875857 82.9944107089 0.658257040052 92.2420389381 0.622065174556 -106.477253056 0.353069875857 82.9944107089 0.234710248251 -169.959068043 0.660287143917 92.149161212 0.619898097065 73.4398190219 0.658257040052 92.2420389381 0.660287143917 92.149161212 0.361549122894 -116.925808645 0.000890825964458 89.1717836231 0.622065174556 -106.477253056 0.619898097065 73.4398190219 0.000890825964463 89.1717836231 0.478289111611 91.9204702516
10.425 0.233577338985 -172.062179984 0.35346367508 79.9597786626 0.658906497242 88.1066201477 0.621568404863 -109.071765153 0.35346367508 79.9597786626 0.233600219251 -172.383331501 0.660960721844 88.0136926161 0.619374918057 70.845331725 0.658906497242 88.1066201477 0.660960721844 88.0136926161 0.359127173892 -122.099979215 0.000900405562653 85.4494270566 0.621568404863 -109.071765153 0.619374918057 70.845331725 0.000900405562659 85.4494270565 0.479610902961 89.4383919134
10.45 0.232494834731 -174.465824639 0.353829600651 76.9302341106 0.659563656734 83.9690721785 0.62106887037 -111.663373393 0.353829600651 76.9302341106 0.232509409292 -174.790389901 0.661642467227 83.8761050453 0.618848307314 68.2537753682 0.659563656734 83.9690721785 0.661642467227 83.8761050453 0.356656936151 -127.285643232 0.000910322679048 81.7322164587 0.62106887037 -111.663373393 0.618848307314 68.2537753682 0.000910322679054 81.7322164585 0.480935964681 86.957560241
10.475 0.231434714289 -176.852426595 0.354167414301 73.9060311834 0.660227650349 79.8289645977 0.620566561216 -114.252135853 0.354167414301 73.9060311834 0.23144102993 -177.180349076 0.662331527344 79.7359688515 0.618318228627 65.665093855 0.660227650349 79.8289645977 0.662331527344 79.7359688515 0.354140526508 -132.48416501 0.000920591209134 78.0197611122 0.620566561216 -114.252135853 0.618318228627 65.665093855 0.00092059120914 78.0197611121 0.482264309049 84.4779288091
10.5 0.230400227881 -179.222181088 0.354477046668 70.8874437704 0.660897515281 75.6858545292 0.620061468029 -116.838110225 0.354477046668 70.8874437704 0.230398358739 -179.553399866 0.663026955672 75.5928419802 0.617784644778 63.079231639 0.660897515281 75.6858545292 0.663026955672 75.5928419802 0.351580469 -137.696952598 0.000931225616925 74.3116782198 0.620061468029 -116.838110225 0.617784644778 63.079231639 0.00093122561693 74.3116782196 0.483595948473 81.999451453
10.525 0.22939466856 178.424623735 0.354758614684 67.8747660285 0.661572190989 71.5392855771 0.619553582001 -119.421353851 0.354758614684 67.8747660285 0.229384719524 178.090173319 0.663727708841 71.446268897 0.617247517524 60.4961337056 0.661572190989 71.5392855771 0.663727708841 71.446268897 0.348979726265 -142.925458549 0.000942241005434 70.6075945162 0.619553582001 -119.421353851 0.617247517524 60.4961337056 0.000942241005437 70.607594516 0.484930895421 79.5220822553
10.55 0.228421349124 176.087598142 0.355012440948 64.8683128721 0.662250515815 67.3887866277 0.619042894974 -122.00192376 0.355012440948 64.8683128721 0.228403459418 175.749983666 0.664432643318 67.295779392 0.616706807574 57.9157455537 0.662250515815 67.3887866277 0.664432643318 67.295779392 0.346341734259 -148.171180329 0.000953653197418 66.9071478404 0.619042894974 -122.00192376 0.616706807574 57.9157455537 0.00095365319742 66.9071478402 0.48626916232 77.0457755331
10.575 0.227483575648 173.766241945 0.355239075348 61.8684204265 0.662931223292 63.2338705113 0.618529399527 -124.579876708 0.355239075348 61.8684204265 0.227457922601 173.425532926 0.665140511792 63.1408872445 0.616162474566 55.3380131799 0.662931223292 63.2338705113 0.665140511792 63.1408872445 0.343670440573 -153.435660256 0.000965478827794 63.2099886497 0.618529399527 -124.579876708 0.616162474566 55.3380131799 0.000965478827794 63.2099886496 0.487610761474 74.5704858253
10.6 0.226584617355 171.459935537 0.355439319183 58.8754464192 0.663612938086 59.0740325058 0.61801308907 -127.155269212 0.355439319183 58.8754464192 0.226551420328 171.11620225 0.665849959197 58.9810887307 0.615614477047 52.7628830629 0.663612938086 59.0740325058 0.665849959197 58.9810887307 0.340970346666 -158.720484849 0.000977735449358 59.515781454 0.61801308907 -127.155269212 0.615614477047 52.7628830629 0.000977735449354 59.515781454 0.488955704966 72.0961678791
10.625 0.225727672537 169.167930905 0.355614252114 55.8897704826 0.664294171533 54.9087486607 0.617493957949 -129.728157592 0.355614252114 55.8897704826 0.225687196999 168.821243004 0.666559518336 54.8158609507 0.615062772438 50.1903021499 0.664294171533 54.9087486607 0.666559518336 54.8158609507 0.338246554331 -164.027283436 0.000990441653661 55.8242061465 0.617493957949 -129.728157592 0.615062772438 50.1903021499 0.000990441653654 55.8242061467 0.490304004555 69.6227766383
10.65 0.224915830213 166.889342748 0.355765262278 52.9117943317 0.664973316667 50.7374739132 0.616972001556 -132.298598015 0.355765262278 52.9117943317 0.224868391947 166.539767658 0.667267605019 50.6446599497 0.614507317013 47.6202178441 0.664973316667 50.7374739132 0.667267605019 50.6446599497 0.335504816693 -169.357725853 0.00100361720918 52.134959202 0.616972001556 -132.298598015 0.614507317013 47.6202178441 0.00100361720917 52.1349592024 0.491655671574 67.1502672299
10.675 0.224152027231 164.623139773 0.355894079972 49.9419417757 0.665648642691 46.5596399677 0.616447216448 -134.866646533 0.355894079972 49.9419417757 0.224097996647 164.270740844 0.66797251264 46.4669186019 0.613948065865 45.0525779941 0.665648642691 46.5596399677 0.66797251264 46.4669186019 0.332751594033 -174.713519049 0.00101728321921 48.4477547114 0.616447216448 -134.866646533 0.613948065865 45.0525779941 0.00101728321919 48.447754712 0.493010716821 64.6785949519
10.7 0.223439000468 162.368136304 0.35600281535 46.9806585135 0.666318288751 42.3746529002 0.615919600472 -137.432359136 0.35600281535 46.9806585135 0.22337880701 162.012970712 0.668672406072 42.2820442215 0.613384972871 42.4873308856 0.666318288751 42.3746529003 0.668672406072 42.2820442215 0.329994114722 179.903597638 0.00103146230227 44.7623252142 0.615919600472 -137.432359136 0.613384972871 42.4873308856 0.00103146230226 44.7623252151 0.494369150439 62.2077152602
10.725 0.222779233801 160.122984281 0.356094000639 44.0284116515 0.666980256887 38.1818904467 0.615389152914 -139.995791792 0.356094000639 44.0284116515 0.222713370419 159.765100658 0.669365314769 38.0894158564 0.612817990655 39.9244252339 0.666980256887 38.1818904467 0.669365314769 38.0894158564 0.327240441515 174.491858753 0.00104617879834 41.078422287 0.615389152914 -139.995791792 0.612817990655 39.9244252339 0.00104617879832 41.078422288 0.495730981794 59.7375837562
10.75 0.222174899452 157.886165756 0.356170637476 41.0856888719 0.667632404012 33.9806989227 0.614855874642 -142.557000504 0.356170637476 41.0856888719 0.22210392713 157.525601543 0.670049124894 33.8883812163 0.61224707055 37.3638101805 0.667632404012 33.9806989227 0.670049124894 33.8883812163 0.324499543438 169.049480842 0.00106145900443 37.3958168371 0.614855874642 -142.557000504 0.61224707055 37.3638101805 0.00106145900441 37.3958168383 0.497096219346 57.268156174
10.775 0.221627793299 155.655985942 0.356236250015 38.1529971617 0.668272432687 29.7703897165 0.614319768277 -145.116041363 0.356236250015 38.1529971617 0.221552345619 155.292764449 0.670721570268 29.6782531737 0.611672162552 34.8054352902 0.668272432687 29.7703897165 0.670721570268 29.6782531737 0.32178137348 163.574672703 0.00107733144417 33.7142990463 0.614319768277 -145.116041363 0.611672162552 34.8054352902 0.00107733144414 33.7142990476 0.49846487051 54.7993883667
10.8 0.221139263668 153.430566876 0.356294944602 35.2308609978 0.668897880457 25.5502352844 0.61378083837 -147.672970608 0.356294944602 35.2308609978 0.221060051416 153.064694042 0.671380221913 25.4583057691 0.61109321527 32.2492505523 0.668897880457 25.5502352844 0.671380221913 25.4583057691 0.31909695225 158.065648085 0.00109382717598 30.0336778963 0.61378083837 -147.672970608 0.61109321527 32.2492505523 0.00109382717596 30.0336778976 0.49983694151 52.3312362939
10.825 0.220710133074 151.207841695 0.356351476888 32.3198198598 0.669506107417 21.3194645649 0.6132390916 -150.227844687 0.356351476888 32.3198198598 0.220627948866 150.839302528 0.67202247583 21.2277696363 0.610510175878 29.6952063839 0.669506107417 21.3194645649 0.67202247583 21.2277696363 0.316458457778 152.520641192 0.00111098014617 26.3537802012 0.6132390916 -150.227844687 0.610510175878 29.6952063839 0.00111098014616 26.3537802023 0.501212437219 49.8636560076
10.85 0.22034061223 148.985549494 0.356411327442 29.420424915 0.670094281625 17.0772577142 0.612694536983 -152.780720333 0.356411327442 29.420424915 0.2202563352 148.614304195 0.672645538673 16.9858267506 0.609922990052 27.1432536371 0.670094281625 17.0772577142 0.672645538673 16.9858267506 0.313879321596 146.937925325 0.00112882759342 22.6744490566 0.612694536983 -152.780720333 0.609922990052 27.1432536371 0.00112882759341 22.6744490572 0.502591360994 47.3966036386
10.875 0.22003020558 146.761230674 0.356480787048 26.5332346905 0.670659361852 12.8227400462 0.612147186107 -155.331654633 0.356480787048 26.5332346905 0.219944806138 146.387210416 0.673246410781 12.7316043839 0.609331601913 24.5933436087 0.670659361852 12.8227400462 0.673246410781 12.7316043839 0.31137433128 141.315835004 0.00114741051304 18.9955416012 0.612147186107 -155.331654633 0.609331601913 24.5933436087 0.00114741051304 18.995541601 0.503973714495 44.9300353823
10.9 0.219777607383 144.532222616 0.356567053099 23.6588095057 0.671198077077 8.55497504014 0.611597053376 -157.880705121 0.356567053099 23.6588095057 0.219692152102 144.155324968 0.673821865992 8.46416812908 0.60873595395 22.0454280551 0.671198077077 8.55497504014 0.673821865992 8.46416812908 0.308959739687 135.65279188 0.0011667741905 15.3169259672 0.611597053376 -157.880705121 0.60873595395 22.0454280551 0.00116677419053 15.3169259659 0.505359497494 42.4639074837
10.925 0.219580587226 142.295655438 0.356678338727 20.7977043939 0.671706901936 4.27295625172 0.611044156283 -160.427929867 0.356678338727 20.7977043939 0.219496243926 141.915739405 0.674368427463 4.18251383137 0.608135986952 19.4994592099 0.671706901936 4.27295625172 0.674368427463 4.18251383137 0.306653381227 129.947334683 0.00118696881568 11.6384772736 0.611044156284 -160.427929867 0.608135986952 19.4994592099 0.00118696881573 11.6384772707 0.506748707667 39.9981762227
10.95 0.219435863518 140.048447482 0.356823996584 17.9504601821 0.672182027178 -0.0244020656826 0.6104885157 -162.973387588 0.356823996584 17.950460182 0.219353906652 139.66532812 0.67488233854 -0.114441767817 0.607531639914 16.9553898077 0.672182027178 -0.0244020656857 0.67488233854 -0.114441767814 0.304474795756 124.198153366 0.00120805019149 7.96007248541 0.6104885157 -162.973387588 0.607531639914 16.9553898077 0.00120805019157 7.96007248071 0.508141340375 37.5327978982
10.975 0.219338963244 137.787300071 0.357014659525 15.1175923316 0.67261932392 -4.33827586171 0.609930156182 -165.517137766 0.357014659525 15.1175923315 0.219260779727 137.400742627 0.675359527486 -4.42787190443 0.606922849946 14.4131731118 0.67261932392 -4.33827586171 0.675359527486 -4.42787190442 0.302445360975 118.404127459 0.00123008055342 4.28158392827 0.609930156182 -165.517137766 0.606922849946 14.4131731118 0.00123008055353 4.28158392137 0.50953738842 35.067728812
11 0.219284065801 135.508690927 0.357262400817 12.2995770554 0.673014300195 -8.66994398744 0.609369106299 -168.059240783 0.357262400816 12.2995770554 0.219211161458 135.118404426 0.675795564562 -8.75905245885 0.606309552164 11.8727629492 0.673014300195 -8.66994398744 0.675795564562 -8.75905245884 0.300588434773 112.56436844 0.00125312951988 0.602871197832 0.609369106299 -168.059240783 0.606309552164 11.8727629492 0.00125312952002 0.602871188489 0.510936841791 32.6029252517
11.025 0.219263828232 133.208865447 0.357580916979 9.49683412887 0.673362047874 -13.0208030227 0.608805398978 -170.599758079 0.357580916979 9.49683412885 0.219197835106 132.814495631 0.676185609562 -13.1093767463 0.60569167957 9.33411375135 0.673362047874 -13.0208030227 0.676185609562 -13.1093767463 0.298929509708 106.678265685 0.00127727519752 -3.07622885376 0.608805398978 -170.599758079 0.60569167957 9.33411375133 0.00127727519769 -3.07622886562 0.512339687381 30.1383434734
11.05 0.219269188526 130.883824865 0.357985736891 6.70970568563 0.673657177585 -17.3923846294 0.60823907186 -173.138752328 0.35798573689 6.70970568561 0.219211873345 130.484946322 0.676524347424 -17.4803728268 0.605069162904 6.79718060369 0.673657177585 -17.3923846294 0.676524347423 -17.4803728268 0.297496382915 100.74553523 0.00130260547117 -6.75591445119 0.60823907186 -173.138752328 0.605069162904 6.79718060366 0.00130260547137 -6.75591446541 0.513745908694 27.6739396834
11.075 0.219289142802 128.529309994 0.358494461416 3.93843014237 0.673893738574 -21.7863759098 0.607670167666 -175.676287643 0.358494461416 3.93843014235 0.21924241699 128.125417309 0.676805908873 -21.8737238121 0.604441930483 4.26191930499 0.673893738574 -21.7863759098 0.676805908873 -21.8737238121 0.296319346274 94.766270165 0.00132921951471 -10.436434046 0.607670167666 -175.676287643 0.604441930483 4.26191930496 0.00132921951492 -10.436434062 0.515155485511 25.2096700189
11.1 0.219310491162 126.140778945 0.359127038575 1.18311021542 0.674065119659 -26.2046433483 0.607098734562 -178.212429809 0.359127038575 1.1831102154 0.219276422874 125.731276597 0.677023772271 -26.2912917467 0.603809908 1.72828643859 0.674065119659 -26.2046433483 0.677023772271 -26.2912917467 0.295431403797 88.7409910538 0.0013572295676 -14.1181049122 0.607098734562 -178.212429809 0.603809908 1.72828643855 0.00135722956782 -14.118104929 0.516568393542 22.7454905288
11.125 0.219317545642 123.713376719 0.3599060801 -1.55632622604 0.674163926372 -30.6492610379 0.606524826506 179.252753439 0.359906080099 -1.55632622606 0.219298374427 123.297567402 0.677170641759 -30.7351457619 0.603173018285 -0.803760540505 0.674163926372 -30.6492610379 0.677170641759 -30.7351457619 0.294868526056 82.6706942667 0.00138676303265 -17.8013359901 0.606524826506 179.252753439 0.603173018285 -0.803760540538 0.00138676303285 -17.8013360059 0.517984604049 20.2813571524
11.15 0.219291791914 121.241893971 0.36085722624 -4.28017398875 0.674181828002 -35.122544046 0.605948503571 176.719192108 0.36085722624 -4.28017398877 0.219289946799 120.818964873 0.677238295443 -35.2075953552 0.602531181009 -3.33426319778 0.674181828002 -35.122544046 0.677238295443 -35.2075953552 0.294669955311 76.5568956067 0.00141796496387 -21.4866560108 0.605948503571 176.719192108 0.60253118101 -3.33426319781 0.00141796496402 -21.4866560231 0.519404083424 17.8172256983
11.175 0.219211494143 118.720711373 0.362009566749 -6.98900890313 0.674109366494 -39.6270879621 0.605369832218 174.186813571 0.362009566749 -6.98900890314 0.219229616108 118.289717816 0.677217395559 -39.7112298336 0.601884312311 -5.86326198257 0.674109366494 -39.6270879621 0.677217395559 -39.7112298336 0.294878580123 70.4016661513 0.00145100103068 -25.1747482399 0.605369832218 174.186813571 0.601884312311 -5.86326198258 0.00145100103075 -25.1747482451 0.520826792751 15.3530518221
11.2 0.219051229327 116.143724801 0.363396127223 -9.6837589114 0.673935716807 -44.1658159066 0.604788885477 171.655542142 0.363396127223 -9.68375891139 0.219092199456 115.703570464 0.677097250257 -44.2489651972 0.601232324321 -8.39079604994 0.673935716807 -44.1658159066 0.677097250257 -44.2489651972 0.295541404939 64.2076568424 0.0014860610662 -28.8664935872 0.604788885477 171.655542142 0.601232324321 -8.39079604993 0.00148606106612 -28.8664935806 0.52225268732 12.8887910031
11.225 0.218781333444 113.5042449 0.365054431228 -12.3657905815 0.673648385295 -48.7420345733 0.604205743009 169.125298572 0.365054431229 -12.3657905815 0.218848308418 113.053657546 0.676865513554 -48.8241000297 0.60057512454 -10.9169030205 0.673648385295 -48.7420345733 0.676865513554 -48.8241000298 0.296710148994 57.9781081229 0.00152336333491 -32.5630243831 0.604205743008 169.125298572 0.60057512454 -10.9169030204 0.00152336333463 -32.5630243585 0.5236817161 10.4243985203
11.25 0.218367236264 110.794862085 0.367027149916 -15.0370142929 0.673232828609 -53.3595012505 0.603620490977 166.59599946 0.367027149916 -15.0370142929 0.218463693399 110.332363383 0.676507805955 -53.4403823334 0.599912615028 -13.4416186428 0.673232828609 -53.3595012505 0.676507805955 -53.4403823334 0.298442020571 51.7168408886 0.00156315969005 -36.2657918641 0.603620490977 166.59599946 0.599912615027 -13.4416186426 0.00156315968951 -36.2657918141 0.525113821175 7.9598294275
11.275 0.217768654338 108.007264441 0.369362851852 -17.7000120167 0.672671970277 -58.0225042256 0.603033221669 164.067556563 0.369362851854 -17.7000120167 0.217898449133 107.531131942 0.676007232883 -58.102089706 0.599244691334 -15.9649762971 0.672671970278 -58.0225042256 0.676007232884 -58.1020897061 0.300800728178 45.4282252479 0.0016057418346 -39.9766514302 0.603033221668 164.067556563 0.599244691333 -15.9649762968 0.00160574183374 -39.9766513461 0.526548937127 5.49503852803
11.3 0.216938601604 105.131990564 0.372116866301 -20.3581924318 0.671945584957 -62.7359595676 0.602444032736 161.539875982 0.372116866303 -20.3581924317 0.217106041858 104.640209184 0.67534377087 -62.8141258421 0.598571241137 -18.4870062276 0.671945584958 -62.7359595676 0.675343770871 -62.8141258422 0.303857811057 39.1171240673 0.00165144895475 -43.6979711228 0.602444032735 161.539875982 0.598571241135 -18.4870062271 0.00165144895352 -43.6979709951 0.527986990377 3.02998034811
11.325 0.215822163269 102.158091114 0.375352272538 -23.0159791067 0.671029510805 -67.5055280138 0.601853025949 159.012857203 0.37535227254 -23.0159791066 0.216032105454 101.648290428 0.674493481869 -67.5821370693 0.597892142629 -21.0077342851 0.671029510805 -67.5055280138 0.67449348187 -67.5821370694 0.307694400027 32.7888090131 0.00170067706183 -47.4327706908 0.601853025948 159.012857203 0.597892142626 -21.0077342844 0.0017006770602 -47.4327705099 0.52942789846 0.564609110077
11.35 0.21435495972 99.0726599274 0.379141024982 -25.67903867 0.669894637583 -72.3377566157 0.601260305251 156.486391965 0.379141024986 -25.6790386699 0.214612935727 98.5420320709 0.673427503192 -72.4126535563 0.59720726313 -23.5271797423 0.669894637584 -72.3377566156 0.673427503193 -72.4126535564 0.312403559394 26.4488476784 0.00175389045882 -51.1849012585 0.60126030525 156.486391964 0.597207263126 -23.5271797412 0.00175389045682 -51.1849010168 0.530871569253 -1.90112129503
11.375 0.212461201298 95.8601748387 0.383565217187 -28.3545573254 0.668505600922 -77.240250961 0.600665973884 153.960362923 0.383565217191 -28.3545573253 0.212773587483 95.3053655519 0.672110743244 -77.3132609812 0.596516459865 -26.0453512275 0.668505600923 -77.2402509609 0.672110743245 -77.3132609813 0.318093417383 20.1029612649 0.00181163583874 -54.9592792963 0.600665973882 153.960362923 0.59651645986 -26.0453512258 0.00181163583645 -54.9592789904 0.532317900134 -4.36725733535
11.4 0.210051199561 92.5015542986 0.388718473966 -31.0515757679 0.666819089985 -82.221885238 0.600070130238 151.434642068 0.388718473971 -31.0515757678 0.210425446051 91.9185162163 0.670500189952 -82.2928098899 0.595819590352 -28.5622385721 0.666819089986 -82.2218852379 0.670500189953 -82.2928098901 0.324891375168 13.756852926 0.00187455961416 -58.7621937262 0.600070130236 151.434642068 0.595819590345 -28.5622385695 0.00187455961176 -58.762193362 0.533766777079 -6.83384586624
11.425 0.207018153884 88.9727778667 0.394707435103 -33.7813945303 0.664781644767 -87.2930592014 0.599472861996 148.909088848 0.394707435109 -33.7813945303 0.207463102077 88.3565698982 0.668542707539 -87.3616717552 0.595116561533 -31.0777950257 0.664781644769 -87.2930592013 0.668542707539 -87.3616717553 0.332949807793 7.41600696642 0.00194342914748 -62.601712164 0.599472861994 148.909088847 0.595116561526 -31.0777950219 0.00194342914526 -62.6017117638 0.535218073685 -9.30093415838
11.45 0.203233972959 85.2428163767 0.401653247271 -36.5580639626 0.662326777896 -92.4660132771 0.598874237964 146.383547946 0.401653247277 -36.5580639626 0.203760306066 84.5873247766 0.666172155555 -92.5320528996 0.594407543422 -33.5918948834 0.662326777897 -92.466013277 0.666172155556 -92.5320528997 0.342453858316 1.08545820674 0.00201915854493 -66.4882222607 0.598874237962 146.383547946 0.59440754342 -33.5918948783 0.00201915854326 -66.4882218745 0.53667165012 -11.7685699257
11.475 0.198543824101 81.2704293506 0.409692898422 -39.3989751864 0.65937120124 -97.7552156206 0.598274296782 143.857846647 0.409692898426 -39.3989751865 0.1991647255 80.5679730937 0.663305609066 -97.8183800001 0.593693978458 -36.1042269308 0.659371201241 -97.7552156205 0.663305609066 -97.8183800002 0.35363222003 -5.23047159043 0.00210283947534 -70.4351578381 0.598274296781 143.857846647 0.593693978469 -36.104226925 0.00210283947454 -70.4351575615 0.538127351991 -14.236801353
11.5 0.192759053712 76.9990239051 0.418980086248 -42.3255698835 0.655809867283 -103.177837865 0.597673031442 141.33179171 0.418980086248 -42.3255698835 0.193491202862 76.2397865894 0.659838387615 -103.23777376 0.592984100944 -38.6141013982 0.655809867283 -103.177837865 0.659838387615 -103.23777376 0.36677227099 -11.528478082 0.00219577683085 -74.4599780437 0.597673031442 141.33179171 0.592984100944 -38.6141013982 0.00219577683085 -74.4599780438 0.539585009131 -16.7056771224
