! Generated from PyAEDT SolutionData; AEDT ExportNetworkData workaround
# GHz S MA R 50
9 0.423921230576 1.10972045511 0.403079403495 -104.386658246 0.612073286055 -22.0948309823 0.532150427269 42.085613633 0.403079403495 -104.386658246 0.424361094276 1.13698900319 0.611907334049 -22.0879133105 0.531990667851 -137.87506136 0.612073286055 -22.0948309823 0.611907334049 -22.0879133105 0.500934781016 -174.469139026 0.000228481209964 35.1449674776 0.532150427269 42.085613633 0.531990667851 -137.87506136 0.000228481209963 35.1449674771 0.658636318368 -133.048838291
9.025 0.418713082708 -2.19969568841 0.405184135049 -108.091155832 0.613823600577 -26.8796425802 0.532659136112 39.3458681971 0.405184135048 -108.091155832 0.419155234149 -2.17215419369 0.613658682635 -26.8727189055 0.532501384736 -140.614650522 0.613823600577 -26.8796425802 0.613658682635 -26.8727189054 0.496632919835 -179.879998417 0.00022920208525 30.6220687943 0.532659136112 39.3458681971 0.532501384736 -140.614650522 0.00022920208525 30.6220687801 0.657811878859 -135.408688253
9.05 0.413437203112 -5.50850102462 0.407383877436 -111.787208801 0.615499312638 -31.6612308913 0.533168502099 36.6126891245 0.407383877436 -111.787208801 0.413881574011 -5.48072307643 0.615335589342 -31.6543082992 0.533012693647 -143.347673733 0.615499312638 -31.6612308913 0.615335589342 -31.6543082992 0.492465892998 174.741144315 0.000229923051888 26.1206406135 0.533168502099 36.6126891245 0.533012693647 -143.347673733 0.000229923051888 26.1206406136 0.656984599451 -137.765823284
9.075 0.408084776666 -8.81766067582 0.409684365771 -115.475743748 0.617100154015 -36.4402638915 0.533678693713 33.885937057 0.409684365771 -115.475743748 0.408531304603 -8.78968464624 0.616937788025 -36.4333500642 0.533524761841 -146.07426952 0.617100154016 -36.4402638916 0.616937788025 -36.4333500643 0.4884402035 169.395566536 0.000230648840822 21.6405616999 0.533678693713 33.8859370569 0.533524761841 -146.07426952 0.000230648840828 21.6405617273 0.656154193901 -140.120369187
9.1 0.402646405607 -12.1281543925 0.412091481533 -119.157729252 0.61862565101 -41.217454461 0.534189871973 31.1654753681 0.412091481534 -119.157729252 0.403095034549 -12.1000205984 0.61846480712 -41.2105576885 0.534037749392 -148.794573643 0.618625651011 -41.2174544611 0.618464807121 -41.2105576886 0.484562618412 164.084538172 0.00023138429434 17.1816249003 0.534189871973 31.1654753681 0.534037749392 -148.794573643 0.000231384294364 17.1816249571 0.655320385218 -142.472450464
9.125 0.397112089119 -15.4409788205 0.414611258294 -122.834178688 0.620075088259 -45.9935628547 0.53470219063 28.4511700745 0.414611258294 -122.834178688 0.397562769919 -15.4127296077 0.619915933491 -45.9866920469 0.534551809448 -151.508719178 0.620075088262 -45.9935628549 0.619915933493 -45.9866920471 0.480840327221 158.809320759 0.000232134371429 12.7435360629 0.53470219063 28.4511700745 0.534551809448 -151.508719178 0.000232134371478 12.7435361441 0.654482905417 -144.822190394
9.15 0.3914711975 -18.7571501393 0.417249888136 -126.506153023 0.621447469692 -50.7693995241 0.535215796364 25.7428897478 0.417249888136 -126.506153022 0.391923888348 -18.7288299867 0.621290173441 -50.7625642236 0.535067088479 -154.216836606 0.621447469695 -50.7693995243 0.621290173443 -50.7625642238 0.477281102172 153.571164406 0.000232904152088 8.3259117771 0.535215796364 25.7428897478 0.535067088479 -154.216836606 0.000232904152166 8.32591187378 0.65364149528 -147.169711098
9.175 0.385712440598 -22.0777070819 0.420013728854 -130.174763661 0.622741476104 -55.5458283136 0.53573082896 23.0405054287 0.420013728854 -130.174763661 0.386167107447 -22.0493627316 0.622586210331 -55.53903871 0.535583726501 -156.919053903 0.622741476107 -55.5458283138 0.622586210333 -55.5390387102 0.473893461305 148.371302441 0.000233698839931 3.92827601564 0.53573082896 23.0405054286 0.535583726501 -156.919053903 0.000233698840032 3.9282761172 0.65279590413 -149.515133614
9.2 0.37982383017 -25.4037143526 0.422909311931 -133.841175439 0.62395541874 -60.3237700617 0.536247421476 20.3438905434 0.422909311932 -133.841175439 0.380280447114 -25.3753949681 0.623802358224 -60.3170370075 0.536101857299 -159.615496615 0.623955418742 -60.3237700619 0.623802358226 -60.3170370077 0.470686835082 143.210943542 0.000234523762411 -0.449944212604 0.536247421476 20.3438905434 0.536101857299 -159.615496615 0.000234523762526 -0.449944116481 0.651945889621 -151.858577961
9.225 0.373792635749 -28.736266457 0.42594335122 -137.506609821 0.625087188184 -65.1042066395 0.536765700398 17.6529208219 0.42594335122 -137.506609821 0.37425118536 -28.7080238172 0.624936510829 -65.0975416683 0.536621608632 -162.306287948 0.625087188186 -65.1042066397 0.624936510831 -65.0975416684 0.467671737519 138.091261071 0.000235384368108 -4.80942407414 0.536765700398 17.6529208219 0.536621608633 -162.306287948 0.000235384368224 -4.80942399216 0.651091217534 -154.200163206
9.25 0.367605333559 -32.0764919643 0.429122752155 -141.172348408 0.62613419775 -69.888185465 0.537285785777 14.9674742184 0.429122752155 -141.172348407 0.368065807176 -32.0483806992 0.625986084958 -69.8816008124 0.537143102439 -164.991548837 0.626134197752 -69.8881854651 0.62598608496 -69.8816008125 0.464859942832 133.013379298 0.000236286220524 -9.15094684675 0.537285785777 14.9674742184 0.537143102439 -164.991548837 0.000236286220624 -9.15094678528 0.650231661598 -156.540007528
9.275 0.361247547951 -35.4255582192 0.432454621244 -144.839736816 0.627093320464 -74.6768245363 0.53780779136 12.287430834 0.432454621244 -144.839736816 0.361709945916 -35.3976360973 0.626947957572 -74.6703331643 0.53766645502 -167.671398028 0.627093320465 -74.6768245364 0.626947957573 -74.6703331643 0.462264668474 127.978356175 0.000237234987917 -13.4754104314 0.53780779136 12.287430834 0.53766645502 -167.671398028 0.000237234987987 -13.4754103941 0.649367003306 -158.878228282
9.3 0.354703984773 -38.7846765219 0.435946275461 -148.510189026 0.62796081856 -79.4713180342 0.5383318247 9.612672842 0.435946275461 -148.510189026 0.355168316617 -38.7570048002 0.627818395356 -79.464933659 0.538191777233 -170.345952146 0.62796081856 -79.4713180343 0.627818395356 -79.4649336591 0.459900765394 122.987162248 0.000238236428732 -17.7838342876 0.5383318247 9.61267284199 0.538191777233 -170.345952146 0.000238236428757 -17.7838342753 0.648497031759 -161.214942058
9.325 0.34795835604 -42.1551077917 0.439605251072 -152.185192263 0.628732264283 -84.2729425482 0.538857987254 6.94308441482 0.439605251072 -152.185192263 0.348424640592 -42.1277516437 0.628592975597 -84.2666796731 0.538719174665 -173.01532577 0.628732264283 -84.2729425481 0.628592975597 -84.2666796731 0.457784916031 118.040655288 0.000239296372203 -22.07736664 0.538857987254 6.94308441483 0.538719174665 -173.01532577 0.000239296372175 -22.0773666514 0.647621543512 -163.550264742
9.35 0.340993295172 -45.538168725 0.443439311234 -155.86631253 0.629402450577 -89.0830639886 0.539386374464 4.27855165422 0.443439311234 -155.86631253 0.341461560606 -45.5111977647 0.629266496961 -89.0769379423 0.539248747813 -175.679631497 0.629402450576 -89.0830639885 0.62926649696 -89.0769379422 0.455935840315 113.13955017 0.000240420693724 -26.3572918121 0.539386374464 4.27855165423 0.539248747813 -175.679631497 0.000240420693638 -26.3572918436 0.646740342437 -165.884311576
9.375 0.333790262069 -48.9352384467 0.447456451589 -159.555200843 0.629965290027 -93.9031452543 0.539917075822 1.61896252316 0.447456451589 -159.555200843 0.334260545862 -48.9087273732 0.629832878528 -93.897172235 0.539780592258 -178.338980013 0.629965290025 -93.9031452541 0.629832878527 -93.8971722349 0.454374509429 108.284383561 0.000241615284538 -30.6250375491 0.539917075822 1.61896252318 0.539780592258 -178.338980013 0.000241615284394 -30.625037596 0.645853239596 -168.217197214
9.4 0.326329437198 -52.3477656393 0.451664902803 -163.253600288 0.630413700169 -98.7347547305 0.540450174923 -1.03579321949 0.451664902803 -163.253600288 0.326801786003 -52.321795034 0.630285045208 -98.7289518584 0.540314798836 179.006519849 0.630413700167 -98.7347547303 0.630285045207 -98.7289518582 0.453124366552 103.475472967 0.00024288601526 -34.8821822116 0.540450174923 -1.03579321947 0.540314798836 179.006519849 0.000242886015065 -34.8821822684 0.644960053127 -170.549035777
9.425 0.318589603896 -55.7772761099 0.456073128775 -166.963353987 0.630739472986 -103.5795757 0.54098574949 -3.6858240819 0.456073128775 -166.963353987 0.319064073295 -55.7519334281 0.630614797343 -103.573961077 0.540851453816 176.356761042 0.630739472984 -103.5795757 0.630614797342 -103.573961077 0.452211553059 98.7128697714 0.000244238692663 -39.1304617328 0.54098574949 -3.68582408188 0.540851453816 176.356761042 0.000244238692429 -39.1304617941 0.644060608139 -172.87994091
9.45 0.310548018037 -59.2253807119 0.460689818889 -170.686414068 0.630933126066 -108.439416757 0.541523871394 -6.33123689964 0.460689818889 -170.686414068 0.311024672179 -59.2007615246 0.630812661989 -108.434009539 0.541390639076 173.711638248 0.630933126065 -108.439416757 0.630812661987 -108.434009539 0.451665137767 93.9963060067 0.000245679008994 -43.371776258 0.541523871394 -6.33123689962 0.541390639076 173.711638248 0.000245679008736 -43.3717763185 0.643154736621 -175.210025833
9.475 0.302180264332 -62.6937834822 0.465523872264 -174.42485174 0.630983732514 -113.316223317 0.542064606639 -8.97213689337 0.465523872264 -174.42485174 0.302659175419 -62.6699930429 0.630867722961 -113.311043795 0.541932432285 171.071047817 0.630983732513 -113.316223317 0.630867722959 -113.311043795 0.45151734575 89.3251347592 0.000247212482927 -47.6081963997 0.542064606639 -8.97213689335 0.541932432285 171.071047817 0.000247212482661 -47.6081964551 0.642242277361 -177.539403396
9.5 0.293460098557 -66.1842897564 0.470584371459 -178.180868582 0.63087872627 -118.21209032 0.542608015342 -11.6086277238 0.470584371459 -178.180868582 0.293941346164 -66.1614449969 0.630767426296 -118.207160017 0.542476907089 168.434887713 0.630878726268 -118.21209032 0.630767426295 -118.207160017 0.451803782012 84.6982643719 0.000248844391017 -51.8419690659 0.542608015342 -11.6086277238 0.542476907089 168.434887713 0.000248844390763 -51.8419691131 0.641323075877 -179.868186129
9.525 0.284359275279 -69.6988138849 0.475880542425 178.043190861 0.630603678991 -123.129276231 0.543154151675 -14.2408115437 0.475880542425 178.043190861 0.284842945473 -69.6770459829 0.630497357291 -123.124618015 0.543024133313 165.803057453 0.63060367899 -123.129276231 0.63049735729 -123.124618014 0.452563643847 80.1140869157 0.000250579688196 -56.0755228332 0.543154151675 -14.2408115437 0.543024133313 165.803057453 0.00025057968797 -56.0755228702 0.640396984361 177.803513707
9.55 0.274847360898 -73.2393859459 0.481421696701 174.244825076 0.630142044117 -128.070218429 0.543703063796 -16.8687890468 0.4814216967 174.244825076 0.275333545116 -73.2188436662 0.630040984736 -128.065856643 0.543574177166 163.175458057 0.630142044116 -128.070218429 0.630040984735 -128.065856643 0.453839914131 75.5704018167 0.000252422915471 -60.3114728501 0.543703063796 -16.8687890468 0.543574177166 163.175458057 0.000252422915289 -60.3114728762 0.639463861626 175.475584073
9.575 0.264891532353 -76.8081565033 0.487217150858 170.421360083 0.629474863134 -133.037550075 0.544254793748 -19.4926595131 0.487217150858 170.421360083 0.265380326001 -76.789010603 0.629379367364 -133.033510694 0.544127101463 160.551991987 0.629474863134 -133.037550075 0.629379367364 -133.033510694 0.455679525945 71.0643360112 0.000254378092529 -64.5526252577 0.544254793748 -19.4926595131 0.544127101463 160.551991987 0.000254378092401 -64.5526252734 0.638523573072 173.147913097
9.6 0.254456362526 -80.407397891 0.493276116962 166.569932388 0.628580428457 -138.034118529 0.544809377329 -22.1125208505 0.493276116962 166.569932388 0.254947863235 -80.3898470144 0.628490816927 -138.030429338 0.544682965861 157.932563093 0.628580428456 -138.034118529 0.628490816927 -138.030429338 0.458133486972 66.5922625509 0.000256448592364 -68.8019811078 0.544809377329 -22.1125208505 0.544682965861 157.932563093 0.000256448592298 -68.8019811145 0.637575990662 170.820389035
9.625 0.243503594436 -84.0394995904 0.499607556281 162.687470327 0.627433896707 -143.063005359 0.545366843939 -24.7284696317 0.499607556281 162.687470327 0.243997899907 -84.0237782915 0.627350511686 -143.059696168 0.545241827115 155.317076559 0.627433896707 -143.063005359 0.627350511686 -143.059696168 0.461256949929 62.1497201695 0.000258636994401 -73.0627397307 0.545366843939 -24.7284696317 0.545241827115 155.317076559 0.000258636994399 -73.0627397303 0.636620992902 168.492900218
9.65 0.231991907749 -87.7069537245 0.506219986652 158.77067384 0.626006845612 -148.127547942 0.545927216391 -27.3406011268 0.506219986652 158.77067384 0.232489113091 -87.6933435972 0.625930053529 -148.124650833 0.545803739348 152.705438838 0.626006845612 -148.127547942 0.625930053529 -148.124650834 0.465109212911 57.7313368972 0.000260944911775 -77.3383014563 0.545927216391 -27.3406011268 0.545803739348 152.705438838 0.000260944911834 -77.3383014512 0.635658464841 166.16533501
9.675 0.219876683204 -91.4123240322 0.513121231618 154.815992726 0.624266767284 -153.231362569 0.546490510696 -29.9490093287 0.513121231618 154.815992726 0.220376877648 -91.4011695013 0.624196961476 -153.228912195 0.546368754351 150.097557595 0.624266767284 -153.231362569 0.624196961477 -153.228912195 0.469753630849 53.3307613218 0.000263372787552 -81.6322695121 0.546490510696 -29.9490093287 0.546368754351 150.097557595 0.000263372787664 -81.6322695047 0.634688298069 163.837581759
9.7 0.207109773358 -95.1581869168 0.520318096764 150.819603594 0.622176490435 -158.378368898 0.547056735813 -32.5537869729 0.520318096764 150.819603594 0.207613036171 -95.1499182256 0.622114094136 -158.376402831 0.546936921893 147.493341639 0.622176490435 -158.378368898 0.622114094136 -158.376402831 0.475257416218 48.9406054659 0.000265919653648 -85.9484507976 0.547056735813 -32.5537869729 0.546936921893 147.493341639 0.000265919653802 -85.94845079 0.633710390741 161.509528758
9.725 0.193639291935 -98.9470242505 0.527815955465 146.777385806 0.619693524301 -163.57281543 0.547625893368 -35.155025548 0.527815955465 146.777385806 0.194145687312 -98.9421919528 0.619638993851 -163.571374576 0.54750829006 144.892700851 0.619693524302 -163.57281543 0.619638993852 -163.571374576 0.481691303452 44.5524034152 0.000268582845122 -90.2908550603 0.547625893368 -35.155025548 0.54750829006 144.892700851 0.000268582845304 -90.2908550541 0.632724647594 159.181064198
9.75 0.179409439389 -102.781030108 0.535618222542 142.684896969 0.616769317925 -168.819305476 0.548197977356 -37.7528152962 0.535618222542 142.684896969 0.17991900995 -102.780358713 0.616723146205 -168.818434576 0.548082905604 142.295546103 0.616769317926 -168.819305476 0.616723146205 -168.818434576 0.489129046881 40.1565897241 0.000271357661348 -94.6636917508 0.548197977356 -37.7528152962 0.548082905604 142.295546103 0.000271357661543 -94.6636917471 0.63173097999 156.852076125
9.775 0.164360389508 -106.661757133 0.543725690116 138.537348762 0.613348430399 -174.122822841 0.548772973814 -40.3472452022 0.543725690116 138.537348762 0.164873147832 -106.666232208 0.613311150451 -174.122571064 0.548660814305 139.701789174 0.6133484304 -174.122822841 0.613311150451 -174.122571064 0.497646716146 35.7425012139 0.000274236964505 -99.0713635001 0.548772973814 -40.3472452022 0.548660814305 139.701789174 0.000274236964698 -99.0713634992 0.630729305958 154.522452403
9.8 0.148428272007 -110.589446689 0.552135695412 134.329584301 0.60936761121 -179.488756032 0.549350860497 -42.938402967 0.552135695412 134.329584301 0.148944189169 -110.600463975 0.609339800004 -179.489177696 0.549242061328 137.111342643 0.60936761121 -179.488756032 0.609339800004 -179.489177696 0.50732174526 31.2984050733 0.000277210704891 -103.518454708 0.549350860497 -42.9384029671 0.549242061328 137.111342643 0.000277210705068 -103.51845471 0.62971955025 152.192080666
9.825 0.131545300679 -114.561688333 0.56084108565 130.056058711 0.604754795679 175.077080678 0.549931606569 -45.5263749649 0.56084108565 130.056058711 0.132064289734 -114.58132647 0.60473707795 175.075925235 0.549826691551 134.524119775 0.60475479568 175.077080678 0.604737077951 175.075925235 0.518231681584 26.8115552396 0.000280265362164 -108.009713141 0.549931606569 -45.5263749649 0.549826691551 134.524119775 0.000280265362314 -108.009713144 0.628701644411 149.860848286
9.85 0.113640120141 -118.570515357 0.569828941058 125.710825274 0.599428029707 169.568431671 0.550515172337 -48.1112461792 0.569828941059 125.710825274 0.114162009962 -118.602079298 0.59942108174 169.566475022 0.550414749845 131.940034387 0.599428029707 169.568431671 0.59942108174 169.566475022 0.530452568386 22.2682780158 0.000283383291956 -112.550021655 0.550515172337 -48.1112461792 0.550414749845 131.940034387 0.000283383292072 -112.55002166 0.62767552685 147.528642324
9.875 0.0946384908437 -122.595363574 0.579079014296 121.287530337 0.593294351804 163.978593082 0.551101509079 -50.693100115 0.579079014296 121.287530337 0.0951629782333 -122.644599622 0.59329890502 163.975759404 0.551006281249 129.359000689 0.593294351804 163.978593082 0.59329890502 163.975759404 0.544056879607 17.6540869638 0.00028654196919 -117.144356195 0.551101509079 -50.693100115 0.551006281249 129.359000689 0.00028654196927 -117.1443562 0.626641142932 145.195349501
9.9 0.0744645627314 -126.582986218 0.588561844785 116.779421277 0.586248680521 158.300418854 0.551690559035 -53.2720186848 0.588561844785 116.779421277 0.0749911043523 -126.66128561 0.586265524623 158.296622303 0.551601330975 126.780933102 0.586248680522 158.300418854 0.586265524623 158.296622303 0.55911090853 12.9538265251 0.000289713123525 -121.797724949 0.551690559035 -53.2720186848 0.551601330975 126.780933102 0.000289713123569 -121.797724952 0.625598445071 142.860856153
9.925 0.0530435617397 -130.373715657 0.598236511771 112.179373139 0.57817278361 152.526345349 0.552282255635 -55.8480820641 0.598236511771 112.179373139 0.0535710427944 -130.509060593 0.57820276899 152.521488027 0.552199944171 124.205746051 0.57817278361 152.526345349 0.57820276899 152.521488027 0.575671495336 8.1518437989 0.000292861770035 -126.515082079 0.552282255635 -55.8480820641 0.552199944171 124.205746051 0.000292861770047 -126.51508208 0.62454739284 140.525048197
9.95 0.030311257122 -133.273215644 0.608048003749 107.479941104 0.56893444377 146.648441698 0.552876524102 -58.4213685174 0.608048003749 107.479941104 0.0308362890722 -133.571233615 0.56897848276 146.64241109 0.552802165292 121.633353724 0.56893444377 146.648441698 0.56897848276 146.64241109 0.593781965587 3.23218862249 0.000295945151019 -131.301207652 0.552876524102 -58.4213685174 0.552802165292 121.633353724 0.000295945151008 -131.301207651 0.623487953087 138.187811095
9.975 0.00640081742526 -123.57804693 0.617924208742 102.673447765 0.558386986338 140.658494846 0.553473282566 -60.9919541956 0.617924208742 102.673447765 0.00687184462053 -126.116146017 0.55844605278 140.651160545 0.55340803696 119.063669806 0.558386986338 140.658494846 0.55844605278 140.651160545 0.613467148895 -1.82115637797 0.000298911624859 -136.160543431 0.553473282566 -60.9919541956 0.55340803696 119.063669806 0.000298911624834 -136.160543428 0.622420100064 135.849029817
10 0.0196418336103 27.8117127932 0.627772575668 97.7521159407 0.546369397534 134.54814005 0.554072443892 -63.5599129125 0.627772575668 97.7521159407 0.0190912664351 28.1429403892 0.546444523996 134.539349527 0.554017598096 116.496607199 0.546369397533 134.54814005 0.546444523996 134.539349527 0.634727363911 -7.02401187699 0.000301699567424 -141.096972157 0.554072443892 -63.5599129125 0.554017598096 116.496607199 0.000301699567395 -141.096972153 0.621343815565 133.508588808
10.025 0.0467264773779 26.3147062284 0.637476568628 92.7082594042 0.532707336162 128.30904924 0.554673918432 -66.1253159143 0.637476568628 92.7082594042 0.0461821272829 26.5172523612 0.532799608002 128.298622303 0.554630881123 113.932077727 0.532707336162 128.30904924 0.532799608002 128.298622303 0.65753130602 -12.3916975909 0.000304236393052 -146.113526152 0.554673918432 -66.1253159143 0.554630881123 113.932077727 0.000304236393026 -146.113526148 0.62025908908 131.166371951
10.05 0.0754024936811 22.2446879665 0.646892140062 87.5345447919 0.517215420917 121.933190558 0.55527761793 -68.6882316682 0.646892140062 87.5345447919 0.0748609774638 22.3926440936 0.517325966251 121.920911985 0.555247908002 111.36999187 0.517215420917 121.933190558 0.517325966251 121.920911985 0.68180787511 -17.9386788181 0.000306437857054 -151.212010022 0.55527761793 -68.6882316682 0.555247908002 111.36999187 0.000306437857036 -151.212010018 0.619165917946 128.822262541
10.075 0.105641458719 17.5401261008 0.655844589799 82.2243374625 0.499701246071 115.41317196 0.55588346079 -71.2487257097 0.655844589799 82.2243374625 0.105102954792 17.6595610494 0.499831220643 115.39878154 0.555868684907 108.810258553 0.499701246071 115.41317196 0.499831220643 115.39878154 0.707437152581 -23.6781537063 0.000308207869368 -156.392522685 0.55588346079 -71.2487257097 0.555868684907 108.810258553 0.00030820786936 -156.392522684 0.618064307529 126.476143245
10.1 0.137407351281 12.5066984178 0.664126352485 76.7721411779 0.479971616434 108.742678935 0.556491378806 -73.8068606036 0.664126352485 76.7721411779 0.136872937137 12.6085962851 0.48012218236 108.725857732 0.556493195415 106.252785055 0.479971616434 108.742678935 0.48012218236 108.725857732 0.734240997118 -29.6215723098 0.000309439124229 -161.652867078 0.556491378806 -73.8068606036 0.556493195415 106.252785055 0.000309439124231 -161.652867079 0.616954271398 124.127896077
10.125 0.170621876371 7.2353731959 0.671496450136 71.1741349015 0.457841460886 101.91700994 0.557101325289 -76.3626960951 0.671496450136 71.1741349015 0.170093109685 7.32533032769 0.458013758461 101.897360935 0.557121392302 103.697477102 0.457841460886 101.91700994 0.458013758461 101.897360935 0.761974084961 -35.7780834373 0.000310014921126 -166.987842992 0.557101325289 -76.3626960951 0.557121392302 103.697477102 0.000310014921134 -166.987842995 0.615835831523 121.777402364
10.15 0.205151309026 1.76301672078 0.677682522644 65.4287985135 0.433145733359 94.9337019281 0.557713284197 -78.9162895342 0.677682522644 65.4287985135 0.204630119659 1.84426051788 0.433340845477 94.9107220292 0.557753188336 101.144239246 0.433145733359 94.9337019281 0.433340845477 94.9107220292 0.790316654587 -42.1539154251 0.000309812595213 -172.388431287 0.557713284197 -78.9162895342 0.557753188336 101.144239246 0.000309812595222 -172.388431293 0.614709018478 119.424542721
10.175 0.240796271321 -3.89062359044 0.682386442278 59.5376019732 0.405754287002 87.7932214972 0.558327279423 -81.4676966608 0.682386442278 59.5376019732 0.240284920096 -3.81606497999 0.40597319647 87.7662598501 0.558388446889 98.5929755921 0.405754287002 87.7932214972 0.40597319647 87.7662598501 0.818870666629 -48.7517132549 0.000308708956425 -177.840897318 0.558327279423 -81.4676966608 0.558388446889 98.5929755921 0.000308708956431 -177.840897324 0.613573871656 117.069197022
10.2 0.277284326819 -9.71078400372 0.685294435779 53.505709748 0.375589172587 80.4996754016 0.558943382875 -84.0169728109 0.685294435779 53.505709748 0.276785374828 -9.64155311196 0.375832713641 80.4678690941 0.559026973773 96.0435909616 0.375589172587 80.4996754015 0.375832713641 80.467869094 0.847161435789 -55.5698765447 0.000306588013273 176.674131768 0.558943382875 -84.0169728109 0.559026973773 96.0435909616 0.000306588013275 176.674131762 0.612430439494 114.71124437
10.225 0.314267070398 -15.6826394309 0.686092275187 47.3426266366 0.342643074163 73.0614703506 0.559561719457 -86.5641745502 0.686092275187 47.3426266366 0.313783339543 -15.6177825868 0.342911880858 73.0236410075 0.559668512166 93.495992472 0.342643074163 73.0614703506 0.342911880857 73.0236410075 0.874646847635 -62.6019683948 0.000303350989953 171.182528562 0.559561719457 -86.5641745502 0.559668512166 93.495992472 0.000303350989951 171.182528558 0.611278779711 112.350563079
10.25 0.351323734007 -21.7888713887 0.684485378791 41.0626878334 0.306996749308 65.4918329636 0.560182466754 -89.1093616447 0.684485378791 41.0626878334 0.35085825037 -21.7276922297 0.307291204869 65.4463117434 0.560312742831 90.9500914594 0.306996749308 65.4918329636 0.307291204869 65.4463117434 0.900735822518 -69.8362884324 0.00029892821886 165.71734408 0.560182466754 -89.1093616447 0.560312742831 90.9500914594 0.000298928218858 165.71734408 0.610118959552 109.987030642
10.275 0.387973008925 -28.0084962566 0.680222599556 34.6852834638 0.268832598526 57.8090984785 0.560805847447 -91.6525991594 0.680222599556 34.6852834638 0.387528925914 -27.9504699152 0.269152791062 57.7534104241 0.560959291596 88.4058055263 0.268832598526 57.8090984785 0.269152791062 57.7534104241 0.924816561986 -77.2557163131 0.000293291942069 160.319151912 0.560805847447 -91.6525991594 0.560959291596 88.4058055263 0.000293291942074 160.319151916 0.608951056052 107.620523716
10.3 0.423693792354 -34.316510519 0.673121236671 28.2347153746 0.228441158447 50.0367125347 0.561432113382 -94.1939593563 0.673121236671 28.2347153746 0.423274294865 -34.2612306644 0.228786849029 49.9669586694 0.561607745182 85.8630603885 0.228441158447 50.0367125348 0.228786849029 49.9669586695 0.946293311903 -84.8379248423 0.000286468495873 155.035887777 0.561432113382 -94.1939593563 0.561607745182 85.8630603885 0.00028646849589 155.035887784 0.6077751563 105.250918098
10.325 0.457953962267 -40.6841920316 0.663089729141 21.739618776 0.186217715137 42.2030134376 0.562061521833 -96.7335229976 0.663089729141 21.739618776 0.457562157253 -40.6313367617 0.186588323884 42.1125210308 0.562257674808 83.3217911273 0.186217715137 42.2030134377 0.186588323884 42.1125210308 0.964628191475 -92.5560275972 0.000278547959729 149.9220125 0.562061521833 -96.7335229976 0.562257674808 83.3217911273 0.000278547959758 149.922012509 0.60659135772 102.878088705
10.35 0.490244384541 -47.0799580531 0.650144024722 15.2319433609 0.142647535619 34.3412595795 0.562694306575 -99.2713796915 0.650144024722 15.2319433609 0.489883186978 -47.0292671353 0.143042149706 34.2171376258 0.562908664973 80.7819424848 0.142647535619 34.3412595795 0.143042149706 34.2171376259 0.979382670733 -100.379664459 0.000269689315282 145.036840432 0.562694306575 -99.2713796915 0.562908664973 80.7819424848 0.000269689315317 145.03684044 0.605399768372 100.501909563
10.375 0.520113722656 -53.470655181 0.634414132773 8.74556719268 0.0982802733634 26.4921417868 0.563330648177 -101.807627069 0.634414132773 8.74556719268 0.519785748086 -53.4219144034 0.0986976780231 26.3040843174 0.563560342997 78.2434679934 0.0982802733635 26.4921417868 0.0986976780232 26.3040843174 0.990252287239 -108.276450318 0.000260119591399 140.44189933 0.563330648177 -101.807627069 0.563560342997 78.2434679934 0.000260119591428 140.441899334 0.604200507257 98.1222537854
10.4 0.54719887879 -59.8231057803 0.616138937446 2.31469172844 0.05369642264 18.7253433494 0.563970648753 -104.342368834 0.616138937446 2.31469172844 0.546906353745 -59.7761359167 0.0541351521289 18.3686060992 0.564212404096 75.7063279805 0.05369642264 18.7253433494 0.0541351521289 18.3686060992 0.997088759771 -116.213637602 0.00025012630661 136.197217523 0.563970648753 -104.342368834 0.564212404096 75.7063279805 0.000250126306618 136.197217523 0.602993704647 95.7389935665
10.425 0.571246441891 -66.1056993471 0.595649615376 -4.02778542231 0.00947143011787 11.8035078632 0.564614315759 -106.87571199 0.595649615376 -4.02778542231 0.570991141257 -66.060348202 0.00992976639124 9.7548881095 0.564864627404 73.1704867543 0.00947143011776 11.8035078627 0.00992976639114 9.75488810907 0.999905847083 -124.159795385 0.000240043518365 132.356482766 0.564614315759 -106.87571199 0.564864627404 73.1704867543 0.00024004351834 132.356482763 0.601779502427 93.3520001677
10.45 0.592122280466 -72.2898185433 0.573344282322 -10.2517184615 0.0338659256302 -177.250196206 0.565261557375 -109.407763735 0.573344282322 -10.2517184615 0.591905496777 -72.245955111 0.0333895956964 -176.643489997 0.565516880405 70.6359094652 0.0338659256305 -177.250196206 0.0333895956966 -176.643489997 0.998868526174 -132.086303167 0.000230232630014 128.961132054 0.565261557375 -109.407763735 0.565516880405 70.6359094652 0.000230232629953 128.96113205 0.600558054455 90.9611439103
10.475 0.609808842827 -78.350933102 0.549658057278 -16.3308206438 0.075845746898 175.321650711 0.565912189364 -111.938628581 0.549658057278 -16.3308206438 0.609631387694 -78.308443207 0.0753532752655 175.597535622 0.566169111916 68.1025591814 0.0758457468984 175.321650711 0.0753532752658 175.597535622 0.994268303402 -139.968497624 0.000221059583199 126.033695299 0.565912189364 -111.938628581 0.566169111916 68.1025591814 0.000221059583109 126.033695297 0.599329526937 88.566294168
10.5 0.62439203216 -84.2692680188 0.525033144651 -22.2433407263 0.116093926226 167.906498519 0.566565950842 -114.468406106 0.525033144651 -22.2433407263 0.624254265669 -84.228051017 0.115587070735 168.089778866 0.566821336145 65.5703946107 0.116093926227 167.906498519 0.115587070735 168.089778866 0.98648972931 -147.786382056 0.000212870229509 123.571199856 0.566565950842 -114.468406106 0.566821336145 65.5703946107 0.00021287022941 123.57119986 0.598094098807 86.167319363
10.525 0.636041052663 -90.0300334526 0.49989282161 -27.9722985484 0.154329342848 160.611751956 0.567222525077 -116.997189592 0.49989282161 -27.9722985484 0.635942933691 -89.9899997055 0.153809768164 160.7515042 0.567473611746 63.0393686975 0.154329342849 160.611751956 0.153809768164 160.7515042 0.97597393238 -155.524888197 0.000205965827943 121.540096538 0.567222525077 -116.997189592 0.567473611746 63.0393686975 0.000205965827864 121.540096545 0.59685196212 83.764086963
10.55 0.644985101517 -95.6232713114 0.474621788184 -33.5053366842 0.190365193822 153.461993358 0.56788156125 -119.525065551 0.474621788184 -33.5053366842 0.644926250712 -95.5843402326 0.18983443438 153.576488293 0.568126019895 60.5094281112 0.190365193822 153.461993358 0.189834434381 153.576488293 0.963184300313 -163.173746976 0.000200581043887 119.87468413 0.56788156125 -119.525065551 0.568126019894 60.5094281112 0.000200581043856 119.874684134 0.595603322453 81.356463482
10.575 0.651490339671 -101.043414888 0.449553740649 -38.8342862575 0.224100376572 146.466875872 0.568542694006 -122.052113997 0.449553740649 -38.8342862575 0.651470107286 -101.005513419 0.223559811132 146.564904096 0.568778644575 57.9805134745 0.224100376572 146.466875872 0.223559811131 146.564904096 0.948577848944 -170.72706579 0.000196867443232 118.480836587 0.568542694006 -122.052113997 0.568778644575 57.9805134745 0.000196867443267 118.480836577 0.594348399314 78.9443144836
10.6 0.655839587285 -106.288671131 0.424965709624 -43.9545581751 0.255506591106 139.629531513 0.56920555888 -124.578409219 0.424965709624 -43.9545581751 0.655857119536 -106.25173254 0.254957430294 139.715998146 0.569431556981 55.4525600992 0.255506591105 139.629531513 0.254957430294 139.715998146 0.932583984554 -178.182722816 0.000194885647562 117.245534595 0.56920555888 -124.578409219 0.569431556981 55.4525600992 0.000194885647661 117.245534556 0.593087426554 76.5275045876
10.625 0.658316065552 -111.360326216 0.401077882527 -48.8644621978 0.284613603498 132.949050374 0.569869802953 -127.10402083 0.401077882527 -48.8644621978 0.658370365063 -111.324289155 0.284056888069 133.0269734 0.570084804671 52.9254989895 0.284613603497 132.949050374 0.284056888068 133.0269734 0.915590796138 174.458320198 0.000194608247456 116.050538872 0.569869802953 -127.10402083 0.570084804671 52.9254989895 0.000194608247596 116.050538792 0.591820652797 74.1058974802
10.65 0.659191541136 -116.262053437 0.378057310156 -53.5645347647 0.311494617244 126.421738744 0.570535091051 -129.629014877 0.378057310157 -53.5645347646 0.659281518945 -116.226861181 0.310931224267 126.493109115 0.570738405186 50.399257912 0.311494617242 126.421738744 0.310931224265 126.493109115 0.897937961463 167.192707025 0.000195933134736 114.786681072 0.570535091051 -129.629014877 0.570738405187 50.399257912 0.000195933134875 114.786680942 0.590548341869 71.6793559286
10.675 0.658718560261 -120.999276767 0.356023953743 -58.0569310468 0.336253027886 120.041975279 0.571201108273 -132.153454886 0.356023953743 -58.0569310468 0.658843078413 -120.964876613 0.335683682251 120.10817721 0.571392343315 47.8737623968 0.336253027883 120.041975279 0.335683682248 120.10817721 0.879914834072 160.015324025 0.000198704113094 113.364968388 0.571201108273 -132.153454886 0.571392343315 47.8737623969 0.000198704113182 113.364968209 0.589270773247 69.2477417983
10.7 0.657126095338 -125.578619859 0.335057799251 -62.3449133643 0.359011225796 113.802860586 0.571867559875 -134.677402753 0.335057799251 -62.3449133642 0.657284000206 -125.544962638 0.358436514791 113.864896873 0.572046571016 45.3489365928 0.359011225792 113.802860586 0.358436514788 113.864896873 0.861762180357 152.919854963 0.000202733981258 111.722218424 0.571867559875 -134.677402753 0.572046571016 45.3489365928 0.000202733981249 111.722218206 0.58798824251 66.8109160755
10.725 0.654617804561 -130.007451779 0.315206111144 -66.4324498419 0.37990164843 107.696721158 0.572534169426 -137.200919466 0.315206111145 -66.4324498419 0.654807951728 -129.97449146 0.379322037667 107.755342836 0.572701009057 42.8247039457 0.379901648426 107.696721158 0.379322037664 107.755342836 0.843676197245 145.899241889 0.000207825533366 109.821197975 0.572534169425 -137.200919466 0.572701009057 42.8247039457 0.00020782553323 109.821197735 0.586701061803 64.3687388939
10.75 0.651372139466 -134.293528111 0.296490227182 -70.3239246843 0.39905998133 101.715495977 0.573200676017 -139.724065649 0.296490227183 -70.3239246843 0.651593411364 -134.261221472 0.398475830773 101.771281241 0.573355549609 40.3009877053 0.399059981326 101.715495977 0.398475830769 101.771281241 0.825813721192 138.946053083 0.000213787621044 107.646894911 0.573200676017 -139.72406565 0.573355549609 40.3009877053 0.000213787620774 107.646894669 0.585409560304 61.921069565
10.775 0.647543651462 -138.444718543 0.278911563832 -74.0239539663 0.416620242455 95.8510259583 0.573866831095 -142.246901957 0.278911563833 -74.0239539662 0.647794969047 -138.413024905 0.416031821729 95.9044304397 0.574010059218 37.7777112783 0.416620242451 95.8510259584 0.416031821725 95.9044304398 0.808297840379 132.052766634 0.000220445450993 105.20102927 0.573866831095 -142.246901957 0.574010059219 37.7777112783 0.000220445450615 105.201029048 0.584114084702 59.467766614
10.8 0.643264991596 -142.468808529 0.262456696366 -77.5372970611 0.432711419574 90.0952638095 0.574532395275 -144.769489342 0.262456696366 -77.5372970611 0.643545321312 -142.43768952 0.432118922068 90.1466538336 0.574664381802 35.2547984575 0.43271141957 90.0952638096 0.432118922065 90.1466538337 0.791223389512 125.211981813 0.000227645773967 102.496488381 0.574532395274 -144.769489342 0.574664381802 35.2547984575 0.000227645773538 102.496488198 0.582814999677 57.0086878207
10.825 0.638649235923 -146.373361639 0.247101504994 -80.8688523634 0.447455328881 84.4404201589 0.575197135378 -147.291889224 0.247101504994 -80.8688523633 0.638957593041 -146.342780993 0.446858884403 84.4900954598 0.575318341422 32.7321735536 0.447455328878 84.440420159 0.4468588844 84.4900954599 0.7746620184 118.41657131 0.000235258296438 99.5526361034 0.575197135378 -147.291889224 0.575318341422 32.7321735536 0.000235258296045 99.5526359744 0.581512688383 54.543690265
10.85 0.633792286026 -150.16562996 0.23281445276 -84.0237256176 0.460965395968 78.879059911 0.5758608218 -149.814163595 0.23281445276 -84.0237256176 0.634127735316 -150.135553335 0.460365081866 78.9272695716 0.575971744745 30.2097614558 0.460965395967 78.879059911 0.460365081865 78.9272695716 0.758666679143 111.659786742 0.000243174698417 96.3918165883 0.5758608218 -149.814163595 0.575971744745 30.2097614558 0.000243174698166 96.3918165215 0.580207552931 52.0726303785
10.875 0.628775185839 -153.852501359 0.2195590977 -87.0073590168 0.47334610793 73.4041606737 0.576523226243 -152.336375067 0.2195590977 -87.0073590168 0.629136840327 -153.82289617 0.472741958725 73.4511145773 0.576624383131 27.6874876422 0.47334610793 73.4041606737 0.472741958725 73.4511145773 0.743275480165 104.935328357 0.000251306376203 93.0369916019 0.576523226243 -152.336375067 0.576624383131 27.6874876422 0.000251306376211 93.0369915989 0.578900014878 49.5953640021
10.9 0.623666263029 -157.440474252 0.207295954298 -89.8257086645 0.484692935533 68.009142996 0.577184119823 -154.858586893 0.207295954298 -89.8257086646 0.624053281443 -157.4113095 0.484084951153 68.0550202241 0.577276034369 25.1652781572 0.484692935536 68.0091429959 0.484084951155 68.055020224 0.72851491952 98.2373880045 0.000259581683968 89.510287286 0.577184119823 -154.858586893 0.577276034369 25.1652781572 0.000259581684352 89.5102873418 0.577590515707 47.1117464492
10.925 0.618523049852 -160.935652273 0.195983817672 -92.4854566526 0.495092570512 62.6878801924 0.5778432715 -157.38086296 0.195983817671 -92.4854566526 0.618934633232 -160.906898383 0.494480723253 62.7328352944 0.577926464087 22.6430595657 0.495092570517 62.6878801923 0.494480723257 62.7328352943 0.714402545902 91.5606726902 0.000267943145826 85.8321979361 0.577843271501 -157.38086296 0.577926464086 22.6430595657 0.000267943146688 85.83219804 0.5762795173 44.6216325756
10.95 0.613393969134 -164.343752879 0.185580655331 -94.9942418207 0.504623362267 57.434693818 0.578500446816 -159.903267781 0.18558065533 -94.9942418208 0.613829356958 -164.315381531 0.504007602637 57.478861568 0.578575426874 20.120758897 0.504623362275 57.4346938178 0.504007602643 57.4788615678 0.70094911274 84.9004143661 0.000276344889575 82.0212287983 0.578500446817 -159.903267781 0.578575426874 20.120758897 0.00027634489099 82.021228935 0.574967502417 42.1248768568
10.975 0.608319790052 -167.670125296 0.176044160219 -97.36089046 0.513355870018 52.2443394205 0.579155406868 -162.425866472 0.176044160218 -97.36089046 0.608778256138 -167.642109241 0.512736131585 52.2878384772 0.57922266717 17.59830358 0.513355870028 52.2443394201 0.512736131593 52.2878384768 0.68816029564 78.2523702043 0.000284750410607 78.0938126596 0.579155406869 -162.425866472 0.579222667169 17.59830358 0.000284750412607 78.0938128113 0.573654975152 39.6213334715
11 0.603334869284 -170.919774318 0.167332047715 -99.595625313 0.521353471125 47.1119860311 0.5798079075 -164.948724733 0.167332047713 -99.5956253129 0.603815717667 -170.892087192 0.520729674519 47.1549217907 0.579867919953 15.0756213779 0.521353471137 47.1119860306 0.52072967453 47.1549217902 0.676038041278 71.612816456 0.000293130690839 74.0643848411 0.579807907501 -164.948724733 0.579867919951 15.0756213779 0.000293130693405 74.0643849896 0.572342461381 37.1108563937
11.025 0.598468198511 -174.097387401 0.159402169408 -101.710229029 0.528672985012 42.0331919386 0.580457698656 -167.471908829 0.159402169406 -101.710229029 0.598970759428 -174.070003514 0.528045041192 42.0756587838 0.580510911277 12.5526403216 0.528672985026 42.033191938 0.528045041204 42.0756587832 0.664581609901 64.9785380606 0.000301462653503 69.9455406946 0.580457698658 -167.47190883 0.580510911276 12.5526403217 0.000301462656556 69.9455408233 0.5710305092 34.5932994917
11.05 0.593744281142 -177.207363158 0.152212508 -103.718137753 0.535365285905 37.0038785746 0.581104523873 -169.995485579 0.152212507998 -103.718137753 0.594267907215 -177.180257277 0.534733098796 37.0459616662 0.581151358688 10.0292886458 0.535365285921 37.0038785739 0.534733098809 37.0459616655 0.653788366142 58.3468154529 0.000309727914851 65.7482281736 0.581104523875 -169.995485579 0.581151358687 10.0292886458 0.000309727918244 65.7482282696 0.569719689339 32.0685166361
11.075 0.589183860895 179.746160083 0.145721110006 -105.634442783 0.541475887561 32.0203038002 0.581748119881 -172.519522337 0.145721110003 -105.634442783 0.589727923595 179.773012975 0.540839356159 32.0620805178 0.58178897154 7.50549472631 0.541475887577 32.0203037994 0.540839356172 32.0620805171 0.643654365047 51.7154094589 0.000317911787849 61.4819473586 0.581748119883 -172.519522337 0.581788971538 7.50549472636 0.000317911791369 61.4819474148 0.568410595556 29.5363618163
11.1 0.584804523483 176.759276621 0.139886005331 -107.47578398 0.547045490208 27.0790354776 0.582388216288 -175.044086993 0.139886005329 -107.47578398 0.585368409891 176.785901577 0.546404510228 27.1205765893 0.582423451248 4.98118702116 0.547045490223 27.0790354769 0.546404510241 27.1205765885 0.634174772858 45.0825447656 0.000326002494128 57.1549413344 0.582388216289 -175.044086993 0.582423451246 4.98118702122 0.000326002497499 57.1549413513 0.567103845004 26.9966892656
11.125 0.580621190571 173.828287255 0.13466515426 -109.260127917 0.5521104848 22.1769259114 0.583024535335 -177.569247968 0.134665154258 -109.260127917 0.581204300488 173.854709633 0.551464949939 22.2182965289 0.583054491486 2.45629401326 0.552110484812 22.1769259108 0.55146494995 22.2182965283 0.625344155502 38.4468921513 0.00033399054491 52.7743706281 0.583024535337 -177.569247968 0.583054491484 2.45629401332 0.000333990547802 52.7743706149 0.565800078576 24.4493535962
11.15 0.576646523004 170.949675145 0.130016452463 -111.00643598 0.556703412962 17.3110875252 0.583656791708 179.90492578 0.130016452462 -111.00643598 0.577248266403 170.975920889 0.556053215828 17.3523478924 0.583681778357 -0.0692558443317 0.55670341297 17.3110875247 0.556053215836 17.352347892 0.617156662056 31.8075494704 0.000341868257193 48.3464681113 0.583656791709 179.90492578 0.583681778355 -0.0692558442869 0.000341868259234 48.3464680867 0.564499961204 21.8942099437
11.175 0.572891248047 168.120083918 0.125897813155 -112.734240917 0.560853383144 12.4788699865 0.58428469238 177.378364756 0.125897813154 -112.734240917 0.573511042889 168.146179852 0.560198415902 12.5200761329 0.584304990528 -2.59553418145 0.560853383147 12.4788699863 0.560198415905 12.5200761327 0.609606125638 25.1640212608 0.000349629377008 43.8766739615 0.584284692381 177.378364756 0.584304990528 -2.59553418143 0.000349629377808 43.8766739534 0.563204182129 19.3311141218
11.2 0.569364423345 165.33629819 0.122267333126 -114.463162519 0.564586444847 7.67783888037 0.584907936504 174.850998907 0.122267333127 -114.46316252 0.570001693746 165.362272307 0.563926599622 7.71904316731 0.584923799367 -5.12261276255 0.564586444843 7.67783888061 0.563926599619 7.71904316752 0.602686100191 18.5161967964 0.000357268786637 39.3697517326 0.584907936504 174.850998907 0.584923799368 -5.12261276257 0.00035726878581 39.369751777 0.561913455131 16.7599227876
11.225 0.566073648418 162.595226559 0.119083537238 -116.212401558 0.567925923545 2.90575595942 0.585526215317 172.322757614 0.11908353724 -116.212401559 0.566727823168 162.621108331 0.567261092621 2.94700753992 0.585537869062 -7.65056353761 0.567925923532 2.90575596023 0.56726109261 2.94700754067 0.59638984836 11.8643264007 0.000364782276962 34.8298872811 0.585526215316 172.322757614 0.585537869064 -7.65056353768 0.000364782274161 34.8298874203 0.560628518696 14.1804936175
11.25 0.563025232874 159.893887119 0.11630568541 -118.000254101 0.570892719343 -1.83943905418 0.586139212077 169.793569673 0.116305685413 -118.000254103 0.563695744303 159.919707778 0.570222795176 -1.79809384642 0.586146856747 -10.1794586927 0.57089271932 -1.83943905265 0.570222795156 -1.79809384499 0.590710292934 5.20899588701 0.000372166369783 30.2607725554 0.586139212075 169.793569673 0.58614685675 -10.1794586928 0.000372166364731 30.2607728348 0.559350136149 11.5926854948
11.275 0.560224329105 157.229395415 0.113894118674 -119.843685095 0.57350557252 -6.55964516979 0.586746602012 167.26336327 0.113894118678 -119.843685098 0.560910612285 157.255188247 0.572830447601 -6.51816248847 0.586750412634 -12.7093707006 0.573505572485 -6.5596451674 0.572830447572 -6.51816248625 0.58563994215 -1.44890092991 0.000379418177887 25.665676267 0.586746602008 167.26336327 0.586750412638 -12.7093707009 0.000379418170417 25.6656767304 0.558079095712 8.99635870809
11.3 0.55767503602 154.598954822 0.111810617202 -121.757991478 0.575781299111 -11.2566154073 0.587348052286 164.732065961 0.111810617207 -121.757991482 0.558376528288 154.624755426 0.575100865695 -11.2149536085 0.58734818015 -15.2403723724 0.575781299064 -11.2566154039 0.575100865656 -11.2149536054 0.581170797291 -8.10819160065 0.000386535293096 21.0475033465 0.587348052281 164.732065961 0.587348180156 -15.2403723728 0.000386535283191 21.0475040307 0.556816210507 6.3913751623
11.325 0.555380479304 151.999849216 0.110018743564 -123.756572911 0.577734999538 -15.9319707383 0.58794322198 162.199604643 0.110018743569 -123.756572916 0.556096620102 152.025695745 0.577049149256 -15.8900901339 0.587939796091 -17.7725369095 0.57773499948 -15.931970734 0.577049149208 -15.8900901299 0.577294249485 -14.7674561133 0.00039351569449 16.4088449142 0.587943221973 162.199604643 0.5879397961 -17.7725369099 0.000393515682324 16.4088458417 0.55556231848 3.77759860134
11.35 0.553342872868 149.42943785 0.108484148256 -125.850815017 0.579380243131 -20.5872127786 0.588531762082 159.665905526 0.108484148262 -125.850815023 0.554073103883 149.45537122 0.578688866503 -20.5450754207 0.588524890786 -20.3059379575 0.579380243063 -20.5872127733 0.578688866446 -20.5450754158 0.574000971309 -21.4250593705 0.00040035767059 11.7520202966 0.588531762074 159.665905526 0.588524890796 -20.305937958 0.000400357656568 11.7520214676 0.554318282257 1.15489484332
11.375 0.551563565384 146.88515229 0.107174820568 -128.050078156 0.580729231159 -25.2237353177 0.589113315494 157.130894102 0.107174820574 -128.050078164 0.552307330975 146.911216347 0.580032217024 -25.1813048091 0.589103088276 -22.8406496618 0.580729231083 -25.2237353117 0.580032216961 -25.1813048035 0.571280807667 -28.0791846458 0.000407059750646 7.07911243277 0.589113315484 157.130894103 0.589103088288 -22.8406496625 0.00040705973544 7.07911381503 0.553084988901 -1.47686797168
11.4 0.550043075194 144.364495276 0.106061274933 -130.361775846 0.581792940791 -29.8428347719 0.589687517039 154.594495114 0.106061274938 -130.361775854 0.550799823096 144.390736911 0.581090175668 -29.8000760971 0.589674006512 -25.3767467254 0.581792940712 -29.8428347653 0.581090175603 -29.8000760911 0.569122669448 -34.7278674852 0.000413620641221 2.39199783141 0.589687517029 154.594495114 0.589674006524 -25.3767467261 0.000413620625802 2.39199934965 0.551863349593 -4.11781912096
11.425 0.548781116349 141.865041334 0.105116669699 -132.791521766 0.582581252179 -34.4457196378 0.590253993493 152.056632517 0.105116669703 -132.791521774 0.549550298639 141.891510546 0.581872619567 -34.4025990115 0.590237257564 -27.9143044689 0.582581252104 -34.4457196314 0.581872619505 -34.4025990055 0.567514432598 -41.3690294312 0.000420039165224 -2.30762791823 0.590253993483 152.056632517 0.590237257576 -27.9143044696 0.000420039150884 -2.30762639465 0.5506542992 -6.76808502577
11.45 0.54777661811 139.38443899 0.104316861031 -135.343322702 0.58310306066 -39.0335190222 0.590812363617 149.517229447 0.104316861035 -135.343322709 0.548557692423 139.411188885 0.582388440293 -38.9900037499 0.590792447859 -30.4533988935 0.583103060597 -39.0335190166 0.582388440241 -38.9900037447 0.566442844564 -48.0005108876 0.00042631420129 -7.01822822379 0.590812363609 149.517229448 0.590792447869 -30.4533988941 0.000426314189658 -7.01822689401 0.549458795745 -9.42778896481
11.475 0.54702773984 136.920414397 0.103640398787 -138.019796024 0.58336637588 -43.6072903119 0.591362238204 146.976208184 0.103640398788 -138.019796028 0.547820170831 136.947501108 0.582645642954 -43.5633486628 0.591339178418 -32.9941067472 0.583366375841 -43.6072903083 0.582645642922 -43.5633486596 0.565893439389 -54.620102422 0.000432444622126 -11.738406421 0.591362238198 146.976208185 0.591339178425 -32.9941067476 0.000432444615166 -11.7384055667 0.548277819754 -12.0970507746
11.5 0.546531882929 134.470776189 0.103068473715 -140.822393439 0.583378409491 -48.1680260484 0.591903220137 144.433490112 0.103068473715 -140.822393439 0.547335143948 134.498258734 0.58265143386 -48.1236271352 0.591877045126 -35.5365055936 0.583378409491 -48.1680260484 0.58265143386 -48.1236271352 0.565850462349 -61.2255738148 0.00043842923097 -16.4668889338 0.591903220137 144.433490112 0.591877045126 -35.5365055936 0.00043842923097 -16.4668889339 0.547112373489 -14.7759865373
