! Touchstone file exported from HFSS 2025.2.4
!        File:           C:/Users/chaoy/Documents/single_magictee_v1_test5/single_magictee_v1.aedt
!        Generated:      08:48:03 AM Sep 19, 2026
!        Design:         SingleMagicT_v1
!        Project:        single_magictee_v1
!
! Variables:
!        f_adapt = 10.2GHz
!        ridge_g1 = 7.672mm
!        ridge_g2 = 4.984mm
!        ridge_l1 = 9.872mm
!        ridge_l2 = 8.857mm
!        ridge_w = 4.572mm
!        wg_a = 22.86mm
!        wg_b = 10.16mm
!
!Data is not renormalized
# GHz S MA
! Terminal data exported
! Port[1] = P1_CollinearMinusX
! Port[2] = P2_CollinearPlusX
! Port[3] = P3_HArm_Ridged
! Port[4] = P4_EArm
9                              0.234153884305966 -10.576219498213 0.778500539440533 -169.124954900766 0.550996946387256 110.269279439817 0.188444245407347 72.3847083940426 
                               0.778500539440536 -169.124954900766 0.23429846891057 -10.8793320011933 0.550570114724925 110.140344198415 0.189509066613561 71.9745047479606 
                               0.550996946387258 110.269279439816 0.550570114724925 110.140344198416 0.466068395422303 -147.786308573013 0.41958928088332 122.889640880582 
                               0.188444245407346 72.3847083940433 0.189509066613563 71.9745047479607 0.419589280883319 122.889640880582 0.867479057621526 -119.925752286098 
9.025                          0.233076922944389 -13.6760609440093 0.779621444780677 -172.133075951   0.550017631377172 107.162930712373 0.188006588839725 69.0314897592543 
                               0.779621444780675 -172.133075951   0.233264401016978 -13.9751488610523 0.549574187508759 107.033604767641 0.189067546630974 68.6222459611144 
                               0.550017631377165 107.162930712374 0.549574187508756 107.033604767641 0.467329308581264 -151.042213956909 0.420775159526992 119.831537696428 
                               0.188006588839709 69.0314897592464 0.189067546630956 68.6222459611057 0.420775159526982 119.83153769643  0.867097489997583 -123.14777446578 
9.05                           0.231994374953369 -16.7665045181381 0.780746971649667 -175.131668512854 0.54902903412092 104.061077966307 0.187564426371407 65.6837408037503 
                               0.780746971649662 -175.131668512854 0.232225042491825 -17.0614437756771 0.548568983795201 103.931394238711 0.188621579198767 65.2755174846562 
                               0.549029034120908 104.061077966309 0.548568983795196 103.931394238712 0.468589056323604 -154.299630903487 0.421974949162414 116.778755688242 
                               0.187564426371382 65.6837408037371 0.188621579198737 65.2755174846421 0.421974949162399 116.778755688245 0.86670821101884 -126.358925860937 
9.075                          0.230905786814909 -19.8477638841156 0.781877668851643 -178.120923763711 0.548030485224761 100.963633718927 0.187117700402709 62.3414139849918 
                               0.781877668851636 -178.120923763711 0.231179878999932 -20.1384212631251 0.547553848208362 100.833625517344 0.188171106327742 61.9342715901221 
                               0.548030485224746 100.963633718929 0.547553848208356 100.833625517345 0.469849268059321 -157.558482285163 0.423188262346427 113.731161600427 
                               0.187117700402678 62.3414139849755 0.188171106327705 61.934271590105  0.423188262346409 113.731161600431 0.866311505163619 -129.559401237319 
9.1                            0.229810679668107 -22.9200432406686 0.783014076870854 178.898965520486 0.547021317996659 97.8705117642306 0.186666358994202 59.004458262329  
                               0.783014076870846 178.898965520486 0.230128376996945 -23.2062776312786 0.546528127948178 97.7402127744654 0.187716075952711 58.5984570651702 
                               0.547021317996643 97.870511764233  0.546528127948171 97.7402127744662 0.471111535491596 -160.818685083025 0.424414727098938 110.688624961425 
                               0.186666358994171 59.0044582623117 0.187716075952672 58.5984570651521 0.42441472709892 110.688624961429 0.865907623941738 -132.749396717786 
9.125                          0.228708556149791 -25.9835370733772 0.784156724402879 175.927805542759 0.546000870441398 94.7816275766338 0.18621035614538 55.672819891702  
                               0.784156724402871 175.927805542759 0.229069989657839 -26.2652006780563 0.545491174818506 94.6510718471514 0.187256442191819 55.2680200040042 
                               0.546000870441382 94.7816275766363 0.5454911748185  94.6510718471521 0.47237740763658 -164.0801501153  0.425653985874064 107.651018333541 
                               0.18621035614535 55.6728198916851 0.187256442191781 55.2680200039867 0.425653985874047 107.651018333545 0.865496788742258 -135.929109054746 
9.15                           0.227598906727129 -29.038429991664 0.785306125160501 172.965402013856 0.544968487192206 91.6968986701334 0.185749652063969 52.346443151434  
                               0.785306125160493 172.965402013856 0.228004162378149 -29.3153694714015 0.54444234718785 91.5661205950266 0.186792165596751 51.9429045289056 
                               0.544968487192191 91.6968986701357 0.544442347187845 91.5661205950272 0.473648386107357 -167.342781824312 0.426905694647201 104.618217525649 
                               0.185749652063941 52.3464431514186 0.186792165596715 51.9429045288896 0.426905694647185 104.618217525652 0.865079193523187 -139.098734985519 
9.175                          0.226481215533725 -32.0848966421534 0.786462774949535 170.011560634624 0.543923521374794 88.6162449144839 0.185284213424971 49.0252710000618 
                               0.786462774949528 170.011560634624 0.226930337857541 -32.3569542015708 0.543381011878542 88.4852792137148 0.186323213393003 48.6230534438515 
                               0.543923521374781 88.6162449144859 0.543381011878538 88.4852792137153 0.47492592066476 -170.606478122667 0.428169522118161 101.590101770927 
                               0.185284213424948 49.0252710000484 0.186323213392972 48.6230534438378 0.428169522118148 101.59010177093  0.864655007330644 -142.258470665771 
9.2                            0.225354965722938 -35.1231016899201 0.787627149008775 167.066087534402 0.542865336400061 85.5395888100659 0.184814013618503 45.7092456675515 
                               0.787627149008769 167.066087534401 0.225847960777085 -35.3901160986115 0.54230654598064 85.4084705070278 0.185849559709383 45.3084088215987 
                               0.542865336400051 85.5395888100676 0.542306545980636 85.4084705070282 0.47621140503725 -173.871130298914 0.429445149029587 98.5665538717788 
                               0.184814013618485 45.7092456675406 0.185849559709358 45.3084088215876 0.429445149029577 98.5665538717815 0.864224376638134 -145.408511176043 
9.225                          0.224219644353988 -38.1531998596442 0.788799699607265 164.128789667856 0.54179330768208 82.4668557232128 0.184339032985494 42.398309181603  
                               0.788799699607259 164.128789667855 0.224756482082965 -38.4150074082882 0.541218338587134 82.3356201196735 0.185371185795886 41.9989125259621 
                               0.541793307682071 82.4668557232142 0.541218338587132 82.3356201196737 0.477506173011607 -177.13662298257 0.430732267599043 95.5474603140082 
                               0.184339032985481 42.3983091815947 0.185371185795867 41.9989125259538 0.430732267599035 95.5474603140102 0.863787427499487 -148.549050096402 
9.25                           0.223074746827915 -41.1753360291763 0.78998085389134 161.199475172719 0.540706824278272 79.3979740838377 0.183859259040349 39.0924038310618 
                               0.789980853891336 161.199475172719 0.223655362890476 -41.4317714200792 0.540115792447447 79.2666567323342 0.184888080229111 38.6945066713317 
                               0.540706824278265 79.3979740838387 0.540115792447445 79.2666567323343 0.478811494795913 179.597165832082 0.43203058106244 92.5327113523007 
                               0.183859259040341 39.0924038310561 0.184888080229098 38.6945066713261 0.432030581062435 92.5327113523021 0.86334426751167 -151.680279144262 
9.275                          0.221919780891653 -44.1896453685041 0.791171011973267 158.277953690839 0.53960529044905 76.3328755472548 0.183374686679696 35.7914725687195 
                               0.791171011973264 158.277953690839 0.222544078023101 -44.4405425412372 0.538998325536536 76.2015122210235 0.184400239104383 35.3951340217295 
                               0.539605290449045 76.3328755472555 0.538998325536536 76.2015122210235 0.480128573655958 176.330364704385 0.433339803325769 89.5222010689781 
                               0.183374686679692 35.7914725687162 0.184400239104375 35.3951340217265 0.433339803325767 89.5222010689789 0.862894987586   -154.802387870472 
9.3                            0.22075427022947 -47.1962535175859 0.792370545252824 155.364036654943 0.538488127134494 73.2714951221375 0.182885318376352 32.4954593560192 
                               0.792370545252822 155.364036654943 0.221422119202174 -47.4414464112719 0.537865372537288 73.1401217826678 0.183907666213776 32.100738331941  
                               0.53848812713449 73.2714951221378 0.537865372537288 73.1401217826677 0.481458542825924 173.063108609283 0.434659658721489 86.5158274079451 
                               0.182885318376352 32.495459356018  0.183907666213772 32.1007383319403 0.434659658721489 86.5158274079453 0.862439663528444 -157.915563408874 
9.325                          0.219577757661759 -50.1952767969946 0.793579794962819 152.457537543458 0.53735477334595 70.2137712665765 0.182391164357731 29.2043094523662 
                               0.793579794962818 152.457537543458 0.220288997903206 -50.4346000515782 0.536716386234198 70.0824240288889 0.183410373209267 28.8112646334353 
                               0.537354773345949 70.2137712665765 0.536716386234199 70.0824240288887 0.482802462693913 169.795538744639 0.435989881865372 83.5134921856768 
                               0.182391164357734 29.2043094523668 0.183410373209268 28.8112646334367 0.435989881865374 83.5134921856767 0.86197835743154 -161.019990274653 
9.35                           0.218389807971767 -53.1868224457833 0.794799070929302 149.558272105688 0.536204687470797 67.1596459542245 0.181892242767914 25.9179696519028 
                               0.794799070929301 149.558272105689 0.219144247895408 -53.4201120453012 0.53555083881672 67.0283610499795 0.182908379750275 25.5266594679469 
                               0.536204687470796 67.1596459542242 0.535550838816721 67.0283610499793 0.484161318262582 166.527802286038 0.437330217609102 80.5151010810273 
                               0.18189224276792 25.9179696519049 0.182908379750278 25.5266594679499 0.437330217609106 80.5151010810267 0.861511118882125 -164.115850206941 
9.375                          0.217190010381247 -56.1709888814494 0.796028650537037 146.66605855957  0.535037348488882 64.1090647125124 0.181388579812702 22.6363884707239 
                               0.796028650537037 146.66605855957  0.217987427481238 -56.3980827428941 0.534368223090953 63.977878451064  0.182401713634903 22.2468710717029 
                               0.535037348488881 64.109064712512  0.534368223090954 63.9778784510638 0.485536016884774 163.260052091554 0.438680421083499 77.5205636055692 
                               0.18138857981271 22.6363884707271 0.182401713634908 22.246871071707  0.438680421083504 77.5205636055684 0.861037985990505 -167.203322051312 
9.4                            0.215977980696296 -59.1478659773388 0.79726877789078 143.780717764145 0.533852257099523 61.061976634921  0.180880209887009 19.3595162876018 
                               0.79726877789078 143.780717764145 0.216818121453017 -59.3686044891888 0.533168053598724 60.9309253624332 0.181890410914261 18.9718495133737 
                               0.533852257099523 61.0619766349204 0.533168053598725 60.930925362433  0.486927386273675 159.992446359288 0.440040257826859 74.5297930561049 
                               0.180880209887018 19.3595162876057 0.181890410914268 18.9718495133786 0.440040257826864 74.5297930561039 0.86055898624792 -170.282581677987 
9.425                          0.214753363144771 -62.1175353532892 0.798519663162836 140.902073368826 0.532648936758237 58.0183343692695 0.180367175684041 16.0873054413488 
                               0.798519663162837 140.902073368826 0.215635942783761 -62.3317618681676 0.531949867643427 57.8874544260221 0.181374515989294 15.7015467888791 
                               0.532648936758237 58.0183343692688 0.531949867643428 57.8874544260218 0.488336172786547 156.725148240768 0.441409503992568 71.5427064509148 
                               0.18036717568405 16.087305441353  0.181374515989301 15.7015467888844 0.441409503992574 71.5427064509137 0.860074137220213 -173.35380193174 
9.45                           0.213515831926639 -65.0800706757699 0.799781482117468 138.02995194143  0.531426934622698 54.9780940839642 0.179849528285783 12.8197102879791 
                               0.799781482117468 138.02995194143  0.214440534069376 -65.287631961986 0.530713226222321 54.8474217599739 0.180854081689621 12.4359168762143 
                               0.531426934622698 54.9780940839634 0.530713226222322 54.8474217599737 0.489763039980617 153.458325413583 0.442787946629902 68.5592244512392 
                               0.179849528285793 12.8197102879833 0.180854081689629 12.4359168762197 0.442787946629908 68.5592244512382 0.859583447086496 -176.417152609738 
9.475                          0.212265092498532 -68.0355379642287 0.801054375802789 135.164183076844 0.530185822407761 51.9412154141084 0.179327327234377 9.55668722084229 
                               0.80105437580279 135.164183076845 0.21323156873928 -68.2362846211636 0.529457714865333 51.8107869031996 0.180329169333979 9.17491575346997 
                               0.530185822407762 51.9412154141076 0.529457714865333 51.8107869031995 0.491208567439091 150.19214961683  0.444175384031684 65.5792712694167 
                               0.179327327234386 9.55668722084624 0.180329169333986 9.17491575347513 0.44417538403169 65.5792712694158 0.85908691503228 -179.472800463724 
9.5                            0.21100088261345 -70.9839959008013 0.802338450400935 132.304599488135 0.528925197149678 48.9076613893407 0.17880064058409 6.29819465688535 
                               0.802338450400937 132.304599488136 0.212008752052313 -71.1777827432213 0.528182944380709 48.7775127417975 0.179799848771907 5.91850138320048 
                               0.528925197149678 48.90766138934   0.52818294438071 48.7775127417975 0.492673249864672 146.926796153164 0.445571626142326 62.6027745650314 
                               0.178800640584098 6.2981946568888  0.179799848771914 5.91850138320518 0.445571626142331 62.6027745650305 0.858584531507128 177.479090776819 
9.525                          0.209722973136234 -73.9254961409862 0.803633777227444 129.451037081752 0.527644681879947 45.8773983452127 0.178269544933634 3.04419299216656 
                               0.803633777227446 129.451037081752 0.210771821894556 -74.1121825574003 0.526888551508202 45.7475654191492 0.179266198406446 2.66663366626356 
                               0.527644681879946 45.877398345212  0.526888551508202 45.7475654191492 0.494157496437254 143.662443361398 0.446976495019666 59.6296653303512 
                               0.178269544933641 3.04419299216934 0.179266198406451 2.66663366626761 0.446976495019671 59.6296653303505 0.858076278357276 174.438360363659 
9.55                           0.208431168654852 -76.8600836233196 0.804940392871006 126.60333501843  0.526343926209557 42.8503958198655 0.177734125438702 -0.205355470310404 
                               0.804940392871008 126.60333501843  0.209520549395264 -77.0395339134614 0.525574199480757 42.7209142314504 0.178728305197654 -0.580725631806233 
                               0.526343926209557 42.8503958198649 0.525574199480756 42.7209142314505 0.495661630431729 140.399272063714 0.448389825343937 56.6598777662696 
                               0.177734125438708 -0.205355470308467 0.178728305197658 -0.580725631802999 0.44838982534394 56.6598777662691 0.857562128843953 171.404850473894 
9.575                          0.207125307906977 -79.7877968765125 0.806258299464912 123.76133576126  0.525022606824658 39.8266264377021 0.17719447580467 -3.45048661744531 
                               0.806258299464912 123.76133576126  0.208254739376705 -79.9598805729048 0.524239578495978 39.6975315103737 0.178186264646882 -3.82361297889722 
                               0.525022606824657 39.8266264377016 0.524239578495977 39.6975315103738 0.497185889091064 137.137464991627 0.449811464967197 53.6933491498954 
                               0.177194475804674 -3.45048661744423 0.178186264646884 -3.82361297889487 0.449811464967199 53.6933491498951 0.857042047558289 168.37840614182  
9.6                            0.205805264040526 -82.7086683229271 0.807587465081801 120.924885112305 0.523680427894965 36.8060657816839 0.176650698259499 -6.69123464466164 
                               0.807587465081802 120.924885112305 0.206974230653125 -82.8732605013032 0.522884406098924 36.6773924944912 0.177640180761792 -7.0620631959889 
                               0.523680427894964 36.8060657816835 0.522884406098923 36.6773924944914 0.498730423749001 133.877206194891 0.451241275496575 50.7300196948682 
                               0.176650698259502 -6.6912346446615 0.177640180761793 -7.06206319598749 0.451241275496577 50.7300196948681 0.856515990243746 165.358875181085 
9.625                          0.204470944726042 -85.6227245776712 0.808927824243511 118.093832239031 0.522317121396485 33.7886922558093 0.17610290350698 -9.92763219349157 
                               0.808927824243512 118.093832239031 0.205678896193436 -85.7797061607698 0.521508427478035 33.6604751910138 0.177090166002226 -10.2961095955885 
                               0.522317121396484 33.7886922558091 0.521508427478034 33.660475191014  0.500295300195864 130.618680437545 0.452679132904761 47.7698324054118 
                               0.176102903506981 -9.92763219349232 0.177090166002224 -10.296109595588 0.452679132904762 47.7698324054119 0.855983903536924 162.346108099394 
9.65                           0.203122292137777 -88.5299867429781 0.810279278538099 115.268029691723 0.520932447350376 30.7744869392557 0.175551210660512 -13.1597105054303 
                               0.8102792785381  115.268029691724 0.204368643161519 -88.679244801912 0.520111415676242 30.646760229325  0.176536341207092 -13.525784136249 
                               0.520932447350374 30.7744869392555 0.520111415676241 30.6467602293253 0.501880499280145 127.362072585228 0.45412492816127 44.8127329250739 
                               0.175551210660512 -13.1597105054319 0.17653634120709 -13.5257841362493 0.45412492816127 44.8127329250742 0.855445724637473 159.339958007847 
9.675                          0.201759282819346 -91.4304706979   0.811641697336355 112.447333412971 0.519526193979987 27.7634334335872 0.17499574715774 -16.3874995894879 
                               0.811641697336357 112.447333412972 0.203043412847252 -91.5718987549304 0.518693171719526 27.6362307077121 0.175978835502542 -16.7511175906043 
                               0.519526193979985 27.7634334335872 0.518693171719524 27.6362307077124 0.50348591773767 124.107566987867 0.455578567878186 41.8586693810403 
                               0.174995747157739 -16.3874995894901 0.175978835502538 -16.7511175906054 0.455578567878185 41.8586693810407 0.85490138091756 156.340280526767 
9.7                            0.20038192744864 -94.3241873837039 0.813014918600363 109.631602740175 0.518098177788326 24.7555177043456 0.174436648656401 -19.6110284010077 
                               0.813014918600364 109.631602740175 0.201703180500511 -94.4576857198255 0.517253524665391 24.6288720346044 0.175417786191758 -19.9721397245003 
                               0.518098177788324 24.7555177043457 0.51725352466539 24.6288720346048 0.505111369239322 120.855346861696 0.457039974964265 38.9075922248453 
                               0.1744366486564  -19.6110284010106 0.175417786191754 -19.972139724502 0.457039974964264 38.9075922248458 0.854350789481031 153.346933689686 
9.725                          0.198990270515523 -97.2111430856692 0.814398749776939 106.820700401969 0.516648243558363 21.7507279182599 0.173874058911848 -22.8303250294549 
                               0.814398749776939 106.820700401969 0.200347955079502 -97.3366190559502 0.51579233157388 21.6246717655563 0.174853338626788 -23.1888794849333 
                               0.516648243558362 21.7507279182601 0.515792331573878 21.6246717655566 0.50675658564751 117.605593674427 0.458509089281516 35.9594540702485 
                               0.173874058911846 -22.8303250294582 0.174853338626782 -23.1888794849355 0.458509089281515 35.9594540702492 0.853793856682019 150.359777846961 
9.75                           0.197584389924556 -100.091339712296 0.815792968769024 104.014492509336 0.515176264278755 18.7490542772214 0.173308129636756 -26.0454168930321 
                               0.815792968769025 104.014492509336 0.198977778923803 -100.208708071415 0.514309477403897 18.6236194371127 0.174285646062891 -26.4013651946631 
                               0.515176264278754 18.7490542772216 0.514309477403896 18.6236194371131 0.508421218470785 114.358486537226 0.459985868298621 33.0142095289861 
                               0.173308129636754 -26.0454168930357 0.174285646062885 -26.4013651946656 0.45998586829862 33.0142095289868 0.853230477612279 147.378675570331 
9.775                          0.196164396533701 -102.964775073205 0.817197324978336 101.212848542107 0.513682140997671 15.7504888500831 0.172739020343616 -29.2563309381338 
                               0.817197324978337 101.212848542107 0.197592727361531 -103.073958313094 0.512804874837738 15.6257063986164 0.173714869495971 -29.6096247515205 
                               0.51368214099767 15.7504888500833 0.512804874837738 15.6257063986167 0.51010484050534 111.114201606944 0.461470287735874 30.0718150450489 
                               0.172739020343613 -29.2563309381375 0.173714869495965 -29.6096247515232 0.461470287735872 30.0718150450497 0.852660535565996 144.403491559505 
9.8                            0.194730433638636 -105.831443157246 0.818611540412859 98.4156413314609 0.512165802607521 12.7550254032548 0.172166898170631 -32.4630938418072 
                               0.818611540412859 98.4156413314609 0.196192908258987 -105.932371858201 0.511278464036781 12.63092564292   0.173141177483681 -32.8136858305865 
                               0.51216580260752 12.755025403255  0.511278464036781 12.6309256429203 0.511806947651449 107.872911501814 0.462962342196616 27.1322287280883 
                               0.172166898170628 -32.4630938418106 0.173141177483676 -32.8136858305891 0.462962342196615 27.132228728089  0.85208390149029 141.434092551755 
9.825                          0.193282676410986 -108.691334412556 0.820035310852958 95.6227470389345 0.510627205563437 9.76265923097607 0.171591937691732 -35.6657322155474 
                               0.820035310852958 95.6227470389345 0.194778461520157 -108.783947608607 0.509730212331377 9.63927163688494 0.172564745950888 -36.0135760875802 
                               0.510627205563437 9.76265923097633 0.509730212331377 9.63927163688518 0.513526960892387 104.634784733568 0.464462045780497 24.1954101864962 
                               0.171591937691731 -35.6657322155506 0.172564745950883 -36.0135760875825 0.464462045780497 24.1954101864968 0.851500433428991 138.470347235298 
9.85                           0.191821331297447 -111.544436030481 0.821468307070165 92.8340451323976 0.509066333538406 6.7733869860608  0.171014320711444 -38.8642728089207 
                               0.821468307070164 92.8340451323976 0.193349558542348 -111.628681589245 0.508160113847985 6.65074015245284 0.171985757980195 -39.2093233619557 
                               0.509066333538406 6.77338698606104 0.508160113847985 6.65074015245302 0.515264228422838 101.399985158685 0.465969432674253 21.2613203606557 
                               0.171014320711443 -38.8642728089234 0.171985757980192 -39.2093233619576 0.465969432674253 21.2613203606562 0.850909975966613 135.512126167107 
9.875                          0.190346635385493 -114.390732235435 0.822910176092883 90.0494183593531 0.507483197017957 3.7872065118208  0.170434236045372 -42.0587427116659 
                               0.822910176092883 90.0494183593531 0.191906401633291 -114.466567252096 0.506568189076611 3.66532809899564 0.171404403588293 -42.400955878369 
                               0.507483197017959 3.787206511821   0.506568189076611 3.66532809899571 0.517018027913464 98.1686714511499 0.467484557716079 18.3299213568095 
                               0.170434236045372 -42.0587427116679 0.171404403588291 -42.4009558783703 0.467484557716079 18.3299213568098 0.850312359678818 132.559301695656 
9.9                            0.188858855740114 -117.230204582868 0.824360542513489 87.26875271786   0.505877832837316 0.804116675792786 0.16985187928714 -45.2491695530881 
                               0.824360542513489 87.2687527178599 0.190449223393994 -117.297595787379 0.504954484381568 0.683033357562337 0.170820879488918 -45.5885024453336 
                               0.505877832837318 0.804116675792926 0.504954484381569 0.683033357562316 0.518787568897975 94.9409965988561 0.469007496930088 15.4011762819464 
                               0.169851879287142 -45.2491695530892 0.170820879488917 -45.5885024453342 0.469007496930089 15.4011762819466 0.849707400594914 129.611747888975 
9.925                          0.187358288714855 -120.062832267617 0.825819009831511 84.4919374253036 0.504250303663851 -2.17588279419468 0.169267452562608 -48.4355816977168 
                               0.825819009831511 84.4919374253036 0.188978286070726 -120.121756443672 0.503319071458537 -2.29614538244306 0.170235388843251 -48.7719926500461 
                               0.504250303663853 -2.17588279419462 0.503319071458539 -2.29614538244318 0.520571995268874 91.7171074254246 0.470538348027725 12.4750490800603 
                               0.169267452562611 -48.4355816977169 0.170235388843252 -48.7719926500458 0.470538348027727 12.4750490800602 0.849094899677237 126.669340468258 
9.95                           0.185845259239305 -122.888592444953 0.827285161827774 81.7188648851769 0.502600697427628 -5.15279147115232 0.168681164272229 -51.6180084363553 
                               0.827285161827775 81.7188648851769 0.1874938808786  -122.939036858745 0.501662046740815 -5.27220878369536 0.169648140998605 -51.9514570485127 
                               0.502600697427631 -5.15279147115237 0.501662046740817 -5.27220878369558 0.522370387867933 88.4971441389527 0.472077230873468 9.55150437009111 
                               0.168681164272234 -51.6180084363545 0.169648140998607 -51.9514570485115 0.472077230873471 9.55150437009081 0.848474642321548 123.731956747167 
9.975                          0.184320120084198 -125.707460566663 0.828758563964595 78.9494306519741 0.500929126702763 -8.12660838687774 0.168093228822434 -54.7964801717981 
                               0.828758563964595 78.9494306519741 0.185996327298403 -125.749423402973 0.49998353075755 -8.24515701811439 0.169059351216261 -55.1269273502605 
                               0.500929126702768 -8.12660838687788 0.499983530757553 -8.24515701811472 0.524181767157485 85.281239908858  0.473624287912544 6.63050728581827 
                               0.16809322882244 -54.7964801717961 0.169059351216266 -55.1269273502582 0.473624287912549 6.63050728581772 0.847846397881822 120.799475576872 
10                             0.182783251104376 -128.519410734483 0.830238764807269 76.1835333942438 0.499235728042182 -11.09733218641  0.167503866346927 -57.9710285986389 
                               0.830238764807269 76.1835333942438 0.184485972347574 -128.552901537175 0.498283667446643 -11.2149899204576 0.16846924038935 -58.2984365970609 
                               0.499235728042186 -11.0973321864102 0.498283667446647 -11.214989920458 0.526005095958684 82.0695204716951 0.475179684558824 3.71202331793232 
                               0.167503866346934 -57.9710285986357 0.168469240389356 -58.2984365970575 0.47517968455883 3.71202331793154 0.847209919222072 117.871777296761 
10.025                         0.181235058459077 -131.324416073167 0.831725297462316 73.4210748557962 0.497520661268249 -14.0649612787519 0.166913302418789 -61.1416868767341 
                               0.831725297462316 73.4210748557962 0.182963189825579 -131.349456186782 0.496562623424857 -14.1817071381015 0.167878034751656 -61.466019335233 
                               0.497520661268254 -14.0649612787523 0.496562623424861 -14.1817071381021 0.527839282243125 78.8621037665121 0.476743609541498 0.796018158474921 
                               0.166913302418797 -61.1416868767297 0.167878034751664 -61.4660193352285 0.476743609541505 0.796018158473882 0.846564942297136 114.948743690689 
10.05                          0.179675973808379 -134.122449125411 0.833217681028078 70.6619598150144 0.495784108721636 -17.029493983683 0.166321767754297 -64.3084897980127 
                               0.833217681028077 70.6619598150144 0.181428379533377 -134.139072134168 0.494820587217532 -17.1453082768372 0.167285965578261 -64.6297117812214 
                               0.495784108721641 -17.0294939836835 0.494820587217537 -17.1453082768379 0.529683181964434 75.6590996000258 0.478316275209539 -2.11754245219917 
                               0.166321767754307 -64.3084897980071 0.167285965578272 -64.6297117812158 0.478316275209546 -2.11754245220048 0.84591118576362 112.030257948559 
10.075                         0.178106453484065 -136.913482270751 0.834715422053433 67.9060960421738 0.494026274470602 -19.9909286745509 0.16572949790935 -67.471473946456 
                               0.834715422053432 67.9060960421737 0.179881966466186 -136.921734430966 0.493057768450146 -20.105793042568 0.166693268878919 -67.7895519802756 
                               0.494026274470608 -19.9909286745515 0.493057768450151 -20.1057930425689 0.531535601916855 72.4606093416081 0.479897917793382 -5.02869287582234 
                               0.165729497909361 -67.4714739464493 0.166693268878931 -67.7895519802689 0.479897917793391 -5.02869287582388 0.845248350621482 109.116204632938 
10.1                           0.176526977632872 -139.697488170446 0.836218016000567 65.153394254638  0.492247383482748 -22.9492639169789 0.165136732969407 -70.6306778511814 
                               0.836218016000567 65.153394254638  0.178324399978454 -139.697428832154 0.491274397003794 -23.0631613788495 0.166100185085065 -70.9455799581647 
                               0.492247383482754 -22.9492639169796 0.491274397003799 -23.0631613788505 0.533395302608234 69.2667256478146 0.481488797623661 -7.93746772389013 
                               0.165136732969419 -70.6306778511736 0.166100185085078 -70.945579958157 0.48148879762367 -7.93746772389188 0.844576119886044 106.2064696504   
10.125                         0.174938049329765 -142.474440240235 0.837724948707851 62.4037680697658 0.490447680761123 -25.9044986034818 0.164543717233823 -73.7861421326752 
                               0.83772494870785 62.4037680697657 0.176756152919672 -142.466142253576 0.489470722136499 -26.017413600261 0.165506958731363 -74.0978378659755 
                               0.490447680761129 -25.9044986034826 0.489470722136505 -26.017413600262 0.535261001135336 66.0775322159292 0.483089199307197 -10.8439020025599 
                               0.164543717233837 -73.7861421326664 0.165506958731377 -74.0978378659669 0.483089199307207 -10.8439020025619 0.84389415828959 103.300940227204 
10.15                          0.173340193658859 -145.244313152701 0.839235697849031 59.6571339553305 0.488627430446409 -28.8566320840245 0.163950698895481 -76.9379096423195 
                               0.83923569784903 59.6571339553305 0.175177720739548 -145.227863254544 0.487647011572084 -28.9685505216453 0.164913838132685 -77.2463701181373 
                               0.488627430446415 -28.8566320840255 0.48764701157209 -28.9685505216465 0.537131374049923 62.8931035657687 0.484699431860863 -13.748031254748 
                               0.163950698895495 -76.9379096423098 0.1649138381327  -77.246370118128 0.484699431860873 -13.7480312547501 0.843202112011007 100.399504888894 
10.175                         0.171733956759623 -148.007083370839 0.840749734385089 56.913411177235  0.486786914886771 -31.805664292598 0.163357929716574 -80.0860255954426 
                               0.840749734385089 56.913411177235  0.173589620561079 -147.982582547028 0.485803550558181 -31.9165735832879 0.164321075057407 -80.3912235239044 
                               0.486786914886777 -31.805664292599 0.485803550558187 -31.9165735832891 0.539005060204638 59.7135048487763 0.486319828804225 -16.6498916994257 
                               0.163357929716588 -80.0860255954323 0.164321075057424 -80.3912235238945 0.486319828804236 -16.649891699428 0.842499608431373 97.502053443383  
10.2                           0.170119904836186 -150.762729714242 0.842266524005207 54.172521744275  0.484926433676772 -34.7515958699198 0.162765664701425 -83.2305376982094 
                               0.842266524005206 54.172521744275  0.171992390220123 -150.730293532875 0.483940640894791 -34.8614849721418 0.163728924397906 -83.5324474126076 
                               0.484926433676778 -34.7515958699209 0.483940640894797 -34.861484972143 0.540880663568331 56.5387916832375 0.487950748212261 -19.549520368144 
                               0.162765664701439 -83.2305376981986 0.163728924397923 -83.5324474125972 0.487950748212273 -19.5495203681464 0.841786255912783 94.6084769670541 
10.225                         0.168498623127892 -153.511233959196 0.843785528553433 51.434390349696  0.483046302666646 -37.6944282823967 0.162174161767195 -86.3714962687288 
                               0.843785528553431 51.434390349696  0.170386587270301 -153.470992870407 0.482058599934659 -37.8032877392324 0.163137643839119 -86.6700937530552 
                               0.483046302666653 -37.6944282823978 0.482058599934665 -37.8032877392337 0.542756756001086 53.3690100142787 0.489592572729706 -22.4469552388339 
                               0.162174161767209 -86.3714962687176 0.163137643839136 -86.6700937530445 0.489592572729717 -22.4469552388364 0.841061643597196 91.7186677934025 
10.25                          0.166870714839664 -156.252581473793 0.845306207437751 48.6989443092696 0.481146852943071 -40.6341639375064 0.161583681413316 -89.5089543528223 
                               0.845306207437749 48.6989443092695 0.168772787952371 -156.204681071635 0.480157759556572 -40.7419859133967 0.162547493526042 -89.8042172675196 
                               0.481146852943077 -40.6341639375076 0.480157759556578 -40.741985913398 0.544631879979862 50.2041959971604 0.49124570954888 -25.3422353669547 
                               0.16158368141333 -89.5089543528109 0.162547493526059 -89.8042172675087 0.491245709548891 -25.3422353669572 0.840325341221559 88.8325195037421 
10.275                         0.165236800031289 -158.986761889032 0.846828019018344 45.9661134956088 0.479228429782457 -43.5708062957755 0.160994486390496 -92.6429678349403 
                               0.846828019018341 45.9661134956088 0.167151586127596 -158.931363131254 0.478238465112602 -43.6775846115285 0.161958735731   -92.9348755407965 
                               0.479228429782463 -43.5708062957767 0.478238465112608 -43.6775846115298 0.546504551266266 47.0443759022425 0.492910590353086 -28.2354010140778 
                               0.16099448639051 -92.642967834929 0.161958735731017 -92.9348755407858 0.492910590353097 -28.2354010140803 0.839576898945053 85.9499269194993 
10.3                           0.163597514465348 -161.713769806756 0.848350421971974 43.2358302684383 0.477291391577696 -46.5043599795395 0.16040684137011 -95.7735955447561 
                               0.848350421971972 43.2358302684383 0.165523592175116 -161.651049188518 0.476301074350156 -46.610090145513 0.161371634521545 -96.062129124861 
                               0.4772913915777  -46.5043599795406 0.476301074350162 -46.6100901455143 0.548373261508645 43.8895660398951 0.494587671227893 -31.1264937740124 
                               0.160406841370123 -95.773595544745 0.161371634521561 -96.0621291248506 0.494587671227904 -31.1264937740148 0.838815847183883 83.0707860956286 
10.325                         0.161953508414238 -164.43360554516 0.849872876629499 40.5080294005313 0.475336108739186 -49.4348308786792 0.159821012614799 -98.9008993599912 
                               0.849872876629496 40.5080294005312 0.163889431853901 -164.36375522302 0.474345956309649 -49.5395101260383 0.160786455429797 -99.1860416396699 
                               0.475336108739191 -49.4348308786803 0.474345956309655 -49.5395101260395 0.550236480771229 40.7397727035401 0.496277432542784 -34.0155566965895 
                               0.159821012614811 -98.9008993599805 0.160786455429812 -99.1860416396599 0.496277432542793 -34.0155566965917 0.83804169644868 80.1949943147051 
10.35                          0.160305445427479 -167.146275922498 0.851394846283627 37.7826479990311 0.473362962570937 -52.3622262535277 0.159237267651066 -102.024944306046 
                               0.851394846283625 37.782647999031  0.162249745130437 -167.069503785368 0.472373490198534 -52.4658535634723 0.160203465124063 -102.30667987068 
                               0.473362962570941 -52.3622262535287 0.472373490198539 -52.4658535634735 0.552092659983689 37.5949921289439 0.497980378805812 -36.9026344092364 
                               0.159237267651077 -102.024944306036 0.160203465124077 -102.306679870671 0.497980378805822 -36.9026344092386 0.837253937179312 77.3224500812679 
10.375                         0.158654001061346 -169.851795079589 0.852915798464141 35.0596254218793 0.471372344122447 -55.2865548351391 0.158655874944681 -105.145798653017 
                               0.852915798464138 35.0596254218792 0.160605184973992 -169.768324763724 0.470384064242349 -55.3891309659913 0.159622931083522 -105.424113863659 
                               0.471372344122451 -55.28655483514  0.470384064242354 -55.3891309659924 0.553940233304978 34.455210467837  0.499697038494031 -39.7877732364815 
                               0.158655874944691 -105.145798653008 0.159622931083535 -105.42411386365 0.499697038494039 -39.7877732364835 0.836452039571669 74.4530531160253 
10.4                           0.156999861573669 -172.550185341664 0.854435206177892 32.3389031890825 0.469364653017105 -58.2078269231016 0.158077103579655 -108.263534010681 
                               0.854435206177889 32.3389031890824 0.15895641612198 -172.4602561872  0.468378074513472 -58.3093544351348 0.159045121276791 -108.538417017358 
                               0.469364653017109 -58.2078269231025 0.468378074513477 -58.3093544351358 0.555777620395846 31.3204037739119 0.5014279638625  -42.6710213175336 
                               0.158077103579664 -108.263534010673 0.159045121276803 -108.53841701735 0.501427963862508 -42.6710213175354 0.835635453390767 71.5867043495632 
10.425                         0.155343722587519 -175.241478120132 0.855952549110988 29.620424888564  0.467340296257796 -61.1260544810648 0.157501222941567 -111.378225422008 
                               0.855952549110985 29.6204248885639 0.157304113818646 -175.145345067132 0.466355923738208 -61.2265377589489 0.15847030384514 -111.649666174614 
                               0.467340296257798 -61.1260544810655 0.466355923738213 -61.2265377589498 0.55760322859487 28.1905379992433 0.503173730734767 -45.552428722091 
                               0.157501222941574 -111.378225422001 0.15847030384515 -111.649666174607 0.503173730734774 -45.5524287220925 0.834803607764497 68.7233059152457 
10.45                          0.153686287728353 -177.925714854875 0.857467314790667 26.9041360763623 0.465299687010456 -64.041251230133 0.156928502405994 -114.489951455754 
                               0.857467314790665 26.9041360763622 0.155648962531057 -177.82364827732 0.464318020082917 -64.1406965028644 0.157898746791141 -114.75794171241 
                               0.465299687010458 -64.0412512301336 0.464318020082921 -64.1406965028651 0.559415454993255 25.0655689991886 0.504934938277679 -48.4320475645296 
                               0.156928502406   -114.489951455748 0.15789874679115 -114.757941712404 0.504934938277685 -48.4320475645309 0.833955910952205 65.8627611410395 
10.475                         0.15202826723998 179.397052002193 0.858978999704488 24.1899841709559 0.463243243366375 -66.9534327402591 0.156359211032805 -117.598794298646 
                               0.858978999704486 24.1899841709558 0.15399165464703 179.504766525533 0.462264775919891 -67.0518480984337 0.157330717673494 -117.863327631411 
                               0.463243243366377 -66.9534327402596 0.462264775919894 -67.0518480984343 0.561212688404033 21.9454425438537 0.506712208763367 -51.3099321166292 
                               0.15635921103281 -117.598794298641 0.157330717673501 -117.863327631407 0.506712208763371 -51.3099321166302 0.833091750082408 63.0049745400486 
10.5                           0.150370376585539 176.726757961455 0.860487110374528 21.4779183415193 0.461171387084082 -69.8626165197454 0.155793617267028 -120.704839847634 
                               0.860487110374527 21.4779183415192 0.152332889160412 176.839819939817 0.460196606573784 -69.9600119300265 0.156766483308785 -120.965911645446 
                               0.461171387084084 -69.8626165197458 0.460196606573787 -69.9600119300269 0.562993311221585 18.8300943342543 0.508506187321171 -54.1861389189856 
                               0.155793617267032 -120.70483984763 0.156766483308791 -120.965911645442 0.508506187321175 -54.1861389189864 0.832210490853985 60.1498517996006 
10.525                         0.148713335040396 174.06332542671  0.861991164384423 18.7678893899362 0.45908454231178 -72.7688221029326 0.155231988647033 -123.80817780264 
                               0.861991164384422 18.7678893899362 0.150673370349726 174.181419813865 0.458113929049501 -72.8652094195555 0.156206309480894 -124.065785271337 
                               0.459084542311782 -72.7688221029328 0.458113929049503 -72.8652094195558 0.564755701167701 15.7194500213641 0.510317541682151 -57.0607268912601 
                               0.155231988647035 -123.808177802638 0.156206309480897 -124.065785271335 0.510317541682154 -57.0607268912607 0.831311477195412 57.2972997687858 
10.55                          0.147057864284546 171.406662581775 0.863490691357143 16.0598496264272 0.456983134291393 -75.6720711361278 0.154674591520712 -126.90890176018 
                               0.863490691357143 16.0598496264271 0.14901380645689 171.52946019582  0.456017160742534 -75.7674641092748 0.155650460658751 -127.163043919474 
                               0.456983134291395 -75.6720711361279 0.456017160742536 -75.7674641092749 0.566498232920587 12.6134252263122 0.51214696191869 -59.9337574414047 
                               0.154674591520713 -126.908901760179 0.155650460658753 -127.163043919473 0.512146961918692 -59.9337574414049 0.830394030876827 54.4472264444165 
10.575                         0.145404687002727 168.756662230895 0.864985233881581 13.3537527386723 0.454867588045438 -78.5723874617899 0.154121690770349 -130.007109308152 
                               0.864985233881581 13.3537527386722 0.147354908373279 168.883820236379 0.453906718132913 -78.6668017426603 0.155099199723145 -130.257786985403 
                               0.45486758804544 -78.5723874617899 0.453906718132914 -78.6668017426602 0.56821927962345 9.51192556007868 0.513995160181485 -62.8052945739998 
                               0.154121690770348 -130.007109308152 0.155099199723146 -130.257786985403 0.513995160181486 -62.8052945739998 0.829457451070091 51.5995409554354 
10.6                           0.143754525500979 166.113200590941 0.866474348386064 10.6495536543486 0.452738327048082 -81.4697972009563 0.153573549546827 -133.102902122057 
                               0.866474348386065 10.6495536543486 0.145697388340958 166.244363041885 0.45178301546407 -81.5632503433452 0.154552787703213 -133.350117942684 
                               0.452738327048084 -81.4697972009562 0.451783015464071 -81.563250343345 0.569917214269373 6.41484664113529 0.515862870436027 -65.6754049978257 
                               0.153573549546826 -133.102902122058 0.154552787703213 -133.350117942685 0.515862870436027 -65.6754049978255 0.828501013852364 48.7541535458757 
10.625                         0.142108100348816 163.476136032886 0.867957605957075 7.9472083970285  0.450595771881922 -84.3643288338561 0.153030429013812 -136.196386062782 
                               0.867957605957077 7.94720839702844 0.144041958677417 163.61093447484  0.449646463408115 -84.4568402920492 0.154011483523268 -136.440144437153 
                               0.450595771881924 -84.3643288338559 0.449646463408116 -84.4568402920489 0.571590410959367 3.32207410958569 0.517750848200358 -68.5441582327774 
                               0.15303042901381 -136.196386062784 0.154011483523267 -136.440144437155 0.517750848200359 -68.544158232777 0.827523971649294 45.9109755565442 
10.65                          0.140466129056584 160.845307769569 0.869434593101584 5.24667393542398 0.448440338882245 -87.256013278621 0.152492588102503 -139.287671276047 
                               0.869434593101587 5.24667393542392 0.142389330532551 160.983361898387 0.447497467719189 -87.3476044013996 0.153475543760532 -139.527978382675 
                               0.448440338882247 -87.2560132786207 0.44749746771919 -87.3476044013992 0.573237246030508 0.233483636476463 0.519659870285628 -71.4116267162221 
                               0.152492588102501 -139.28767127605 0.15347554376053 -139.527978382678 0.519659870285628 -71.4116267162215 0.826525552614435 43.0699194056714 
10.675                         0.138829324797827 158.220534486117 0.870904912451507 2.54790802599803 0.446272438770681 -90.1448839679625 0.151960283277521 -142.376872293491 
                               0.87090491245151 2.54790802599796 0.140740212687047 158.361452860775 0.44533642787681 -90.2355779885052 0.152945222414358 -142.613736058355 
                               0.446272438770683 -90.1448839679622 0.44533642787681 -90.2355779885047 0.574856099051187 -2.85105907292214 0.521590734540583 -74.2778859088766 
                               0.151960283277519 -142.376872293495 0.152945222414355 -142.613736058358 0.521590734540583 -74.2778859088759 0.825504959942229 40.2308985688465 
10.7                           0.137198395186714 155.601612908757 0.87236818340895 -0.149130951000997 0.444092475280449 -93.0309769236468 0.151433768314451 -145.464108135294 
                               0.872368183408955 -0.149130951001053 0.139095310401646 155.744993715134 0.44316373572132 -93.1207989451038 0.152420770687434 -145.697538207092 
                               0.444092475280451 -93.0309769236465 0.44316373572132 -93.1207989451032 0.576445353680504 -5.93169828293512 0.52354425960079 -77.14301440027  
                               0.151433768314448 -145.464108135298 0.152420770687431 -145.697538207096 0.523544259600789 -77.1430144002693 0.824461371112616 37.3938275586272 
10.725                         0.135574041120701 152.988316306968 0.873824042731053 -2.84448416198311 0.441900843775582 -95.9143308285548 0.150913294089519 -148.549502414116 
                               0.873824042731058 -2.84448416198314 0.137455324327066 153.133748169235 0.440979774083799 -96.0033078050612 0.151902436779442 -148.779510135273 
                               0.441900843775584 -95.9143308285545 0.440979774083799 -96.0033078050606 0.578003398388929 -9.00858823932579 0.5255212846429  -80.0070940138326 
                               0.150913294089516 -148.54950241412 0.151902436779439 -148.779510135277 0.525521284642899 -80.0070940138319 0.823393937066199 34.5586219042923 
10.75                          0.133956955698694 150.380392923103 0.875272145053368 -5.53819249680529 0.439697929866785 -98.7949870960804 0.150399108381821 -151.633183440066 
                               0.875272145053374 -5.53819249680532 0.135820949484591 150.527455759037 0.438784915413061 -98.883147808964 0.151390465693589 -151.859781813271 
                               0.439697929866787 -98.79498709608  0.43878491541306 -98.8831478089634 0.5795286270374  -12.0818931899453 0.527522669143871 -82.8702099116344 
                               0.150399108381819 -151.63318344007 0.151390465693585 -151.859781813274 0.52752266914387 -82.8702099116337 0.822301781309815 31.7251981322699 
10.775                         0.132347823224992 147.777564322652 0.876712163350873 -8.23029675172631 0.437484108026831 -101.672989936571 0.149891455688479 -154.715284326237 
                               0.87671216335088 -8.23029675172632 0.134192874327602 147.925830238995 0.436579520402596 -101.760364965501 0.150885099056337 -154.938487976319 
                               0.437484108026833 -101.67298993657 0.436579520402595 -101.760364965501 0.58101943931208 -15.1517874148102 0.529549292644489 -85.7324506987711 
                               0.149891455688477 -154.71528432624 0.150885099056333 -154.938487976322 0.529549292644488 -85.7324506987704 0.821183998953389 28.8934737478571 
10.8                           0.130747318309257 145.179523657305 0.878143789335881 -10.9208378183144 0.435259740208661 -104.548386420482 0.149390577052996 -157.795943094313 
                               0.878143789335888 -10.9208378183144 0.132571779894504 145.328557881056 0.434363936620603 -104.635008109297 0.150386574950642 -158.015768225233 
                               0.435259740208662 -104.548386420482 0.434363936620601 -104.635008109297 0.582474241012159 -18.2184552660781 0.531602054516044 -88.5939085273736 
                               0.149390577052994 -157.795943094316 0.150386574950638 -158.015768225236 0.531602054516043 -88.593908527373 0.820039655680055 26.0633672189043 
10.825                         0.129156105072768 142.585933831829 0.879566733792237 -13.60985687805  0.43302517446962 -107.421226537878 0.148896709907063 -160.875302779562 
                               0.879566733792245 -13.60985687805  0.130958339063742 142.735295673208 0.432138497146524 -107.507128954812 0.149895127762877 -161.091767126298 
                               0.433025174469621 -107.421226537878 0.432138497146522 -107.507128954812 0.58389144418817 -21.2820912182229 0.533681873728387 -91.45467920019  
                               0.148896709907063 -160.875302779564 0.149895127762875 -161.091767126299 0.533681873728386 -91.4546792001897 0.818867786652701 23.2347979622147 
10.85                          0.127574836471133 139.996425564518 0.880980726845403 -16.2973956023268 0.430780743605532 -110.291563253859 0.14841008792594 -163.953511534462 
                               0.880980726845411 -16.2973956023268 0.129353215921843 140.145669407237 0.429903519217769 -110.376782145891 0.149410988043587 -164.166634309557 
                               0.430780743605532 -110.291563253859 0.429903519217765 -110.376782145891 0.585269467128542 -24.3428999285419 0.535789688616986 -94.3148622736609 
                               0.14841008792594 -163.953511534463 0.149410988043584 -164.166634309557 0.535789688616985 -94.3148622736608 0.817667395361402 20.4076863334671 
10.875                         0.126004153743649 137.4105953296   0.882385518168134 -18.9834963575157 0.428526763798585 -113.159452559482 0.147930940897455 -167.03072273005 
                               0.882385518168141 -18.9834963575157 0.127757065255683 137.55927164398  0.427659302890601 -113.244025300509 0.148934382382076 -167.2405245646  
                               0.428526763798584 -113.159452559482 0.427659302890597 -113.244025300509 0.586606734192322 -27.4010963079602 0.537926456645942 -97.1745611603838 
                               0.147930940897456 -167.030722730049 0.148934382382074 -167.240524564599 0.53792645664594 -97.174561160384 0.816437452417517 17.5819536215322 
10.9                           0.124444685999512 134.82800316848  0.883780877121679 -21.6682024147127 0.426263533283296 -116.024953517681 0.147459494604603 -170.107095053985 
                               0.883780877121686 -21.6682024147127 0.126170532180581 134.975659542933 0.425406129719451 -116.108919050213 0.148465533294798 -170.313597932814 
                               0.426263533283293 -116.024953517681 0.425406129719446 -116.108919050213 0.587901675486382 -30.4569056019103 0.540093154163169 -100.033883230826 
                               0.147459494604605 -170.107095053982 0.148465533294796 -170.313597932811 0.540093154163166 -100.033883230827 0.815176894301694 14.7575220481106 
10.925                         0.122897049951182 132.24817035503  0.885166592832559 -24.3515581637577 0.423991331035056 -118.888128303672 0.146995970721559 -173.182792604172 
                               0.885166592832565 -24.3515581637576 0.124594251916217 132.394352541416 0.423144261459188 -118.97152707374 0.148004659127335 -173.386019794959 
                               0.423991331035052 -118.888128303672 0.423144261459182 -118.971527073741 0.589152726385814 -33.510563480894 0.54229077614324 -102.892939914124 
                               0.146995970721561 -173.182792604167 0.148004659127333 -173.386019794954 0.542290776143236 -102.892939914125 0.813884622074482 11.9343147736656 
10.95                          0.121361849805398 129.670576898312 0.886542474205167 -27.0336093310687 0.421710415486093 -121.749042239304 0.146540586722857 -176.257984976668 
                               0.886542474205171 -27.0336093310687 0.123028849722984 129.814829866733 0.420873938795183 -121.831916124248 0.147551973969704 -176.457960952778 
                               0.421710415486086 -121.749042239305 0.420873938795176 -121.831916124249 0.59035832689675 -36.5623161401391 0.544520335912551 -105.751846797758 
                               0.14654058672286 -176.257984976661 0.147551973969702 -176.457960952771 0.544520335912546 -105.75184679776 0.812559500059876 9.11225591067464 
10.975                         0.11983967732266 127.094658864132 0.887908349870579 -29.7144032008008 0.419421023273893 -124.607763820754 0.146093555805338 -179.332847346477 
                               0.887908349870581 -29.7144032008008 0.121474941012137 127.236527862771 0.418595380106279 -124.690156049572 0.147107687584563 -179.529597703242 
                               0.419421023273883 -124.607763820754 0.41859538010627 -124.690156049573 0.591516920861484 -39.6124204075788 0.546782864850627 -108.610723725879 
                               0.146093555805341 -179.332847346467 0.147107687584561 -179.529597703233 0.54678286485062 -108.610723725881 0.811200354513678 6.29127054525533 
11                             0.118331112056465 124.519805494579 0.889264068072165 -32.3939888388004 0.417123368027455 -127.464364738975 0.145655086822345 177.592439460319 
                               0.889264068072165 -32.3939888388004 0.119933131644005 124.658837110348 0.416308780266063 -127.54631980489 0.146672005347778 177.398888096111 
                               0.417123368027443 -127.464364738976 0.416308780266054 -127.546319804892 0.592626955006517 -42.6611438591827 0.549079412060486 -111.469694896003 
                               0.145655086822348 177.592439460331 0.146672005347774 177.398888096123 0.549079412060476 -111.469694896006 0.80980597229031 3.47128476825635 
11.025                         0.116836721784282 121.945356102292 0.890609496488704 -35.0724173187939 0.414817639196994 -130.318919892261 0.1452253842295  174.517688904736 
                               0.890609496488701 -35.072417318794 0.118404018429768 122.081099318174 0.414014309488126 -130.40048345715 0.146245128200663 174.32730897241  
                               0.414817639196978 -130.318919892262 0.414014309488115 -130.400483457152 0.593686877835068 -45.7087649404713 0.551411044000031 -114.328888953775 
                               0.145225384229503 174.517688904751 0.146245128200659 174.327308972423 0.551411044000018 -114.328888953778 0.808375099523372 0.652225716924437 
11.05                          0.115357063143126 119.370596713508 0.891944521995891 -37.7497419502099 0.412504000932963 -133.171507390257 0.144804648041255 171.442708685184 
                               0.891944521995885 -37.7497419502099 0.116888189853769 119.502603958688 0.411712112221259 -133.252726180603 0.145827252613068 171.255471795043 
                               0.412504000932942 -133.171507390258 0.411712112221246 -133.252726180606 0.594695138366606 -48.7555730928393 0.553778844065426 -117.18843908544 
                               0.144804648041257 171.442708685202 0.145827252613063 171.255471795059 0.553778844065409 -117.188439085443 0.806906440337051 -2.16597837172996 
11.075                         0.113892682483812 116.794756430959 0.893269050367269 -40.4260185070057 0.410182591020553 -136.022208548758 0.144393073797244 168.367300701795 
                               0.893269050367259 -40.4260185070058 0.115386227035172 116.922584620094 0.409402306100832 -136.103130242747 0.14541857055632 168.183177747545 
                               0.410182591020528 -136.022208548759 0.409402306100817 -136.10313024275 0.595650184727213 -51.8018688831025 0.556183912116355 -120.048483107643 
                               0.144393073797245 168.367300701815 0.145418570556313 168.183177747563 0.556183912116333 -120.048483107646 0.805398655607257 -4.98339809473773 
11.1                           0.112444116959477 114.217003484407 0.894583005915757 -43.1013054568358 0.407853519876082 -138.871107874584 0.143990852537316 165.291261036842 
                               0.894583005915743 -43.101305456836 0.113898704950068 114.340215042683 0.407084980962871 -138.951780979989 0.145019269484874 165.11022231581  
                               0.407853519876053 -138.871107874585 0.407084980962855 -138.951780979993 0.596550462595953 -54.8479641344689 0.558627363931964 -122.909163554114 
                               0.143990852537316 165.291261036864 0.145019269484865 165.11022231583  0.558627363931937 -122.909163554117 0.803850361793111 -7.80010280303   
11.125                         0.111011895865838 111.63644093296  0.89588633107708 -45.7756641898672 0.405516869611912 -141.718293039836 0.143598170783929 162.214379953422 
                               0.895886331077061 -45.7756641898674 0.112426193937853 111.754604803997 0.404760197927589 -141.798766762319 0.144629532325354 162.03639529482  
                               0.405516869611878 -141.718293039837 0.40476019792757 -141.798766762324 0.59739441351403 -57.8941820569071 0.561110330585083 -125.770627758759 
                               0.143598170783927 162.214379953446 0.144629532325341 162.036395294841 0.56111033058505 -125.770627758763 0.802260129861297 -10.616160506246 
11.15                          0.109596542253022 109.052101979291 0.897178985936536 -48.4491592465189 0.403172693176817 -144.563854844814 0.143215210530442 159.13644191471  
                               0.897178985936511 -48.4491592465191 0.1109692615191  109.164794613413 0.402427988559429 -144.64417894626 0.144249537471485 158.961480816168 
                               0.403172693176778 -144.563854844814 0.402427988559408 -144.644178946265 0.59818047306529 -60.9408573746613 0.563633957721106 -128.63302793463 
                               0.143215210530438 159.136441914736 0.14424953747147 158.96148081619  0.563633957721066 -128.633027934634 0.800626484327445 -13.4316377614197 
11.175                         0.10819857483165 106.462944851381 0.89846094770065 -51.121858543375 0.400821013578942 -147.407887168873 0.142842149233625 156.057225626203 
                               0.898460947700619 -51.1218585433753 0.109528474556132 106.569751172437 0.400088354110912 -147.488111815388 0.143879458783252 155.885257398808 
                               0.400821013578898 -147.407887168874 0.40008835411089 -147.488111815394 0.598907068938672 -63.98833644842  0.566199404726616 -131.496521248182 
                               0.142842149233619 156.057225626231 0.143879458783233 155.885257398831 0.566199404726569 -131.496521248186 0.798947902440533 -16.2465995445174 
11.2                           0.106818510199281 103.867847202487 0.899732210115371 -53.7938335964929 0.398461823198727 -150.250486908507 0.142479159808544 152.976504103496 
                               0.899732210115335 -53.7938335964933 0.108104401792387 103.968361552157 0.397741264857826 -150.3306625077  0.143519465588402 152.807498025535 
                               0.398461823198678 -150.250486908507 0.397741264857801 -150.330662507707 0.59957261888544 -67.0369773894054 0.568807843771466 -134.361269888191 
                               0.142479159808535 152.976504103525 0.14351946558838 152.807498025558 0.568807843771412 -134.361269888196 0.797222813537906 -19.0611091038569 
11.225                         0.105456865417508 101.265599974516 0.900992782832561 -56.4651597413005 0.396095083199406 -153.091753901929 0.142126410623762 149.894044768247 
                               0.900992782832519 -56.465159741301 0.106697616812415 101.359427034076 0.39538665953353 -153.171930929107 0.143169722684257 149.727970247861 
                               0.396095083199353 -153.091753901929 0.395386659533503 -153.171930929114 0.600175528586557 -70.0871501623949 0.57146045870661 -137.227441128638 
                               0.14212641062375 149.894044768276 0.14316972268423 149.727970247885 0.571460458706548 -137.227441128642 0.795449598600128 -21.8752277945106 
11.25                          0.104114160974867 98.6549006638934 0.902242690726595 -59.135916348254 0.393720723042887 -155.931790839463 0.141784065494616 146.809609575083 
                               0.902242690726547 -59.1359163482545 0.105308701471289 98.7416563547607 0.393024444870395 -156.01201965236 0.142830390337564 146.646436322011 
                               0.393720723042829 -155.931790839462 0.393024444870367 -156.012019652367 0.600714189448323 -73.1392366744282 0.574158443798481 -140.095207384779 
                               0.141784065494601 146.809609575113 0.142830390337534 146.646436322034 0.574158443798411 -140.095207384783 0.793626590036336 -24.6890148928807 
11.275                         0.102790924176604 96.0343459223416 0.903481973162994 -61.8061870334018 0.391338640119017 -158.770703159045 0.141452283672119 143.722955172322 
                               0.903481973162941 -61.8061870334024 0.103938249850378 96.1136582883803 0.390654495256573 -158.851033800735 0.142501624279961 143.562653378875 
                               0.391338640118956 -158.770703159045 0.390654495256545 -158.851033800743 0.601186976347456 -76.1936308456833 0.576903002279168 -142.964746261604 
                               0.141452283672101 143.722955172351 0.142501624279927 143.562653378897 0.576903002279092 -142.964746261608 0.7917520717321  -27.5025273907449 
11.3                           0.101487693009229 93.4024234174939 0.904710683221026 -64.4760598629759 0.388948699496432 -161.608598926179 0.141131219824835 140.633833099444 
                               0.90471068322097 -64.4760598629766 0.102586872806215 93.4739334943598 0.388276652516506 -161.689080915811 0.142183575696391 140.476373630866 
                               0.388948699496368 -161.608598926178 0.388276652516476 -161.689080915818 0.601592245350155 -79.250738658727 0.579695344690023 -145.836240593768 
                               0.141131219824814 140.633833099472 0.142183575696354 140.476373630886 0.579695344689941 -145.836240593772 0.78982427939297 -30.3158197681813 
11.325                         0.100205020535916 90.7575028701695 0.905928886872287 -67.1456275511099 0.386550733803328 -164.445588697704 0.140821024010883 137.541990024375 
                               0.905928886872227 -67.1456275511106 0.101255203190736 90.8208655498577 0.385890725823735 -164.526270808727 0.141876391203637 137.387344618663 
                               0.386550733803262 -164.445588697703 0.385890725823705 -164.526270808734 0.601928331433299 -82.3109781820634 0.582536686994629 -148.70987847602 
                               0.14082102401086 137.541990024401 0.141876391203596 137.387344618681 0.582536686994542 -148.709878476023 0.787841401217833 -33.1289437449306 
11.35                          0.0989434798883397 88.0978261761639 0.907136662117276 -69.8149876497584 0.384144543246631 -167.281785368798 0.140521841637017 134.447168023669 
                               0.907136662117215 -69.8149876497591 0.0999439018348636 88.1527110787508 0.383496491754735 -167.362715394352 0.141580212815937 134.295309500933 
                               0.384144543246566 -167.281785368796 0.383496491754705 -167.362715394359 0.60219354623993 -85.3747795636096 0.585428248435357 -151.585853283075 
                               0.140521841636992 134.447168023692 0.141580212815895 134.295309500949 0.585428248435267 -151.585853283078 0.785801578936925 -35.9419480099008 
11.375                         0.0977036699317221 85.42149651067   0.908334098082041 -72.4842427298736 0.38172989577816 -170.117304002642 0.140233813401542 131.349104908769 
                               0.908334098081979 -72.4842427298743 0.0986536644036444 85.467588880221  0.381093694492558 -170.198528507827 0.141295177894462 131.200007390156 
                               0.381729895778098 -170.11730400264 0.381093694492531 -170.198528507833 0.602386175905435 -88.4425849894294 0.58837124910593 -154.464363677783 
                               0.140233813401516 131.34910490879  0.14129517789442 131.20000739017  0.58837124910584 -154.464363677785 0.783702909249772 -38.7548779286993 
11.4                           0.0964862216929148 82.7264663029019 0.909521294076908 -75.1535005528645 0.379306527416412 -172.952261642281 0.139957075217636 128.24753460157  
                               0.909521294076849 -75.1535005528652 0.0973852292503253 82.7634679510029 0.3786820461892  -173.033825703021 0.14102141907724 128.101173737711 
                               0.379306527416354 -172.952261642279 0.378682046189175 -173.033825703027 0.602504478995419 -91.5148486027522 0.591366907210578 -157.345613606333 
                               0.139957075217612 128.247534601587 0.141021419077199 128.101173737722 0.591366907210492 -157.345613606334 0.78154344569846 -41.5677752292662 
11.425                         0.0952918056565447 80.0105239571601 0.910698358619376 -77.8228742313499 0.376874142732654 -175.786777104229 0.13969175811348 125.142187562507 
                               0.910698358619323 -77.8228742313505 0.0961393864194718 80.0381542859842 0.376261227495551 -175.868724032514 0.140759064185963 124.998540771427 
                               0.376874142732604 -175.786777104227 0.37626122749553 -175.868724032519 0.602546684601205 -94.5920363779982 0.594416435978518 -160.229812279157 
                               0.139691758113458 125.14218756252  0.140759064185926 124.998540771435 0.594416435978441 -160.229812279158 0.77932120101136 -44.3806776658982 
11.45                          0.0941211400519549 77.2712791845716 0.91186540842319 -80.4924823781865 0.374432415509959 -178.620970753489 0.13943798810542 122.032791274435 
                               0.911865408423148 -80.4924823781869 0.0949169879760623 77.2892763323616 0.373830888267824 -178.703341808778 0.140508236105938 121.891837988783 
                               0.374432415509921 -178.620970753487 0.373830888267809 -178.703341808782 0.602510990644074 -97.6746259442204 0.597521040200594 -163.117174136062 
                               0.139437988105403 122.032791274445 0.140508236105908 121.891837988788 0.597521040200532 -163.117174136062 0.777034149951764 -47.1936186621768 
11.475                         0.0929750002741662 74.5061467971819 0.913022567355596 -83.1624492427306 0.371980989583738 178.545035740294 0.139195886040265 118.919070785538 
                               0.913022567355569 -83.1624492427309 0.0937189598691871 74.514268963253  0.371390648459202 178.462201653643 0.140269052635314 118.780792708921 
                               0.371980989583714 178.545035740295 0.371390648459194 178.46220165364  0.602395562444897 -100.763106352069 0.600681912353035 -166.007918793998 
                               0.139195886040256 118.919070785543 0.140269052635295 118.780792708924 0.600681912352997 -166.007918793998 0.77468023270478 -50.0066269335663 
11.5                           0.0918542296057513 71.7123288032405 0.914169965364754 -85.8329048332698 0.369519479872166 175.711119665715 0.13896556740268 115.800749314452 
                               0.914169965364748 -85.8329048332698 0.0925463155764003 71.7103558279819 0.368940099205286 175.627786315087 0.140041626299599 115.665130686605 
                               0.369519479872162 175.711119665715 0.368940099205288 175.627786315087 0.602198531621538 -103.857977778082 0.603900228271414 -168.902270975752 
                               0.138965567402681 115.800749314453 0.140041626299595 115.665130686606 0.603900228271407 -168.902270975752 0.772257358834186 -52.81972609071  
