! Generated from PyAEDT SolutionData; AEDT ExportNetworkData workaround
# GHz S MA R 50
9 0.332430738466 -8.04983474584 0.317820757816 -92.6127626751 0.620931492622 -25.6723146625 0.634762830902 44.3950847028 0.317820757816 -92.6127626751 0.332272951938 -7.75205976807 0.619278327975 -25.729906462 0.636458171298 -135.659637693 0.620931492622 -25.6723146625 0.619278327975 -25.729906462 0.480560417305 177.687681913 0.000345384203771 -63.5621881977 0.634762830902 44.3950847028 0.636458171298 -135.659637693 0.000345384203769 -63.5621881979 0.438174651712 -129.603810054
9.025 0.331207091763 -11.0174345623 0.317555315818 -96.0910435886 0.622110178189 -30.1793781445 0.634380039816 41.5245590342 0.317555315818 -96.0910435886 0.331046713802 -10.7195804927 0.620460913685 -30.2368261002 0.636076504316 -138.531155988 0.62211017819 -30.1793781445 0.620460913685 -30.2368261002 0.477478018178 171.966102573 0.000344863071192 -69.4469046609 0.634380039816 41.5245590342 0.636076504316 -138.531155988 0.000344863071117 -69.4469046434 0.439281786725 -132.223142335
9.05 0.330036974677 -13.9750315606 0.317318001708 -99.5511869103 0.62324468625 -34.67324742 0.633994376129 38.6619235063 0.317318001709 -99.5511869103 0.329873458863 -13.6774515758 0.621599781714 -34.7305771312 0.635691771491 -141.39480832 0.62324468625 -34.67324742 0.621599781714 -34.7305771312 0.474494080424 166.254825064 0.000344127507267 -75.3553656478 0.633994376128 38.6619235063 0.635691771491 -141.39480832 0.000344127507145 -75.3553656183 0.440394061023 -134.8374943
9.075 0.328917102523 -16.9231072062 0.317109703475 -102.99374353 0.624336654568 -39.1539685834 0.633605883878 35.8070377808 0.317109703475 -102.99374353 0.328749947905 -16.6261493864 0.622696558159 -39.2112069622 0.635303979093 -144.250735306 0.624336654568 -39.1539685834 0.622696558159 -39.2112069621 0.471604726305 160.554967278 0.000343177149842 -81.2866086309 0.633605883877 35.8070377808 0.635303979093 -144.250735306 0.000343177149694 -81.2866085943 0.441511338857 -137.446961016
9.1 0.32784421925 -19.8621021102 0.316931082206 -106.419276821 0.625387800783 -43.6216139758 0.63321460309 32.9597638918 0.316931082206 -106.419276821 0.327672972564 -19.5661095604 0.6237529478 -43.6787892062 0.634913135372 -147.099074862 0.625387800783 -43.6216139758 0.6237529478 -43.6787892061 0.468805953684 154.867504946 0.000342013271453 -87.2399167726 0.633214603088 32.9597638918 0.634913135372 -147.099074862 0.000342013271295 -87.2399167328 0.442633491115 -140.051635693
9.125 0.326815106175 -22.7924166704 0.316782586414 -109.828358635 0.626399908048 -48.0762792772 0.632820570062 30.1199662931 0.316782586415 -109.828358635 0.326639363709 -22.4977275853 0.624770719818 -48.1334207727 0.634519250047 -149.9399622 0.626399908048 -48.0762792772 0.624770719818 -48.1334207727 0.466093661096 149.193280178 0.000340638712896 -93.2148211148 0.63282057006 30.1199662931 0.634519250047 -149.9399622 0.000340638712742 -93.2148210751 0.443760395061 -142.651609721
9.15 0.32582659 -25.7144117553 0.316664465969 -113.221565676 0.627374811696 -52.5180808227 0.632423817631 27.2875118895 0.316664465969 -113.221565676 0.325645999155 -25.421359432 0.625751694552 -52.5752191817 0.634122333855 -152.77352984 0.627374811696 -52.5180808227 0.625751694551 -52.5752191817 0.463463669176 143.533010327 0.000339057800925 -99.2110993629 0.63242381763 27.2875118895 0.634122333855 -152.77352984 0.000339057800784 -99.2110993258 0.44489193408 -145.246972708
9.175 0.324875550254 -28.6284094298 0.316576785543 -116.599476216 0.628314386949 -56.9471531435 0.632024375417 24.4622700557 0.316576785543 -116.599476216 0.324689810816 -28.3373222314 0.626697731279 -57.0043201023 0.633722398175 -155.599907623 0.628314386949 -56.9471531436 0.626697731279 -57.0043201023 0.460911738674 137.887296971 0.000337276254603 -105.22877138 0.632024375416 24.4622700557 0.633722398175 -155.599907623 0.000337276254481 -105.228771347 0.44602799744 -147.837812525
9.2 0.323958926247 -31.5346937195 0.316519437493 -119.962667154 0.629220537637 -61.3636467292 0.631622270054 21.6441126415 0.316519437493 -119.962667154 0.323767791395 -31.245894994 0.627610717013 -61.420875113 0.633319454704 -158.419222733 0.629220537637 -61.3636467293 0.627610717013 -61.420875113 0.458433585383 132.256634814 0.000335301084714 -111.268091561 0.631622270053 21.6441126415 0.633319454704 -158.419222733 0.000335301084615 -111.268091534 0.44716848006 -150.424215353
9.225 0.323073723625 -34.4335114144 0.31649215411 -123.311711371 0.630095185901 -65.7677260069 0.631217525394 18.8329139677 0.31649215411 -123.311711371 0.322877000696 -34.1473193725 0.628492556275 -65.8250496787 0.632913515182 -161.231599732 0.630095185901 -65.7677260069 0.628492556275 -65.8250496787 0.456024892325 126.641420358 0.00033314049031 -117.329538302 0.631217525394 18.8329139677 0.632913515182 -161.231599732 0.000333140490236 -117.329538281 0.448313282285 -153.006265727
9.25 0.322217020594 -37.3250729098 0.316494519219 -126.647175387 0.630940262827 -70.1595675295 0.630810162704 16.0285508117 0.316494519219 -126.647175387 0.322014571618 -37.0418004664 0.629345161799 -70.2170213368 0.632504591177 -164.037160592 0.630940262827 -70.1595675295 0.629345161799 -70.2170213368 0.453681319613 121.041960195 0.000330803755991 -123.41380079 0.630810162703 16.0285508117 0.632504591177 -164.037160592 0.00033080375594 -123.413800775 0.449462309671 -155.584046584
9.275 0.321385973871 -40.2095530862 0.316525979103 -129.969617273 0.631757699978 -74.5393583636 0.630400200831 13.230902385 0.316525979103 -129.969617273 0.321177715882 -39.9295076684 0.630170446126 -74.5969780828 0.632092693898 -166.836024739 0.631757699978 -74.5393583636 0.630170446126 -74.5969780828 0.451398512379 115.458478821 0.000328301152876 -129.521763354 0.630400200831 13.230902385 0.632092693898 -166.836024739 0.000328301152847 -129.521763345 0.45061547278 -158.157639316
9.3 0.320577824392 -43.0870922265 0.316585852758 -133.27958482 0.632549421748 -78.9072946674 0.629987656361 10.439850304 0.316585852758 -133.27958482 0.320363729537 -42.8105755521 0.630970314019 -78.965116946 0.631677834065 -169.628309097 0.632549421748 -78.9072946674 0.630970314019 -78.965116946 0.449172107194 109.8911259 0.000325643845591 -135.654487606 0.629987656361 10.439850304 0.631677834065 -169.628309097 0.000325643845582 -135.654487603 0.451772686978 -160.727123812
9.325 0.319789902819 -45.9577969705 0.316673341495 -136.577613927 0.633317338502 -83.263580445 0.62957254375 7.65527855445 0.316673341495 -136.577613927 0.319569998263 -45.6851048023 0.631746655664 -83.3216427417 0.631260021793 -172.414128138 0.633317338502 -83.263580445 0.631746655664 -83.3216427417 0.446997737346 104.339982913 0.000322843806831 -141.813192569 0.62957254375 7.65527855445 0.631260021793 -172.414128138 0.000322843806838 -141.813192571 0.452933872241 -163.292578514
9.35 0.319019634863 -48.8217413078 0.31678753789 -139.864227205 0.634063340421 -87.608426467 0.62915487545 4.87707345069 0.31678753789 -139.864227205 0.3187940025 -48.5531631852 0.632501340567 -87.6667669894 0.630839266528 -175.193593937 0.634063340421 -87.608426467 0.632501340567 -87.6667669894 0.444871037345 98.8050691682 0.000319913740404 -147.99923296 0.62915487545 4.87707345069 0.630839266528 -175.193593937 0.000319913740424 -147.999232966 0.454098952971 -165.854080465
9.375 0.318264546423 -51.6789676073 0.316927434136 -143.139932762 0.634789292006 -91.9420493423 0.628734662007 2.10512359119 0.316927434136 -143.139932762 0.318033322404 -51.4147865601 0.633236212119 -92.0007069827 0.63041557699 -177.966816222 0.634789292006 -91.9420493423 0.633236212119 -92.0007069827 0.442787646966 93.2863471611 0.000316867012973 -154.214075746 0.628734662007 2.10512359119 0.63041557699 -177.966816222 0.000316867013003 -154.214075755 0.455267857812 -168.411705358
9.4 0.317522268567 -54.5294876822 0.317091929807 -146.40522317 0.635497027183 -96.264670729 0.628311912158 -0.660680189655 0.317091929807 -146.40522317 0.317285642639 -54.2699799304 0.633953082741 -96.3236849978 0.629988961157 179.266097565 0.635497027183 -96.264670729 0.633953082741 -96.3236849978 0.440743215105 87.7837272875 0.000313717594117 -160.45927505 0.628311912158 -0.660680189656 0.629988961157 179.266097565 0.000313717594152 -160.459275062 0.456440519475 -170.965527583
9.425 0.316790542339 -57.3732838918 0.317279839083 -149.660574586 0.63618834494 -100.576516671 0.6278866329 -3.42044487228 0.317279839083 -149.660574586 0.316548757008 -57.1187185332 0.63465372958 -100.635927628 0.629559426254 176.50504221 0.63618834494 -100.576516671 0.63465372958 -100.635927628 0.438733403672 82.2970719313 0.000310480003795 -166.736445436 0.6278866329 -3.42044487229 0.629559426254 176.50504221 0.000310480003833 -166.736445448 0.45761687457 -173.515620281
9.45 0.316067223384 -60.2103102751 0.317489897466 -152.906446014 0.636865005455 -104.877817045 0.627458829563 -6.17427530459 0.317489897466 -152.906446014 0.315820572907 -59.960948966 0.635339890677 -104.937665231 0.629126978769 173.749914671 0.636865005454 -104.877817045 0.635339890677 -104.937665231 0.43675389171 76.826198959 0.000307169265848 -173.047233532 0.627458829563 -6.17427530459 0.629126978769 173.749914671 0.000307169265887 -173.047233545 0.458796863439 -176.062055389
9.475 0.315350286401 -63.0404937185 0.317720768035 -156.143278703 0.637528726652 -109.168805113 0.627028505858 -8.92227425597 0.317720768035 -156.143278703 0.315099115602 -62.7965903485 0.636013261576 -109.229131473 0.628691624478 171.00061401 0.637528726652 -109.168805113 0.636013261576 -109.229131473 0.434800379856 71.3708846586 0.000303800865801 -179.393287972 0.627028505859 -8.92227425597 0.628691624478 171.00061401 0.000303800865837 -179.393287985 0.459980429995 -178.604903688
9.5 0.314637829391 -65.8637351523 0.31797104726 -159.371495653 0.638181181149 -113.449717152 0.626595663926 -11.6645424722 0.31797104726 -159.371495653 0.314382532318 -65.6255355173 0.636675492305 -113.510562967 0.628253368486 168.257041341 0.638181181149 -113.449717152 0.636675492305 -113.510562967 0.432868595247 65.9308661719 0.000300390710927 174.223772451 0.626595663926 -11.6645424722 0.628253368486 168.257041341 0.000300390710958 174.22377244 0.461167521567 178.855765153
9.525 0.313928077705 -68.6799107751 0.318239270443 -162.59150123 0.638823993539 -117.720792168 0.626160304371 -14.4011787308 0.318239270443 -162.59150123 0.313669096119 -68.4476522516 0.637328184708 -117.782198975 0.627812215267 165.519099763 0.638823993539 -117.720792168 0.637328184708 -117.782198975 0.430954296914 60.5058434667 0.000296955090348 167.802392484 0.626160304371 -14.4011787308 0.627812215267 165.519099763 0.000296955090374 167.802392474 0.462358088749 176.319882526
9.55 0.313219387869 -71.4888733046 0.318523916784 -165.803680877 0.639458737974 -121.982271673 0.625722426294 -17.1322798957 0.318523916784 -165.803680877 0.312957209583 -71.2627845259 0.637972890067 -122.044281188 0.627368168725 162.786694299 0.639458737974 -121.982271673 0.637972890067 -122.044281188 0.429053281674 55.0954809032 0.000293510632789 161.341116016 0.625722426294 -17.1322798957 0.627368168725 162.786694299 0.000293510632808 161.341116009 0.463552085251 173.787380846
9.575 0.312510251186 -74.2904532499 0.318823414146 -169.008400902 0.64008693601 -126.234399508 0.625282027313 -19.8579409729 0.318823414146 -169.008400902 0.312245408248 -74.0707537892 0.638611106988 -126.297053551 0.626921232247 160.05973184 0.64008693601 -126.234399508 0.638611106988 -126.297053551 0.427161390506 49.6994084452 0.000290074259548 154.8386236 0.625282027313 -19.8579409729 0.626921232247 160.05973184 0.00029007425956 154.838623595 0.464749467753 171.258193502
9.6 0.311799297092 -77.0844602046 0.319136143524 -172.206008347 0.640710054683 -130.477421723 0.624839103587 -22.5782551637 0.319136143524 -172.206008347 0.31153236383 -76.8713602652 0.63924427951 -130.540762134 0.626471408766 157.338121083 0.640710054683 -130.477421723 0.63924427951 -130.540762134 0.425274515364 44.3172225669 0.000286663130278 148.293771801 0.624839103587 -22.5782551637 0.626471408766 157.338121083 0.000286663130283 148.293771798 0.465950195769 168.732254822
9.625 0.311085296274 -79.8706841576 0.319460443254 -175.396830916 0.64132950477 -134.71158648 0.624393649831 -25.2933139182 0.319460443254 -175.396830916 0.310816887196 -79.6643842727 0.639873795409 -134.775655042 0.626018700822 154.621772467 0.64132950477 -134.71158648 0.639873795409 -134.775655042 0.423388606372 38.9484869025 0.000283294579247 141.705634169 0.624393649831 -25.2933139182 0.626018700822 154.621772467 0.000283294579247 141.705634169 0.467154231507 166.209500025
9.65 0.31036716353 -82.6488968184 0.319794613009 -178.581176966 0.641946639235 -138.937143994 0.623945659333 -28.0032069871 0.319794613009 -178.581176966 0.310097931101 -82.4495875631 0.640500984676 -139.001982347 0.625563110624 151.910598123 0.641946639235 -138.937143994 0.640500984676 -139.001982347 0.421499679308 33.5927326844 0.000279986039948 135.073543466 0.623945659333 -28.0032069871 0.625563110624 151.910598123 0.000279986039943 135.073543468 0.468361539739 163.689865188
9.675 0.309643960385 -85.418852956 0.320136917578 178.240664458 0.642562751805 -143.154346487 0.623495123966 -30.7080224726 0.320136917578 178.240664458 0.309374592677 -85.2267146725 0.641127118133 -143.21999605 0.625104640111 149.204511811 0.642562751806 -143.154346487 0.641127118133 -143.21999605 0.419603823317 28.2494590091 0.000276754956175 128.397134576 0.623495123966 -30.7080224726 0.625104640111 149.204511811 0.000276754956165 128.397134579 0.469572087664 161.173287204
9.7 0.30891489745 -88.1802917487 0.320485590477 175.068423542 0.64317907568 -147.363448163 0.623042034204 -33.4078468771 0.320485590477 175.068423542 0.308646115683 -87.9954942858 0.641753406169 -147.429950048 0.624643291007 146.503428864 0.64317907568 -147.363448163 0.641753406169 -147.429950048 0.417697208733 22.9181329665 0.000273618678087 121.676387282 0.623042034204 -33.4078468771 0.624643291007 146.503428864 0.000273618678074 121.676387287 0.470785844792 158.659703747
9.725 0.308179336541 -90.9329381446 0.320838837401 171.901849585 0.643796782337 -151.564705184 0.622586379138 -36.1027651511 0.320838837401 171.901849585 0.30791189252 -90.7556406136 0.642380997584 -151.632100112 0.62417906488 143.807266137 0.643796782337 -151.564705184 0.642380997584 -151.632100112 0.415776094954 17.598189664 0.000270594342244 114.911667853 0.622586379138 -36.1027651511 0.62417906488 143.807266137 0.00027059434223 114.911667858 0.472002782809 156.149053239
9.75 0.307436792564 -93.6765042311 0.321194839538 168.740710853 0.644416980427 -155.758375659 0.622128146495 -38.7928607392 0.321194839538 168.740710853 0.307171466025 -93.506854779 0.643010978516 -155.826703878 0.623711963186 141.115941948 0.644416980427 -155.758375659 0.643010978516 -155.826703878 0.413836838265 12.2890321699 0.000267698735216 108.103768086 0.622128146495 -38.7928607392 0.623711963186 141.115941948 0.000267698735202 108.103768092 0.473222875465 153.641274814
9.775 0.306686935169 -96.410690615 0.321551756765 165.584794413 0.645040714744 -159.944719629 0.621667322657 -41.4782156245 0.321551756765 165.584794413 0.306424531045 -96.2488262161 0.643644371441 -160.014020829 0.623241987316 138.429376028 0.645040714744 -159.944719629 0.643644371441 -160.014020829 0.411875899544 6.99003139725 0.000264948141063 101.253940228 0.621667322657 -41.4782156245 0.623241987316 138.429376028 0.00026494814105 101.253940233 0.474446098453 151.136308286
9.8 0.305929590204 -99.1351878138 0.321907730738 162.433905938 0.645668965252 -164.123999048 0.621203892685 -44.1589103713 0.321907730738 162.433905937 0.305670935818 -98.9812340795 0.644282134226 -164.194312276 0.622769138636 135.74748947 0.645668965252 -164.123999048 0.644282134226 -164.194312276 0.409889851787 1.70052594341 0.000262358173829 94.3639259498 0.621203892685 -44.1589103713 0.622769138636 135.74748947 0.000262358173819 94.3639259544 0.475672429297 148.634094119
9.825 0.305164740972 -101.849677661 0.322260887894 159.287869508 0.64630264616 -168.296477765 0.62073784035 -46.8350241663 0.322260887894 159.287869508 0.304910683182 -101.70374867 0.644925159239 -168.367841343 0.622293418519 133.07020468 0.64630264616 -168.296477765 0.644925159239 -168.367841343 0.40787538741 -3.58017810392 0.000259943597082 87.4359774499 0.62073784035 -46.8350241663 0.622293418519 133.07020468 0.000259943597076 87.4359774534 0.476901847237 146.134573397
9.85 0.304392529314 -104.553834728 0.322609342373 156.146527404 0.646942605041 -172.462421494 0.620269148161 -49.5066348583 0.322609342373 156.146527404 0.304143931605 -104.416032877 0.645574272494 -172.534872934 0.621814828368 130.397445326 0.646942605041 -172.462421494 0.645574272494 -172.534872934 0.405829325284 -8.852807388 0.000257718133486 80.4728687033 0.620269148161 -49.5066348583 0.621814828368 130.397445326 0.000257718133485 80.4728687054 0.478134333122 143.637687798
9.875 0.303613256539 -107.247327768 0.32295119887 153.009739886 0.647589621975 -176.622097778 0.61979779741 -52.1738189965 0.32295119887 153.009739886 0.303370996095 -107.117743642 0.646230232822 -176.695673699 0.621333369643 127.729136293 0.647589621975 -176.622097778 0.646230232822 -176.695673699 0.403748617492 -14.118121529 0.000255694268321 73.4778950077 0.61979779741 -52.1738189965 0.621333369643 127.729136293 0.000255694268326 73.4778950082 0.47936986931 141.143379565
9.9 0.30282738422 -109.929821188 0.323284555438 149.87738499 0.648244408727 179.224224053 0.619323768208 -54.8366518673 0.323284555438 149.87738499 0.302592348973 -109.808533452 0.646893731074 179.149488008 0.62084904387 125.065203636 0.648244408727 179.224224053 0.646893731074 179.149488008 0.401630355811 -19.3769133959 0.000253883051745 66.4548592574 0.619323768208 -54.8366518673 0.62084904387 125.065203636 0.000253883051757 66.4548592561 0.480608439556 138.651591481
9.925 0.30203553487 -112.600976556 0.323607506235 146.749358315 0.648907607936 175.076272933 0.618847039537 -57.4952075296 0.323607506235 146.749358315 0.301808620546 -112.488051867 0.647565389339 175.000342179 0.620361852651 122.405574536 0.648907607936 175.076272933 0.647565389339 175.000342179 0.399471777941 -24.6300094095 0.00025229390528 59.4080438373 0.618847039537 -57.4952075296 0.620361852651 122.405574536 0.000252293905297 59.4080438343 0.481850028919 136.162266844
9.95 0.301238492518 -115.260454151 0.323918144235 143.625572831 0.649579792329 170.933776128 0.618367589303 -60.1495588494 0.323918144235 143.625572831 0.301020599699 -115.155947092 0.648245760179 170.856617219 0.619871797663 119.750177257 0.649579792329 170.933776128 0.648245760179 170.856617219 0.397270273501 -29.8782698824 0.000250934438463 52.3421676628 0.618367589303 -60.1495588494 0.619871797663 119.750177257 0.000250934438486 52.3421676582 0.483094623666 133.675349448
9.975 0.300437203196 -117.907914564 0.324214563914 140.505958695 0.650261463931 166.796459295 0.617885394393 -62.7997775329 0.324214563914 140.505958695 0.300229234397 -117.811867601 0.648935325867 166.718040005 0.619378880653 117.098941106 0.650261463931 166.796459295 0.648935325867 166.718040005 0.395023389861 -35.1225894062 0.000249810281781 45.2623286628 0.617885394393 -62.7997775329 0.619378880653 117.098941106 0.000249810281811 45.2623286568 0.484342211172 131.190783557
10 0.299632775345 -120.543020372 0.324494863906 137.390463092 0.650953053305 162.664046562 0.617400430744 -65.4459341592 0.324494863906 137.390463092 0.299435632136 -120.455463824 0.649634497647 162.584335965 0.618883103429 114.45179639 0.650953053305 162.664046562 0.649634497647 162.584335965 0.392728837872 -40.3638972975 0.000248924941763 38.1739328552 0.617400430744 -65.4459341592 0.618883103429 114.45179639 0.000248924941796 38.173932848 0.485592779834 128.708513888
10.025 0.298826480141 -123.165437872 0.324757149658 134.279050092 0.651654918777 158.53626061 0.616912673408 -68.0880982115 0.324757149658 134.279050092 0.298641060311 -123.086389912 0.650343614988 158.455229157 0.618384467842 111.808674376 0.651654918777 158.53626061 0.650343614988 158.455229157 0.390384497573 -45.6031581135 0.000248279683491 31.0826120317 0.616912673408 -68.0880982115 0.618384467842 111.808674376 0.000248279683528 31.0826120238 0.486846318983 126.228485586
10.05 0.298019751738 -125.774838921 0.324999536074 131.171700536 0.652367345683 154.412822754 0.616422096627 -70.7263381081 0.324999536074 131.171700536 0.297846946523 -125.704305587 0.651062944844 154.330442351 0.617882975765 109.169507257 0.652367345683 154.412822754 0.651062944844 154.330442351 0.387988423971 -50.8413722522 0.000247873444842 23.9941328542 0.616422096627 -70.7263381082 0.617882975765 109.169507257 0.000247873444881 23.9941328458 0.488102818795 123.750644214
10.075 0.29721418742 -128.370902865 0.325220150173 128.068411959 0.65309054561 150.293453033 0.615928673915 -73.3607212329 0.325220150173 128.068411959 0.2970548788 -128.308878096 0.651792680923 150.209697119 0.617378629069 106.534228112 0.65309054561 150.293453033 0.651792680923 150.209697119 0.385538853002 -56.0795766497 0.000247702785394 16.9143007936 0.615928673915 -73.3607212329 0.617378629069 106.534228112 0.000247702785433 16.9143007851 0.489362270208 121.274935728
10.1 0.296411547633 -130.953318588 0.325417133765 124.969198539 0.653824655642 146.177870298 0.615432378135 -75.9913139651 0.325417133765 124.969198539 0.296266605712 -130.899784276 0.652532942952 146.092713918 0.616871429588 103.902770872 0.653824655642 146.177870298 0.652532942952 146.092713918 0.383034207794 -61.3188455884 0.000247761871434 9.8488627368 0.615432378135 -75.9913139651 0.616871429588 103.902770872 0.000247761871472 9.84886272867 0.490624664844 118.801306465
10.125 0.295613755877 -133.52178669 0.325588646167 121.874091093 0.654569737612 142.065792302 0.614933181589 -78.6181817089 0.325588646167 121.874091093 0.295484036344 -133.476712753 0.653283775947 141.979212181 0.61636137909 101.275070284 0.654569737612 142.065792302 0.653283775947 141.979212181 0.380473105346 -66.5602916285 0.000248042496837 2.80341220051 0.614933181589 -78.6181817089 0.61636137909 101.275070284 0.000248042496872 2.80341219302 0.49188999493 116.329703124
10.15 0.294822898406 -136.076021806 0.325732866963 118.783137105 0.655325777353 137.956935783 0.614431056102 -81.2413889231 0.325732866963 118.783137105 0.294709240102 -136.039366269 0.654045149483 137.868910399 0.61584847924 98.6510618786 0.655325777353 137.956935783 0.654045149483 137.868910399 0.377854363765 -71.8050666754 0.000248534137934 -4.21669909167 0.614431056102 -81.2413889231 0.61584847924 98.6510618786 0.000248534137965 -4.2166990982 0.493158253223 113.860072757
10.175 0.294041223703 -138.615755078 0.325847998828 115.696400813 0.656092683958 133.851016548 0.613925973119 -83.8609991504 0.325847998828 115.696400813 0.29394444628 -138.587464179 0.654816956973 133.761526202 0.615332731558 96.0306819375 0.656092683958 133.851016548 0.654816956973 133.761526202 0.375177010196 -77.0543631917 0.000249224039054 -11.2064399668 0.613925973119 -83.8609991504 0.615332731558 96.0306819375 0.000249224039079 -11.2064399721 0.494429432931 111.392362748
10.2 0.293271141649 -141.140736792 0.325932270444 112.613963339 0.656870289035 129.747749551 0.613417903793 -86.477075047 0.325932270444 112.613963339 0.293192043342 -141.120745093 0.65559901494 129.656776438 0.614814137382 93.4138674618 0.656870289035 129.747749551 0.65559901494 129.656776438 0.372440289586 -82.3094155625 0.000250097324211 -18.1611662721 0.613417903793 -86.477075047 0.614814137382 93.4138674618 0.000250097324229 -18.1611662761 0.495703527652 108.926520807
10.225 0.292515222333 -143.650739184 0.325983939517 109.535922872 0.657658345977 125.646848959 0.612906819076 -89.0896784119 0.325983939517 109.535922872 0.292454577833 -143.638969698 0.6563910623 125.554377233 0.614292697826 90.8005561416 0.657658345977 125.646848959 0.6563910623 125.554377233 0.369643674421 -87.5715016185 0.000251137129557 -25.0766732565 0.612906819076 -89.0896784119 0.614292697826 90.8005561416 0.000251137129567 -25.0766732591 0.496980531293 106.462494952
10.25 0.291776194409 -146.145559433 0.326001295927 106.462394911 0.65845652923 121.548028214 0.612392689819 -91.6988702174 0.326001295927 106.462394911 0.291734752848 -146.141923756 0.657192759649 121.454044059 0.613768413735 88.1906863268 0.65845652923 121.548028214 0.657192759649 121.454044059 0.366786875597 -92.8419443189 0.000252324750792 -31.9492329484 0.612392689819 -91.6988702174 0.613768413735 88.1906863268 0.000252324750794 -31.9492329494 0.498260438013 104.000233501
10.275 0.291056942914 -148.625022825 0.325982665026 103.39351257 0.65926443358 117.451000085 0.611875486858 -94.3047106388 0.325982665026 103.39351257 0.291035425958 -148.629421277 0.658003688557 117.355491778 0.613241285651 85.5841969985 0.65926443358 117.451000085 0.658003688557 117.355491778 0.363869854556 -98.1221135896 0.000253639799604 -38.7756164698 0.611875486858 -94.3047106388 0.613241285651 85.5841969985 0.000253639799598 -38.7756164694 0.499543242149 101.539685059
10.3 0.290360506449 -151.088986102 0.325926411135 100.329426945 0.660081573432 113.355476706 0.611355181105 -96.9072590852 0.325926411135 100.329426945 0.290359606493 -151.101307869 0.658823350868 113.258434678 0.612711313766 82.9810277409 0.660081573432 113.355476706 0.658823350868 113.258434678 0.360892836837 -103.41342831 0.000255060363512 -45.5531019921 0.611355181105 -96.9072590852 0.612711313766 82.9810277409 0.000255060363499 -45.5531019904 0.500828938156 99.080798509
10.325 0.289690073613 -153.537340984 0.325830941245 97.2703075463 0.660907382122 109.261169599 0.61083174364 -99.506574231 0.325830941245 97.2703075463 0.289710452078 -153.557464261 0.659651168012 109.162586502 0.61217849789 80.3811187148 0.660907382122 109.261169599 0.659651168012 109.162586502 0.357856327187 -108.717358433 0.000256563164007 -52.2794696467 0.61083174364 -99.506574231 0.61217849789 80.3811187148 0.000256563163987 -52.2794696438 0.502117520545 96.6235230025
10.35 0.289048978576 -155.970017851 0.325694708979 94.2163428078 0.661741211225 105.167789692 0.610305145795 -102.102714047 0.325694708979 94.2163428078 0.289091264303 -155.997809977 0.660486480328 105.067660459 0.61164283741 77.7844106316 0.661741211225 105.167789692 0.660486480328 105.067660459 0.354761126379 -114.035427217 0.000258123708581 -58.9529851441 0.610305145795 -102.102714047 0.61164283741 77.7844106316 0.000258123708556 -58.9529851404 0.503408983818 94.1678079481
10.375 0.288440695687 -158.386989567 0.325516218844 91.1677406649 0.662582329889 101.075047313 0.609775359235 -104.695735833 0.325516218844 91.1677406649 0.288505483413 -158.422307157 0.661328546406 100.973369217 0.611104331268 75.1908447279 0.662582329889 101.075047313 0.661328546406 100.973369217 0.351608349853 -119.369213537 0.000259716433119 -65.5723741079 0.609775359235 -104.695735833 0.611104331268 75.1908447278 0.00025971643309 -65.5723741035 0.504703322408 91.7136030045
10.4 0.287868832979 -160.788275434 0.325294030817 88.1247292107 0.663429924186 96.982652172 0.609242356034 -107.28569625 0.325294030817 88.1247292107 0.2879566819 -160.830964491 0.662176542439 96.8794248831 0.610562977927 72.6003627409 0.663429924186 96.982652172 0.662176542439 96.8794248831 0.348399448331 -124.720354233 0.000261314831901 -72.1367892164 0.609242356034 -107.28569625 0.610562977927 72.6003627409 0.00026131483187 -72.1367892117 0.50600053062 89.2608580713
10.425 0.287337124484 -163.173945223 0.325026765312 85.0875574304 0.664283096484 92.8903133268 0.608706108748 -109.872651355 0.325026765312 85.0875574304 0.287448556879 -163.223841233 0.663029561598 92.7855389733 0.61001877535 70.0129068851 0.664283096484 92.8903133268 0.663029561598 92.7855389733 0.345136230511 -130.090546447 0.000262891573339 -78.6457721896 0.608706108748 -109.872651355 0.61001877535 70.0129068851 0.000262891573308 -78.6457721849 0.507300602572 86.8095232815
10.45 0.286849421217 -165.544123265 0.324713108578 82.0564960178 0.665140864849 88.7977391296 0.608166590483 -112.456656634 0.324713108578 82.0564960178 0.286984921138 -165.601051268 0.663886613437 88.6914223531 0.609471720992 67.4284198284 0.665140864849 88.7977391296 0.663886613437 88.6914223531 0.341820887969 -135.48154987 0.00026441860025 -85.0992124892 0.608166590483 -112.456656634 0.609471720992 67.4284198284 0.000264418600221 -85.0992124847 0.508603532132 84.3595489936
10.475 0.286409680751 -167.898992545 0.324351818585 79.031838275 0.666002162473 84.7046371567 0.607623774949 -115.037767038 0.324351818585 79.031838275 0.286569692759 -167.962767174 0.664746623315 84.5967851683 0.608921811782 64.8468446706 0.666002162473 84.7046371567 0.664746623315 84.5967851683 0.338456022345 -140.895188821 0.000265867214095 -91.4973043607 0.607623774949 -115.037767038 0.608921811782 64.8468446706 0.00026586721407 -91.4973043568 0.509909312859 81.9108857841
10.5 0.286021955278 -170.238798752 0.323941731452 76.013901096 0.666865837138 80.6107141175 0.607077636519 -117.616037016 0.323941731452 76.013901096 0.286206883217 -170.309224235 0.665608431858 80.5013367536 0.608369044133 62.2681249208 0.666865837138 80.6107141175 0.665608431858 80.5013367536 0.335044674911 -146.333354043 0.0002672081431 -97.8405035599 0.607077636519 -117.616037016 0.608369044133 62.2681249208 0.000267208143081 -97.8405035569 0.511217937947 79.4634844408
10.525 0.285690378075 -172.563854222 0.323481768486 73.0030260374 0.667730650722 76.5156757448 0.606528150267 -120.191520553 0.323481768486 73.0030260374 0.285900583869 -172.640724341 0.66647079445 76.4047855224 0.607813413943 59.6922044764 0.667730650722 76.5156757448 0.66647079445 76.4047855224 0.331590358577 -151.798004094 0.000268411594509 -104.129484801 0.606528150267 -120.191520553 0.607813413943 59.6922044764 0.000268411594498 -104.129484799 0.512529400156 77.0172959556
10.55 0.285419148326 -174.874541713 0.322970943899 69.9995804751 0.668595278741 72.4192266624 0.605975292006 -122.764271209 0.322970943899 69.9995804751 0.285654950795 -174.957639712 0.667332380771 72.3068388344 0.607254916619 57.1190276025 0.668595278741 72.4192266624 0.667332380771 72.3068388344 0.328097092357 -157.291166168 0.00026944729149 -110.365100669 0.605975292006 -122.764271209 0.607254916619 57.1190276025 0.000269447291487 -110.365100668 0.513843691757 74.5722715183
10.575 0.285212514243 -177.171317936 0.322408373279 67.0039588472 0.669458309957 68.321070231 0.605419038317 -125.33434215 0.322408373279 67.0039588472 0.285474187916 -177.260416376 0.66819177438 68.2072028417 0.606693547105 54.5485389114 0.669458309957 68.321070231 0.66819177438 68.2072028417 0.324569438296 -162.814936154 0.000270284495341 -116.548342449 0.605419038317 -125.33434215 0.606693547105 54.5485389114 0.000270284495348 -116.54834245 0.515160804464 72.1283625099
10.6 0.285074754475 -179.454716782 0.321793282892 64.0165839829 0.670318246025 64.2209083695 0.604859366567 -127.901786192 0.321793282892 64.0165839829 0.285362528404 -179.549577333 0.669047472347 64.1055823113 0.606129299921 51.9806833431 0.670318246025 64.2209083695 0.669047472347 64.1055823113 0.321012540806 -168.371477716 0.000270892013724 -122.680303078 0.604859366567 -127.901786192 0.606129299921 51.9806833431 0.000270892013741 -122.680303081 0.516480729366 69.6855204962
10.625 0.285010157813 178.274647853 0.321125019906 61.0379085141 0.671173501218 60.1184413508 0.604296254914 -130.466655838 0.321125019906 61.0379085141 0.285324214363 178.174274689 0.669897884951 60.0016804207 0.605562169224 49.4154061453 0.671173501218 60.1184413508 0.669897884951 60.0016804207 0.317432168291 -173.963020111 0.000271238195656 -128.762142172 0.604296254914 -130.466655838 0.605562169224 49.4154061453 0.000271238195684 -128.762142176 0.517803456864 67.2436972219
10.65 0.285023001212 176.016079697 0.320403063634 58.0684163678 0.672022402219 56.0133675686 0.603729682307 -133.029003316 0.320403063634 58.0684163678 0.285363474824 175.91045493 0.670741335436 55.8951985275 0.604992148869 46.8526528546 0.672022402219 56.0133675686 0.670741335436 55.8951985275 0.313834756878 -179.591854453 0.000271290913982 -134.795052892 0.603729682307 -133.029003316 0.604992148869 46.8526528546 0.000271290914018 -134.795052897 0.519128976595 64.802844604
10.675 0.285117526193 173.768798273 0.319627037889 55.1086243329 0.672863187986 51.905383274 0.603159628473 -135.588880619 0.319627037889 55.1086243329 0.285484502111 173.658194846 0.671576059848 51.785835907 0.604419232499 44.292369277 0.672863187986 51.905383274 0.671576059848 51.785835907 0.31022745597 174.73967196 0.000271017535982 -140.78023019 0.603159628473 -135.588880619 0.604419232499 44.292369277 0.000271017536027 -140.780230197 0.520457277357 62.3629147261
10.7 0.285297913703 171.531937678 0.318796724573 52.1590836973 0.673694009717 47.7941822763 0.602586073895 -138.146339546 0.318796724573 52.1590836973 0.285691426654 171.416640963 0.672400206947 47.6732894561 0.60384341364 41.7345014695 0.673694009717 47.7941822763 0.672400206947 47.6732894561 0.306618175217 169.029163657 0.000270384882762 -146.718839807 0.602586073895 -138.146339546 0.60384341364 41.7345014695 0.000270384882813 -146.718839815 0.521788347032 59.9238598315
10.725 0.285568257543 169.304546024 0.317912078612 49.2203819428 0.674512930897 43.6794556065 0.602008999772 -140.701431742 0.317912078612 49.2203819428 0.285988290362 169.184854399 0.673211838212 43.5572533594 0.603264685828 39.1789957209 0.674512930897 43.6794556065 0.673211838212 43.5572533594 0.303015632366 163.274187811 0.000269359177964 -152.611987153 0.602008999772 -140.701431742 0.603264685828 39.1789957209 0.000269359178019 -152.611987162 0.5231221725 57.4856323176
10.75 0.285932536497 167.085585602 0.31697324438 46.2931444891 0.675317927462 39.5608911357 0.601428387974 -143.254208742 0.31697324438 46.2931444891 0.286379018673 166.961811103 0.674008927941 39.4374187119 0.602683042737 36.6257985325 0.675317927462 39.5608911357 0.674008927941 39.4374187119 0.299429401266 157.472288384 0.00026790598636 -158.460684993 0.601428387974 -143.254208742 0.602683042737 36.6257985325 0.000267905986416 -158.460685002 0.524458739551 55.0481847291
10.775 0.286394585289 164.873933801 0.315980573737 43.3780364708 0.676106888063 35.4381731442 0.60084422098 -145.804722008 0.315980573737 43.3780364708 0.286867391446 164.746402852 0.674789363452 35.3134730927 0.602098478347 34.0748565991 0.676106888063 35.4381731442 0.674789363452 35.3134730927 0.295869959106 151.621004172 0.000265990142837 -164.265818517 0.60084422098 -145.804722008 0.602098478347 34.0748565991 0.000265990142893 -164.265818527 0.525798032788 52.6114697512
10.8 0.286958064565 162.668384801 0.314934645867 40.4757645265 0.676877614461 31.3109818337 0.600256481803 -148.353022978 0.314934645867 40.4757645266 0.287457012836 162.537439021 0.675550945394 31.1851000822 0.601510987122 31.526116789 0.676877614461 31.3109818337 0.675550945394 31.1851000822 0.292348731705 145.717891333 0.000263575672289 -170.028105989 0.600256481803 -148.353022978 0.601510987122 31.526116789 0.000263575672342 -170.028105998 0.527140035527 50.1754402032
10.825 0.287626430032 160.467652062 0.313836289059 37.5870785784 0.677627822037 27.1789927733 0.5996651539 -150.899163101 0.313836289059 37.5870785784 0.288151280326 160.333649143 0.676291388181 27.0519787148 0.60092056422 28.9795261235 0.677627822037 27.1789927733 0.676291388181 27.0519787148 0.28887813541 139.760551031 0.000260625700964 -175.748052548 0.5996651539 -150.899163101 0.60092056422 28.9795261235 0.000260625701011 -175.748052557 0.528484729685 47.7400490309
10.85 0.288402900961 158.270371578 0.312686604644 34.712773569 0.678355140445 23.0418762695 0.599070221063 -153.443193889 0.312686604644 34.712773569 0.288953353095 158.133686227 0.677008320533 22.913782857 0.600327205726 26.4350317561 0.678355140445 23.0418762695 0.677008320533 22.913782857 0.285471613823 133.746662798 0.000257102359878 178.574106077 0.599070221063 -153.443193889 0.600327205726 26.4350317561 0.000257102359917 178.574106069 0.529832095662 45.3052492993
10.875 0.289290428206 156.075105876 0.311486993293 31.8536911191 0.679057114387 18.8992966496 0.598471667298 -155.985166955 0.311486993293 31.8536911191 0.289866119881 155.936130825 0.677699286144 18.7701804984 0.59973090892 23.8925809498 0.679057114387 18.8992966496 0.677699286144 18.7701804984 0.282143667247 127.674024153 0.000252966681025 172.938474482 0.598471667298 -155.985166955 0.59973090892 23.8925809498 0.000252966681053 172.938474475 0.531182112213 42.8709941847
10.9 0.290291661912 153.880348696 0.3102391839 29.0107210586 0.67973120453 14.7509114422 0.597869476679 -158.525134063 0.3102391839 29.0107210586 0.290892166499 153.739495771 0.678361744468 14.6208329436 0.599131672571 21.3521210539 0.67973120453 14.7509114422 0.678361744468 14.6208329436 0.278909872366 121.540596945 0.000248178487316 167.34558955 0.597869476679 -158.525134063 0.599131672571 21.3521210539 0.000248178487334 167.345589546 0.53253475631 40.4372369663
10.925 0.291408919057 151.684530293 0.308945265323 26.1848027728 0.680374788547 10.596370441 0.597263633184 -161.063147168 0.308945265323 26.1848027728 0.292033743159 151.542231539 0.678993071614 10.4653938872 0.598529497271 18.8135994789 0.680374788547 10.596370441 0.678993071614 10.4653938872 0.27578688932 115.34456066 0.000242696277558 161.796542879 0.597263633184 -161.063147168 0.598529497271 18.8135994789 0.000242696277565 161.796542877 0.533890002987 38.003931017
10.95 0.292644150944 149.486023251 0.307607721252 23.3769262931 0.680985162282 6.43531463284 0.596654120502 -163.599258469 0.307607721252 23.3769262931 0.293292731697 149.34273211 0.679590561344 6.30350835469 0.597924385811 16.2769636695 0.680985162282 6.43531463284 0.679590561344 6.30350835469 0.272792453005 109.08437272 0.000236477108383 156.293147722 0.596654120502 -163.599258469 0.597924385811 16.2769636695 0.000236477108379 156.293147722 0.535247825182 35.5710297943
10.975 0.293998910761 147.283148712 0.306229468541 20.588133045 0.681559541016 2.26737496717 0.59604092182 -166.133520449 0.306229468541 20.588133045 0.29467061282 147.13934126 0.680151426151 2.13481148862 0.59731634359 13.7421610759 0.681559541016 2.26737496717 0.680151426151 2.13481148862 0.269945345167 102.758835392 0.000229476476174 150.838172044 0.59604092182 -166.133520449 0.59731634359 13.7421610759 0.000229476476159 150.838172047 0.536608193555 33.1384868297
11 0.29547432125 145.074182873 0.304813899338 17.8195161486 0.682095060822 -1.90782905534 0.595424019572 -168.665985929 0.304813899338 17.8195161486 0.296168433405 144.930359112 0.680672798396 -2.0410728459 0.596705379084 11.2091391217 0.682095060822 -1.90782905534 0.680672798396 -2.0410728459 0.267265343705 96.367168467 0.000221648204011 145.435671796 0.595424019572 -168.665985929 0.596705379084 11.2091391217 0.000221648203989 145.435671801 0.537971076291 30.7062557176
11.025 0.297071042532 142.857363622 0.303364927422 15.0722201439 0.682588779961 -6.0906910048 0.594803395158 -171.196708114 0.303364927422 15.0722201439 0.297786773901 142.714048838 0.681151731466 -6.2245336626 0.59609150436 8.67784516934 0.682588779961 -6.0906910048 0.681151731466 -6.2245336626 0.26477314564 89.9090862907 0.000212944342295 140.091479777 0.594803395158 -171.196708114 0.59609150436 8.67784516933 0.000212944342267 140.091479785 0.539336438893 28.2742901039
11.05 0.298789240065 140.630897146 0.301887039165 12.3474399851 0.683037680293 -10.2816193862 0.594179028625 -173.725740641 0.301887039165 12.3474399851 0.299525715783 140.488643344 0.681585200902 -10.4159746949 0.595474735648 6.14822648255 0.683037680293 -10.2816193862 0.681585200902 -10.4159746949 0.262490260495 83.3848770204 0.000203315098387 134.813943106 0.594179028625 -173.725740641 0.595474735648 6.14822648255 0.000203315098357 134.813943116 0.540704243944 25.8425436728
11.075 0.300628552685 138.392964331 0.300385349629 9.64641912159 0.68343866863 -14.4810397824 0.5935508983 -176.253137633 0.300385349629 9.64641912159 0.301384809026 138.252351759 0.681970105444 -14.6158165121 0.594855093983 3.620230184 0.68343866863 -14.4810397824 0.681970105444 -14.6158165121 0.260438871394 76.7954812378 0.000192708823468 129.61507125 0.5935508983 -176.253137633 0.594855093983 3.62023018399 0.000192708823437 129.61507126 0.542074450857 23.4109701333
11.1 0.302588060612 136.141726785 0.298865664305 6.97044644056 0.683788577977 -18.689397318 0.592918980376 -178.778953745 0.298865664305 6.97044644056 0.30336303945 136.003365574 0.682303267907 -18.824498953 0.594232605913 1.0938032091 0.683788577977 -18.689397318 0.682303267907 -18.824498953 0.258641662181 70.1425662816 0.000181072110007 124.512388848 0.592918980376 -178.778953745 0.594232605913 1.0938032091 0.000181072109979 124.512388859 0.543447015595 20.9795232041
11.125 0.304666253268 133.875332272 0.297334547121 4.32085180957 0.684084168545 -22.9071594915 0.592283248446 178.696755782 0.297334547121 4.32085180957 0.305458795808 133.73986422 0.682581435787 -23.0424839224 0.593607304295 -1.43110774533 0.684084168545 -22.9071594915 0.682581435787 -23.0424839224 0.257121610221 63.428591965 0.000168350105317 119.532054603 0.592283248446 178.696755782 0.593607304295 -1.43110774534 0.000168350105295 119.532054612 0.544821890367 18.5481565978
11.15 0.30686099668 131.591919356 0.295799395353 1.69899990444 0.684322128451 -27.1348194304 0.591643672972 176.173935071 0.295799395353 1.69899990444 0.307669836335 131.460019882 0.682801281497 -27.2702586063 0.592979229172 -3.95455627809 0.684322128451 -27.1348194304 0.682801281497 -27.2702586063 0.255901746322 56.6568628195 0.000154487259992 114.714380808 0.591643672972 176.173935071 0.592979229172 -3.95455627809 0.000154487259979 114.714380815 0.546199023294 16.1168240035
11.175 0.309169500135 129.289621011 0.294268522182 -0.893718046264 0.68449907394 -31.3728996309 0.591000220682 173.652527559 0.294268522182 -0.893718046265 0.309993254479 129.162001335 0.682959402048 -31.5083391651 0.592348428759 -6.47659634682 0.68449907394 -31.3728996309 0.682959402048 -31.5083391651 0.255004885388 49.8315617742 0.000139428994924 110.124212047 0.591000220682 173.652527559 0.592348428759 -6.47659634682 0.000139428994919 110.124212049 0.547578358049 13.6854790683
11.2 0.311588281693 126.966566961 0.292751247694 -3.45589503275 0.684611548976 -35.6219562527 0.5903528539 171.132475944 0.292751247694 -3.45589503275 0.312425443341 126.843976556 0.683052318041 -35.757274975 0.591714960538 -8.99728233836 0.684611548976 -35.6219562527 0.683052318041 -35.757274975 0.254453333793 42.9577603644 0.000123125446839 105.871963901 0.5903528539 171.132475944 0.591714960538 -8.99728233836 0.000123125446842 105.871963897 0.548959833451 11.2540753772
11.225 0.314113131938 124.620884448 0.291257999203 -5.98612205444 0.684656024001 -39.8825840502 0.589701529785 168.613722142 0.291257999203 -5.98612205444 0.314962058255 124.504113812 0.683076471716 -40.0176534971 0.591078892485 -11.5166691467 0.684656024001 -39.8825840502 0.683076471716 -40.0176534971 0.254268581909 36.0414012513 0.000105540385406 102.16054947 0.589701529785 168.613722142 0.591078892485 -11.5166691467 0.000105540385415 102.160549459 0.550343383033 8.82256643199
11.25 0.316739075204 122.250697103 0.289800421851 -8.48300550961 0.684628893603 -44.155422031 0.589046199483 166.096207234 0.289800421851 -8.4830055096 0.317597976666 122.140580939 0.683028223821 -44.290105865 0.590440304435 -14.0348122599 0.684628893603 -44.155422031 0.683028223821 -44.290105865 0.254470992521 29.0892500836 8.66748016477e-05 99.4040539995 0.589046199483 166.096207234 0.590440304435 -14.0348122599 8.66748016604e-05 99.404053978 0.551728934558 6.39090562824
11.275 0.319460327107 119.85412152 0.288391500551 -10.9451888469 0.684526472817 -48.4411599479 0.588386807177 163.579871422 0.288391500551 -10.9451888469 0.320327254132 119.751542386 0.682903848997 -48.5753132939 0.589799289612 -16.5517678556 0.684526472817 -48.4411599479 0.682903848997 -48.5753132939 0.255079497609 22.1088155125 6.66406149298e-05 98.5838107108 0.588386807177 163.579871422 0.589799289612 -16.5517678556 6.66406149404e-05 98.5838106777 0.5531164095 3.95904623074
11.3 0.32227024681 117.429261069 0.287045694397 -13.371379228 0.684344991718 -52.7405457465 0.587723289037 161.064653994 0.287045694397 -13.371379228 0.32314307481 117.335153588 0.682699529303 -52.8740144317 0.589155956348 -19.0675929078 0.684344991718 -52.7405457465 0.682699529303 -52.8740144317 0.256111317056 15.1082383595 4.59593667496e-05 102.601806756 0.587723289037 161.064653994 0.589155956348 -19.0675929078 4.59593667523e-05 102.601806712 0.554505722466 1.52694134765
11.325 0.32516128168 114.974196351 0.285779084797 -15.7603800359 0.684080587893 -57.0543941053 0.587055572048 158.55049328 0.285779084797 -15.7603800359 0.326037693979 114.889552076 0.682411345465 -57.1870137878 0.588510430003 -21.5823453043 0.684080587893 -57.0543941053 0.682411345465 -57.1870137878 0.25758171282 8.09615334192 2.73377032331e-05 122.767590307 0.587055572048 158.55049328 0.588510430003 -21.5823453043 2.7337703225e-05 122.767590268 0.55589678057 -0.905456097072
11.35 0.328124901009 112.486971573 0.284609538674 -18.1111301458 0.683729296315 -61.3835962322 0.586383572725 156.03732663 0.284609538674 -18.1111301458 0.329002369139 112.412844621 0.682035265344 -61.5151913983 0.587862855125 -24.0960839759 0.683729296315 -61.3835962322 0.682035265344 -61.5151913983 0.259503791054 1.08152908195 2.46046478288e-05 177.724393655 0.586383572725 156.03732663 0.587862855125 -24.0960839759 2.46046478364e-05 177.72439366 0.557289482744 -3.33819339284
11.375 0.331151513914 109.965575933 0.283556888191 -20.4227509467 0.683287036073 -65.7291311016 0.585707195704 153.525090383 0.283556888191 -20.4227509467 0.332027274535 109.903089491 0.681567129028 -65.8595139106 0.587213397881 -26.6088690395 0.683287036073 -65.7291311016 0.681567129028 -65.8595139106 0.261888362381 -5.92650591725 4.46116376817e-05 -152.741183216 0.585707195704 153.525090383 0.587213397881 -26.6088690395 4.46116377225e-05 -152.741183244 0.558683718989 -5.7713180731
11.4 0.334230364317 107.407918869 0.282643128634 -22.6946021504 0.682749593277 -70.0920783506 0.585026332199 151.01371986 0.282643128634 -22.6946021504 0.335101391642 107.358272718 0.681002629847 -70.2210473 0.586562248785 -29.1207619536 0.682749593277 -70.0920783506 0.681002629847 -70.2210473 0.264743867357 -12.9188423482 7.25123218809e-05 -146.114644053 0.585026332199 151.01371986 0.586562248785 -29.1207619537 7.25123219476e-05 -146.114644102 0.560079369556 -8.20487794746
11.425 0.337349392596 104.81179774 0.2818926362 -24.9263474525 0.682112599391 -74.4736330858 0.584340858331 148.50314936 0.2818926362 -24.9263474525 0.338212364585 104.776276933 0.680337290503 -74.6009714659 0.585909625784 -31.6318256902 0.682112599391 -74.4736330858 0.680337290503 -74.6009714659 0.26807637029 -19.8865647953 0.000104052945892 -146.034290481 0.584340858331 148.50314936 0.585909625784 -31.6318256902 0.000104052945976 -146.034290536 0.561476304047 -10.6389211352
11.45 0.340495048713 102.174856155 0.281332407687 -27.1180310887 0.681371504054 -78.8751228982 0.583650633329 145.993312168 0.281332407687 -27.1180310888 0.341346304317 102.154841031 0.679566433341 -79.0005969975 0.585255777735 -34.1421249198 0.681371504054 -78.8751228982 0.679566433341 -79.0005969975 0.271889620449 -26.82111308 0.000138522697477 -148.383532069 0.583650633329 145.993312168 0.585255777735 -34.1421249199 0.000138522697562 -148.38353212 0.56287438044 -13.0734961002
11.475 0.343652034459 99.4945307369 0.28099232433 -29.2701662661 0.680521541351 -83.2980274347 0.582955497595 143.48414058 0.28099232433 -29.2701662662 0.344487517714 99.4915084964 0.67868514363 -83.4213844511 0.584600988334 -36.6517262144 0.680521541351 -83.2980274347 0.67868514363 -83.421384451 0.27618517582 -33.7144225933 0.00017584438142 -151.874623929 0.582955497595 143.48414058 0.584600988334 -36.6517262144 0.000175844381482 -151.874623963 0.564273444027 -15.5086516867
11.5 0.346802942016 96.7679836728 0.280905442383 -31.3838363202 0.679557688243 -87.744000936 0.582255270649 140.975565949 0.280905442383 -31.3838363202 0.347618126325 96.7835618234 0.677688224503 -87.8649665394 0.583945580563 -39.1606982646 0.679557688243 -87.744000936 0.677688224503 -87.8649665394 0.280962581159 -40.5590379099 0.000216120499039 -155.993600771 0.582255270649 140.975565949 0.583945580563 -39.1606982646 0.000216120499036 -155.993600771 0.565673326253 -17.9444371559
