! Touchstone file exported from HFSS 2025.2.4
!        File:           //wsl.localhost/Ubuntu/tmp/hfss-r11/hfss/output_v3_4_jacobian/h_cap_height_minus/single_magictee_v3_4_hreactive.aedt
!        Generated:      03:03:35 PM Sep 22, 2026
!        Design:         SingleMagicT_v3_4_HReactiveCell
!        Project:        single_magictee_v3_4_hreactive
!
! Variables:
!        f_adapt = 10.2GHz
!        h_cap_height = 8.6mm
!        h_cap_len = 2.5mm
!        h_terminal_ridge_w = 4.572mm
!        h_throat_a = 20.4mm
!        h_throat_len = 5.5mm
!        ridge_g1 = 7.672mm
!        ridge_g2 = 5.8mm
!        ridge_l1 = 9.872mm
!        ridge_l2 = 8.857mm
!        ridge_w = 4.572mm
!        terminal_ridge_len = 7.5mm
!        wg_a = 22.86mm
!        wg_b = 10.16mm
!
!Data is not renormalized
# GHz S MA
! Terminal data exported
! Port[1] = P1_CollinearMinusX
! Port[2] = P2_CollinearPlusX
! Port[3] = P3_HArm_Ridged
! Port[4] = P4_EArm
9                              0.230339807444369 150.188371328922 0.528473224743894 -174.750709082036 0.484003263791326 62.8072666031065 0.658331576391886 45.938278964361  
                               0.528473224743893 -174.750709082036 0.231471844228695 149.851338426527 0.483511372323703 62.7009046722247 0.658295973625698 -134.242299606091 
                               0.484003263791326 62.8072666031064 0.483511372323704 62.7009046722249 0.72935385527074 130.781565724717 0.000739780171245372 -44.8055515221843 
                               0.658331576391884 45.9382789643611 0.658295973625698 -134.242299606091 0.000739780171244851 -44.8055515222715 0.365027943257593 -114.954763836399 
9.025                          0.228139720094693 147.388080024229 0.528722149801834 -177.548628782763 0.485321806573158 59.3059684327336 0.657931795958182 43.0316664344864 
                               0.528722149801834 -177.548628782763 0.229298762167332 147.05180650817  0.484831171080075 59.1991315538156 0.657890683375761 -137.149980552057 
                               0.485321806573192 59.3059684327387 0.48483117108014 59.1991315538276 0.727613913469331 126.501190621152 0.000750794277434724 -48.6179878913999 
                               0.657931795958123 43.0316664344877 0.657890683375862 -137.149980552055 0.000750794277431575 -48.6179878910563 0.366477974719636 -117.671727147225 
9.05                           0.225957315579483 144.596612469558 0.52898396097552 179.661051584226 0.486606075532293 55.8093283163382 0.657528450463977 40.1330268273999 
                               0.52898396097552 179.661051584226 0.227143487424711 144.261340292356 0.486116920812027 55.7020014707151 0.657481685723253 -140.049644277684 
                               0.486606075532348 55.8093283163463 0.486116920812133 55.7020014707341 0.725904782387384 122.222247420943 0.000761798864274644 -52.4415589671303 
                               0.657528450463886 40.133026827402  0.657481685723414 -140.049644277682 0.000761798864269727 -52.4415589665153 0.367933766301971 -120.383915520653 
9.075                          0.223793423397894 141.813648532005 0.529258533873642 176.878052919583 0.487857063470516 52.3174627011058 0.65712156944114 37.2422123443738 
                               0.529258533873641 176.878052919583 0.225006816393402 141.479623346609 0.487369607181088 52.2096297644788 0.65706903914603 -142.941442569986 
                               0.487857063470581 52.3174627011152 0.487369607181216 52.2096297645011 0.724227207056946 117.945296300965 0.000772785178095342 -56.2754781621406 
                               0.657121569441034 37.2422123443763 0.657069039146219 -142.941442569983 0.000772785178089332 -56.2754781613837 0.369395245428019 -123.091421544387 
9.1                            0.221648651679272 139.038838270229 0.529545597408406 174.102106472846 0.4890758692298  48.8304780965946 0.656711173646798 34.3590781001269 
                               0.529545597408405 174.102106472846 0.222889323395012 138.706309131645 0.488590321530096 48.7221219413283 0.656652789819463 -145.8255235001  
                               0.489075869229869 48.8304780966041 0.488590321530231 48.7221219413513 0.722581512051598 113.670871883293 0.000783744734851366 -60.1189706935204 
                               0.656711173646689 34.3590781001295 0.656652789819659 -145.825523500098 0.00078374473484477 -60.1189706927235 0.370862342105729 -125.794335550447 
9.125                          0.219523399723762 136.271806175753 0.529844744791447 171.332954324613 0.490263696432218 45.3484704153775 0.656297276169331 31.4834821092484 
                               0.529844744791445 171.332954324614 0.220791373336489 135.941025260908 0.489780259642761 45.2395730053394 0.65623297350926 -148.70203154897 
                               0.490263696432286 45.3484704153864 0.489780259642892 45.2395730053613 0.720967626498354 109.399480868717 0.00079466935509901 -63.971275999781 
                               0.656297276169229 31.483482109251  0.656232973509445 -148.702031548968 0.000794669355092199 -63.9712759990215 0.37233498907681 -128.492745696784 
9.15                           0.217417870520579 133.512155153651 0.530155444070521 168.57034979525  0.491421851399299 41.8715243268848 0.655879883416104 28.6152852638911 
                               0.530155444070517 168.570349795251 0.218713134329303 133.183377498706 0.490940719680984 41.7620668054545 0.655809617225388 -151.571107732499 
                               0.49142185139936 41.8715243268925 0.490940719681104 41.762066805474  0.719385109508554 105.131599697633 0.000805551195009738 -67.8316500267571 
                               0.655879883416014 28.6152852638934 0.655809617225553 -151.571107732497 0.000805551195002967 -67.8316500260903 0.373813121945019 -131.186738047631 
9.175                          0.215332083096149 130.759470243706 0.530477048208028 165.814057787063 0.49255174029042 38.3997126309059 0.655458995991522 25.7543513038447 
                               0.530477048208023 165.814057787063 0.2166545901251  130.432953498094 0.492073099339942 38.2896754027881 0.655382740658313 -154.432889725313 
                               0.492551740290473 38.3997126309122 0.492073099340046 38.2896754028046 0.717833175779076 100.867672262084 0.00081638277316678 -71.699367362486 
                               0.655458995991446 25.7543513038467 0.655382740658452 -154.432889725311 0.000816382773160213 -71.6993673619486 0.375296679284999 -133.876396652393 
9.2                            0.21326588457178 128.013322086424 0.530808804706828 163.063855066431 0.49365486550698 34.9330956565645 0.655034609473762 22.9005467800154 
                               0.530808804706822 163.063855066431 0.214615552249004 127.689326283002 0.493178892268024 34.8224584640375 0.654952357417683 -157.287511982432 
                               0.493654865507023 34.9330956565692 0.493178892268108 34.8224584640507 0.716310721136219 96.6081076907597 0.000827156992971926 -75.5737232041252 
                               0.655034609473702 22.9005467800171 0.654952357417794 -157.287511982431 0.000827156992965654 -75.5737232037374 0.376785602733105 -136.561803622916 
9.225                          0.211218961835479 125.273270140939 0.531149864792365 160.319530491965 0.494732821415026 31.471720691884  0.654606715098274 20.053741012252  
                               0.531149864792359 160.319530491966 0.212595671736746 124.952057481738 0.494259683804637 31.3604626861079 0.65451847609256 -160.135105858245 
                               0.494732821415058 31.4717206918872 0.4942596838047  31.3604626861177 0.714816347816311 92.3532782263587 0.000837867160569059 -79.4540351431009 
                               0.654606715098229 20.0537410122533 0.654518476092642 -160.135105858244 0.000837867160563124 -79.4540351428694 0.378279837061598 -139.243039209004 
9.25                           0.209190852754718 122.538865663977 0.531499292162892 157.580885194349 0.495787289443798 28.015621448348  0.654175300355834 17.2138060423839 
                               0.531499292162885 157.580885194349 0.210594450404008 122.220700321172 0.495317146093635 27.9037212563369 0.654081101151175 -162.975799722324 
                               0.495787289443819 28.0156214483499 0.495317146093678 27.9037212563436 0.713348389299126 88.1035172121851 0.00084850699826801 -83.3396447579735 
                               0.654175300355803 17.2138060423848 0.65408110115123 -162.975799722324 0.000848506998262417 -83.3396447578943 0.379779330237512 -141.920181872062 
9.275                          0.207180956876542 119.809654460682 0.531856071321694 154.847732713142 0.496820032621183 24.5648175641192 0.653740349512644 14.3806165832593 
                               0.531856071321688 154.847732713142 0.208611251595979 119.494802392514 0.496353032633612 24.4522533519596 0.653640233697118 -165.809719071709 
                               0.496820032621195 24.5648175641198 0.496353032633636 24.4522533519635 0.711904934532574 83.8591172021173 0.000859070653524696 -87.2299190078619 
                               0.653740349512627 14.3806165832599 0.653640233697149 -165.809719071709 0.000859070653519431 -87.2299190079226 0.381284033467448 -144.593308356791 
9.3                            0.205188545578377 117.085179419371 0.532219115506876 152.11989909551  0.49783288960939 21.119314148848  0.653301844059625 11.5540499645035 
                               0.53221911550687 152.11989909551  0.206645310381995 116.773908200875 0.497369172328556 21.0060636817156 0.653195872097755 -168.636986639368 
                               0.497832889609393 21.1193141488476 0.497369172328563 21.0060636817173 0.710483851409531 79.6203282052599 0.000869552703599556 -91.1242514225983 
                               0.653301844059618 11.5540499645038 0.653195872097765 -168.636986639368 0.000869552703594598 -91.1242514227802 0.382793901229473 -147.262493760849 
9.325                          0.203212771647377 114.364982843144 0.532587274235424 149.397222961483 0.498827768305243 17.6791013722738 0.652859763097698 8.73398607564681 
                               0.532587274235417 149.397222961484 0.204695743174596 114.057561511699 0.498367463103441 17.5651420717655 0.652748012499578 -171.457722498652 
                               0.498827768305239 17.6791013722727 0.498367463103434 17.5651420717653 0.70908280938008 75.3873560737442 0.000879948156074615 -95.0220630890038 
                               0.652859763097699 8.73398607564693 0.652748012499572 -171.457722498652 0.000879948156069939 -95.0220630892845 0.384308891293239 -149.927811602443 
9.35                           0.201252678278375 111.648608591936 0.532959340479161 146.679555540104 0.499806639069456 14.244154098116  0.652414083665523 5.92030730721513 
                               0.532959340479155 146.679555540104 0.20276155676449 111.345307507749 0.499349865149233 14.1294630973773 0.652296649244133 -174.272044163602 
                               0.499806639069448 14.2441540981143 0.499349865149214 14.1294630973756 0.707699301104472 71.1603610393162 0.000890252445458875 -98.9228034357082 
                               0.652414083665531 5.92030730721504 0.652296649244114 -174.272044163603 0.000890252445454467 -98.9228034360627 0.385828964729356 -152.589333885804 
9.375                          0.19930720749063 108.935604048971 0.533334057490845 143.966760680524 0.500771527648089 10.8144315640799 0.651964781015783 3.11289849030921 
                               0.533334057490839 143.966760680525 0.200841656772917 108.636694770754 0.500318393860573 10.6989857611679 0.651841775197105 -177.080066685049 
                               0.500771527648077 10.814431564078  0.500318393860547 10.6989857611653 0.706330663073804 66.9394564016061 0.000900461426151736 -102.825950821716 
                               0.651964781015796 3.11289849030899 0.651841775197077 -177.08006668505 0.000900461426147589 -102.825950822119 0.387354085909018 -155.247131164538 
9.4                            0.197375207971781 106.225521925781 0.533710125299083 141.258714841927 0.501724507847224 7.38987710817262 0.651511828845738 0.311646835150569 
                               0.533710125299079 141.258714841928 0.198934855531078 105.93127710203  0.501275112527237 7.27365321805161 0.651383382002135 -179.881902742492 
                               0.501724507847208 7.38987710817051 0.501275112527205 7.27365321804839 0.704974095146361 62.7247073683589 0.000910571362064177 -106.731012936394 
                               0.651511828845752 0.311646835150256 0.651383382002103 -179.881902742492 0.000910571362060297 -106.73101293682 0.388884222494777 -157.901272602838 
9.425                          0.19545544236399 103.517921920096 0.534086206891163 138.555307065885 0.50266769401883 3.97041794093627 0.651055199487429 -2.48355813098599 
                               0.53408620689116 138.555307065886 0.197039879402756 103.22861519648  0.502222124837322 3.85339254646198 0.65092146026994 177.32233726821  
                               0.502667694018815 3.97041794093417 0.502222124837288 3.85339254645853 0.703626678967791 58.5161300454466 0.000920578913217839 -110.637527020684 
                               0.651055199487445 -2.48355813098635 0.650921460269906 177.32233726821  0.000920578913214245 -110.637527021112 0.390419345423303 -160.55182603456 
9.45                           0.193546594012386 100.812372240881 0.534460934103147 135.85643893463  0.503603233411904 0.555964962685021 0.650594864062556 -5.27282462607727 
                               0.534460934103144 135.85643893463  0.195155375571264 100.528278184408 0.503161567246221 0.438114564889439 0.650455999712359 174.532545151255 
                               0.503603233411889 0.555964962683083 0.503161567246188 0.438114564886044 0.702285395262476 54.3136905722324 0.000930481119653044 -114.545059921105 
                               0.650594864062571 -5.27282462607764 0.650455999712325 174.532545151254 0.000930481119649764 -114.545059921513 0.391959428880939 -163.19885802019 
9.475                          0.191647273199707 98.1084510147844 0.534832913236939 133.162024518513 0.504533298438342 -2.85358737564094 0.65013079260666 -8.05625867556703 
                               0.534832913236937 133.162024518513 0.193279918315601 97.8298450555298 0.504095601260823 -2.97228630769311 0.649986989230033 171.748614831327 
                               0.504533298438327 -2.85358737564268 0.504095601260791 -2.97228630769627 0.700947140001595 50.1173043958157 0.000940275382978995 -118.453207989456 
                               0.650130792606674 -8.05625867556738 0.649986989230001 171.748614831327 0.000940275382976064 -118.45320798983 0.393504450272724 -165.842433901712 
9.5                            0.189756022893863 95.405747588219  0.535200730424383 130.471990315796 0.505460078897901 -6.25836116979045 0.649662954166961 -10.8339641742043 
                               0.535200730424381 130.471990315796 0.191412014803376 95.1329059795407 0.505026405683162 -6.37793214934371 0.649514416961561 168.970442277899 
                               0.505460078897889 -6.25836116979192 0.505026405683134 -6.37793214934642 0.699608739470272 45.9268356758946 0.00094995944589369 -122.361596842159 
                               0.649662954166974 -10.8339641742046 0.649514416961533 168.970442277899 0.000949959445891148 -122.361596842484 0.395054390185562 -168.482617855409 
9.525                          0.187871324036964 92.7038637392813 0.535562956758894 127.786275187781 0.506385774200914 -9.65849511981016 0.64919131687779 -13.6060429472579 
                               0.535562956758894 127.786275187781 0.18955011042982 92.4370635375667 0.505956168852135 -9.77896159276714 0.649038270301136 166.197925433247 
                               0.506385774200904 -9.65849511981134 0.505956168852112 -9.77896159276934 0.698266964271815 41.7420968104349 0.000959531369988444 -126.269880993718 
                               0.6491913168778  -13.6060429472582 0.649038270301112 166.197925433247 0.000959531369986328 -126.269880993985 0.396609232346121 -171.119472942649 
9.55                           0.185991600405489 90.0024148137427 0.535918153215714 125.104830292153 0.507312585621444 -13.0541445503418 0.648715848017282 -16.3725948108961 
                               0.535918153215714 125.104830292153 0.187692593733253 89.7419338788775 0.506887080915862 -13.1755298454644 0.648558535890869 163.430964144027 
                               0.507312585621437 -13.0541445503426 0.506887080915845 -13.1755298454661 0.69691854232134 37.5628480710432 0.000968989512133596 -130.177743379087 
                               0.648715848017289 -16.3725948108963 0.648558535890851 163.430964144027 0.000968989512131939 -130.177743379292 0.398168963573983 -173.753061158678 
9.575                          0.184115223071809 87.3010307994687 0.536264875382557 122.427619017307 0.508242708607375 -16.4454813962042 0.64823651404864 -19.1337176315542 
                               0.536264875382558 122.427619017307 0.185837800917826 87.0471478173421 0.50782132616104 -16.5678086750467 0.648075199593319 160.66946009621  
                               0.508242708607371 -16.4454813962046 0.507821326161029 -16.5678086750477 0.695560170893992 33.3887973359056 0.000978332499718958 -134.084894779608 
                               0.648236514048645 -19.1337176315544 0.648075199593307 160.66946009621  0.000978332499717781 -134.084894779749 0.399733573730522 -176.383443479474 
9.6                            0.182240514497322 84.5993573538447 0.536601678023341 119.754616920321 0.509178325167496 -19.832694155993 0.647753280648997 -21.8895073841438 
                               0.536601678023343 119.754616920321 0.183984020014313 84.3523518823445 0.508761075419277 -19.9559863624767 0.647588246448991 157.913316753204 
                               0.509178325167494 -19.8326941559933 0.508761075419272 -19.9559863624772 0.694188527804523 29.2195999073728 0.000987559204996219 -137.991073166796 
                               0.647753280648999 -21.8895073841438 0.647588246448984 157.913316753204 0.000987559204995533 -137.991073166875 0.401303055663929 -179.010679906722 
9.625                          0.18036575228717 81.8970567991469 0.53692711949872 117.085811671106 0.510121596349275 -23.2159878165041 0.647266112728573 -24.6400582089837 
                               0.536927119498721 117.085811671106 0.182129494709405 81.6572093392359 0.509708478563963 -23.3402676260726 0.647097660622966 155.162439296951 
                               0.510121596349276 -23.2159878165041 0.509708478563963 -23.3402676260726 0.692800281805327 25.0548584007277 0.00099666871874186 -141.896042977651 
                               0.647266112728573 -24.6400582089837 0.647097660622964 155.162439296951 0.000996668718741658 -141.896042977672 0.402877405150741 178.365170489062 
9.65                           0.178489172635999 79.193809101326  0.537239766068424 114.421203005189 0.511074654814627 -26.5955837507938 0.646774974442585 -27.3854624673646 
                               0.537239766068426 114.421203005189 0.180272427873352 78.9614011949306 0.510665657104858 -26.7208735191132 0.646603425344227 152.41673457183  
                               0.51107465481463 -26.5955837507935 0.510665657104863 -26.7208735191128 0.691392102299029 20.894122690368  0.0010056603234292 -145.79959433425 
                               0.646774974442583 -27.3854624673645 0.646603425344229 152.41673457183  0.00100566032342946 -145.799594334222 0.404456620834193 175.744049527185 
9.675                          0.176608973493507 76.4893128483917 0.537538196101913 111.760802687442 0.512039597514687 -29.9717195926423 0.646279829198054 -30.1258107956721 
                               0.537538196101915 111.760802687442 0.178410984815048 76.2646272049822 0.511634696881345 -30.0980413038314 0.646105522840666 149.676111031146 
                               0.512039597514692 -29.9717195926419 0.511634696881355 -30.0980413038307 0.689960668469697 16.7368898995516 0.00101453346606812 -149.701542219386 
                               0.64627982919805 -30.125810795672 0.646105522840672 149.676111031146 0.00101453346606879 -149.701542219317 0.40604070415966 173.125899877158 
9.7                            0.174723317477843 73.783286245536  0.537821004225506 109.10463448895  0.513018478458567 -33.3446490900846 0.645780639657422 -32.8611921580294 
                               0.537821004225508 109.10463448895  0.176543296292918 73.5666068994255 0.512617640849189 -33.4720243044792 0.645603934272293 146.940478686035 
                               0.513018478458574 -33.344649090084 0.512617640849201 -33.4720243044782 0.688502677943679 12.5826044199701 0.00102328773084137 -153.601725618801 
                               0.645780639657417 -32.8611921580293 0.645603934272302 146.940478686035 0.00102328773084239 -153.601725618702 0.407629659307405 170.510665020764 
9.725                          0.172830334564162 71.0754681453524 0.538086805436148 106.452734179079 0.514013301565186 -36.7146419405105 0.645277367740639 -35.5916938974249 
                               0.53808680543615 106.452734179079 0.174667461309155 70.8670806459014 0.513616481949838 -36.8430917419829 0.645098639664674 144.209749056602 
                               0.514013301565193 -36.7146419405098 0.513616481949853 -36.8430917419818 0.687014855097104 8.43065794774324 0.00103192281163818 -157.50000663931 
                               0.645277367740634 -35.5916938974247 0.645098639664684 144.209749056602 0.00103192281163946 -157.500006639192 0.40922349312282 167.898289215742 
9.75                           0.170928124575039 68.3656191330351 0.538334239214092 103.805149534634 0.515026013581726 -40.0819836096385 0.644769974627152 -38.3174017853192 
                               0.538334239214093 103.805149534634 0.172781549714248 68.165810770109  0.514633156045753 -40.211528552505 0.644589617844243 141.483835125109 
                               0.515026013581734 -40.0819836096378 0.514633156045769 -40.2115285525038 0.685493959132481 4.28038952292076 0.00104043848455944 -161.396269610759 
                               0.644769974627147 -38.3174017853191 0.644589617844254 141.483835125109 0.0010404384845609 -161.396269610632 0.410822215044303 165.288717461045 
9.775                          0.169014759498992 65.6535226883249 0.538561973669183 101.161940367832 0.516058497047017 -43.4469751364162 0.644258420759008 -41.0384000697361 
                               0.538561973669184 101.161940367832 0.170883604648231 65.4625827555222 0.515669534900009 -43.5776351919749 0.644076846376744 138.762651291057 
                               0.516058497047024 -43.4469751364156 0.515669534900025 -43.5776351919737 0.683936792051609 0.131085560259855 0.00104883458044467 -165.29042017838 
                               0.644258420759003 -41.038400069736 0.644076846376755 138.762651291057 0.0010488345804462 -165.290420178255 0.412425837028868 162.681895463612 
9.8                            0.167088285663107 62.9389864482755 0.538768709758071 98.5231785745761 0.517112563273255 -46.8099329256117 0.643742665846095 -43.754771521857 
                               0.538768709758072 98.5231785745761 0.168971644844835 62.757206546623  0.516727419173555 -46.9417274283616 0.643560301509727 136.046113328006 
                               0.517112563273261 -46.8099329256112 0.51672741917357 -46.9417274283605 0.682340206656416 -4.01802014011914 0.00105711095744956 -169.182384390762 
                               0.64374266584609 -43.7547715218569 0.643560301509738 136.046113328006 0.00105711095745104 -169.182384390648 0.414034373475582 160.07776960661  
9.825                          0.165146725785841 60.2218435977058 0.538953185612478 95.8889482042931 0.518189945314972 -50.1711885295353 0.643222668874332 -46.4665974811517 
                               0.538953185612479 95.8889482042931 0.1670436668248  60.0495179826956 0.517808531409034 -50.3041361231308 0.643039958119767 133.334138341994 
                               0.518189945314977 -50.1711885295348 0.517808531409047 -50.3041361231298 0.680701114713599 -8.1677464125956 0.00106526747368425 -173.072107787278 
                               0.643222668874329 -46.4665974811516 0.643039958119777 133.334138341994 0.00106526747368557 -173.072107787184 0.415647841146858 157.476286919098 
9.85                           0.163188080936458 57.5019544175677 0.539114181021715 93.2593455522977 0.519292290890027 -53.53108841997  0.642698388117487 -49.173957899088 
                               0.539114181021715 93.2593455522978 0.165097647004995 57.3393803926013 0.518914508965942 -53.6652070029692 0.642515789664772 130.626644731415 
                               0.519292290890031 -53.5310884199696 0.518914508965953 -53.6652070029684 0.679016495422992 -12.3189647856752 0.00107330395990708 -176.959554487538 
                               0.642698388117484 -49.1739578990879 0.642515789664781 130.626644731415 0.00107330395990814 -176.959554487469 0.417266259087629 154.877395047053 
9.875                          0.161210332428398 54.7792080255003 0.539250522115848 90.6344792753036 0.520421155213721 -56.8899937510007 0.642169781153082 -51.876931381475 
                               0.539250522115849 90.6344792753037 0.163131543750861 54.6266863849928 0.520046896868268 -57.0253004224641 0.641987768141593 127.923552148252 
                               0.520421155213724 -56.8899937510004 0.520046896868276 -57.0253004224636 0.677283404333916 -16.4725995893144 0.00108122019225569 179.155293715836 
                               0.64216978115308 -51.876931381475 0.6419877681416  127.923552148252 0.00108122019225638 179.155293715873 0.418889648542412 152.281042225729 
9.9                            0.159211443675168 52.0535243476879 0.539361086299289 88.0144705303084 0.521577993703857 -60.2482801130087 0.641636804882772 -54.5755952294979 
                               0.539361086299289 88.0144705303085 0.161143299401017 51.9113598732693 0.521207140522467 -60.3847911180054 0.641455864048923 125.224781460549 
                               0.521577993703857 -60.2482801130085 0.521207140522471 -60.384791118005 0.675498982858149 -20.6296281163974 0.0010890158649877 175.27243826096  
                               0.641636804882771 -54.5755952294979 0.641455864048927 125.224781460549 0.00108901586498795 175.272438260965 0.420518032870223 149.687177253292 
9.925                          0.157189362039217 49.3248563669281 0.539444807488099 85.3994531366123 0.522764154511746 -63.6063372776575 0.641099415557378 -57.2700254795145 
                               0.539444807488099 85.3994531366124 0.159130842294813 49.193358380356  0.522396578260863 -63.7440679527308 0.640920046355367 122.530254716033 
                               0.522764154511745 -63.6063372776574 0.522396578260864 -63.7440679527307 0.673660468533037 -24.791080843178 0.0010966905631968 171.391864717927 
                               0.641099415557378 -57.2700254795145 0.64092004635537 122.530254716032 0.00109669056319653 171.391864717899 0.422151437457316 147.095749465702 
9.95                           0.155142020706715 46.5931926987606 0.539500681707873 82.7895737601889 0.523980870831837 -66.964568933222 0.640557568806695 -59.9602969416867 
                               0.539500681707872 82.789573760189  0.157092088836163 46.4726756753134 0.523616433663223 -67.1035336518641 0.640380282472425 119.839895106805 
                               0.523980870831834 -66.9645689332221 0.52361643366322 -67.1035336518642 0.671765206193527 -28.9580417116477 0.00110424373546523 167.513543689486 
                               0.640557568806696 -59.9602969416868 0.640380282472426 119.839895106805 0.00110424373546441 167.513543689426 0.423789889627683 144.506708712783 
9.975                          0.153067340624401 43.8585605558225 0.53952777311268 80.1849921189944 0.525229252940766 -70.3233924091217 0.640011219674044 -62.6464832375247 
                               0.539527773112678 80.1849921189945 0.155024945630296 43.7493448020599 0.52486780760743 -70.4636045272984 0.639836538232054 117.153626935035 
                               0.525229252940762 -70.3233924091219 0.524867807607425 -70.4636045272986 0.669810660217684 -33.1316484747376 0.00111167466641309 163.637431714053 
                               0.640011219674046 -62.6464832375248 0.639836538232053 117.153626935035 0.00111167466641171 163.637431713965 0.425433418551264 141.920005335471 
10                             0.150963232538639 41.121029170572  0.539525220489126 77.5858812070696 0.526510279915327 -73.6832383880053 0.639460322655472 -65.3286568364263 
                               0.539525220489124 77.5858812070698 0.152927311734222 41.0234415704156 0.526151669998872 -73.8247101897666 0.639288777868436 114.47137557959  
                               0.526510279915321 -73.6832383880055 0.526151669998863 -73.8247101897669 0.667794428016635 -37.3130931029563 0.00111898244910504 159.763472174808 
                               0.639460322655475 -65.3286568364264 0.639288777868433 114.47137557959  0.00111898244910312 159.763472174697 0.427082055149769 139.335590144171 
10.025                         0.148827599181792 38.3807137585374 0.539492244313044 74.992427534442  0.527824790978076 -77.0445506031974 0.638904831743406 -68.0068890912972 
                               0.539492244313042 74.9924275344421 0.150797081066823 38.2950885915946 0.527468851127406 -77.1872932464016 0.638736964003515 111.793067463563 
                               0.527824790978069 -77.0445506031977 0.527468851127395 -77.187293246402 0.665714254946776 -41.5036222484798 0.00112616595727894 155.891596219372 
                               0.638904831743409 -68.0068890912973 0.638736964003512 111.793067463563 0.00112616595727652 155.891596219243 0.428735832000056 136.753414398212 
10.05                          0.146658337657016 35.637780118733  0.539428154429572 72.4048313788592 0.529173476419159 -80.4077855187637 0.638344700474493 -70.6812502733377 
                               0.53942815442957 72.4048313788594 0.148632145030648 35.5644599546376 0.528820032600666 -80.5518089809329 0.638181057635898 109.118630022656 
                               0.529173476419151 -80.407785518764 0.528820032600654 -80.5518089809333 0.663568050829469 -45.7045377597866 0.00113322381736614 152.021723695311 
                               0.638344700474497 -70.6812502733378 0.638181057635894 109.118630022656 0.00113322381736332 152.021723695171 0.430394783234956 134.173429786365 
10.075                         0.144453342079787 32.8924499854258 0.539332358430249 69.8233070442622 0.530556868043476 -83.7734119888796 0.637779881981313 -73.3518096060849 
                               0.539332358430247 69.8233070442623 0.146430395405002 32.8317866576219 0.530205737802983 -83.9187250131966 0.637621018132679 106.447991674388 
                               0.530556868043468 -83.7734119888799 0.53020573780297 -83.9187250131971 0.6613539082712  -49.917197236638 0.00114015438028111 148.153764107329 
                               0.637779881981317 -73.351809606085 0.637621018132674 106.447991674388 0.00114015438027799 148.153764107187 0.432058944441462 131.595588408367 
10.1                           0.142210506543154 30.1450072667485 0.539204370803176 67.2480831196227 0.531975329093565 -87.1419108925942 0.637210329047575 -76.0186352987992 
                               0.539204370803174 67.2480831196228 0.144189727578799 30.0973629285348 0.531626321830521 -87.2885209340405 0.637056803223822 103.781081788106 
                               0.531975329093557 -87.1419108925945 0.531626321830508 -87.288520934041 0.659070122985116 -54.1430146114453 0.00114695569296776 144.287617602651 
                               0.637210329047579 -76.0186352987993 0.637056803223817 103.781081788107 0.00114695569296447 144.287617602513 0.43372835255619 129.019842757457 
10.125                         0.139927728483938 27.3958053316544 0.539043822934002 64.6794027303075 0.533429043600736 -90.5137747394751 0.636635994166392 -78.6817945792822 
                               0.539043822934   64.6794027303076 0.141908044202315 27.36155359631   0.533081960855351 -90.6616879111005 0.636488368998754 101.117830655793 
                               0.533429043600728 -90.5137747394754 0.533081960855338 -90.6616879111009 0.656715216322621 -58.3834607387972 0.0011536254697021 140.423175991629 
                               0.636635994166395 -78.6817945792823 0.636488368998749 101.117830655793 0.00115362546969879 140.423175991502 0.435403045758011 126.446145703856 
10.15                          0.137602912539428 24.645275538563  0.538850474036311 62.1175237724655 0.534918005120031 -93.889507240999 0.636056829601182 -81.3413537262153 
                               0.538850474036309 62.1175237724656 0.139583259349643 24.6248027038443 0.53457264087428 -94.0387282603017 0.635915669904896 98.4581694636383 
                               0.534918005120024 -93.8895072409993 0.534572640874268 -94.0387282603021 0.654287960231056 -62.6400639700417 0.00116016106316507 136.560323811173 
                               0.636056829601186 -81.3413537262154 0.635915669904892 98.4581694636384 0.0011601610631619 136.560323811064 0.437083063357766 123.874450479187 
10.175                         0.135233974998667 21.8939372382565 0.538624223089708 59.5627191190637 0.536442004808777 -97.2696228419161 0.635472787448735 -83.9973781011035 
                               0.538624223089706 59.5627191190637 0.137213303298702 21.8876435932689 0.53609814580241 -97.4201549773045 0.635338658747922 95.8020302644011 
                               0.536442004808772 -97.2696228419164 0.5360981458024  -97.4201549773048 0.651787404859694 -66.9144106842303 0.00116655943531624 132.698939439127 
                               0.635472787448738 -83.9973781011036 0.635338658747918 95.8020302644012 0.00116655943531339 132.698939439041 0.438768445684959 121.304710661788 
10.2                           0.132818848969908 19.1424095320805 0.538365121862077 57.0152767840823 0.538000618813829 -100.654646205174 0.634883819703938 -86.6499321799107 
                               0.538365121862076 57.0152767840823 0.134796128053689 19.1507107411921 0.537658044876797 -100.80649122247 0.634757286693627 93.1493459505247 
                               0.538000618813825 -100.654646205174 0.53765804487679 -100.806491222471 0.649212909040909 -71.2081457403485 0.0011728171281184 128.838896268194 
                               0.63488381970394 -86.6499321799108 0.634757286693624 93.1493459505247 0.00117281712811601 128.838896268134 0.440459233971343 118.736880162895 
10.225                         0.130355490406711 16.3914251267846 0.538073389088965 54.4755000290299 0.539593194939383 -104.04511164334 0.6342898783257  -89.2990795844664 
                               0.538073389088964 54.4755000290299 0.132329713756442 16.4147536804436 0.539251679342325 -104.198269752274 0.63417150327138 90.5000502280293 
                               0.539593194939382 -104.04511164334 0.539251679342321 -104.198269752274 0.64656417387535 -75.5229728084448 0.00117893023418528 124.980063948566 
                               0.634289878325701 -89.2990795844664 0.634171503271379 90.5000502280293 0.0011789302341835 124.980063948536 0.442155470231298 116.17091321365  
10.25                          0.127841885160441 13.6418467026685 0.537749425877203 51.9437073933224 0.541218838575586 -107.4415624888  0.633690915303555 -91.9448831137255 
                               0.537749425877202 51.9437073933224 0.129812076159209 13.6806534181328 0.540878148400272 -107.596032289441 0.633581256379218 87.8540775911666 
                               0.541218838575586 -107.4415624888  0.540878148400272 -107.596032289441 0.643841279648429 -79.8606545289171 0.0011848943674504 121.122309708894 
                               0.633690915303556 -91.9448831137255 0.633581256379218 87.8540775911666 0.00118489436744936 121.122309708894 0.443857197138912 113.606764352928 
10.275                         0.125276057257605 10.8946863063462 0.53739383239143 49.4202326271982 0.542876397878231 -110.844550394397 0.633086882724493 -94.5874047749556 
                               0.537393832391429 49.4202326271981 0.127241275362931 10.9494418516253 0.542536294410134 -111.000328823442 0.632986492290761 85.2113632978396 
                               0.542876397878233 -110.844550394397 0.542536294410138 -111.000328823442 0.641044726298933 -84.2230124396963 0.00119070463398364 117.265499765742 
                               0.633086882724494 -94.5874047749556 0.632986492290763 85.2113632978396 0.00119070463398342 117.265499765771 0.445564457901666 111.044388415909 
10.3                           0.12265607863813 8.15112839903208 0.537007425870436 46.9054245027014 0.544564448201995 -114.254634555506 0.632477732839519 -97.2267058149266 
                               0.537007425870435 46.9054245027013 0.124615426063832 8.22232479962495 0.544224687347402 -114.411716832364 0.632387155664208 82.5718433457805 
                               0.544564448202   -114.254634555506 0.544224687347409 -114.411716832363 0.638175477647677 -88.6119266002542 0.00119635560311548 113.409500832215 
                               0.632477732839518 -97.2267058149266 0.63238715566421 82.5718433457805 0.00119635560311614 113.40950083227  0.447277296130629 108.483740523402 
10.325                         0.119980080637268 5.41255734324147 0.536591260004716 44.3996464748846 0.546281275803951 -117.672380843985 0.631863418129514 -99.8628467511703 
                               0.536591260004715 44.3996464748844 0.12193270959893 5.50070941192659 0.545941608534287 -117.830760416556 0.631783189553806 79.9354544494792 
                               0.546281275803957 -117.672380843985 0.545941608534297 -117.830760416556 0.635235009572821 -93.0293348291384 0.00120184127906611 109.554181736919 
                               0.631863418129513 -99.8628467511702 0.63178318955381 79.9354544494791 0.00120184127906764 109.554181736997 0.448995755707064 105.924776071841 
10.35                          0.117246267552097 2.6805903051193  0.536146645686561 41.9032761617739 0.54802486085096 -121.09836084385 0.631243891369966 -102.495887403376 
                               0.53614664568656 41.9032761617737 0.119191388140734 2.78623690781174 0.547685033677237 -121.258029333922 0.631174535424268 77.30213401785   
                               0.548024860850967 -121.09836084385 0.54768503367725 -121.258029333922 0.632225362286636 -97.4772314580101 0.00120715507331858 105.699415164929 
                               0.631243891369965 -102.495887403376 0.631174535424273 77.3021340178499 0.00120715507332093 105.699415165023 0.450719880645335 103.367450723955 
10.375                         0.114452932707328 -0.0428832004083134 0.535675173118717 39.4167046078575 0.549792859784069 -124.533150778045 0.630619105694179 -105.125886924984 
                               0.535675173118717 39.4167046078572 0.11638982146666 0.0808218318442545 0.5494526152646  -124.69409792619 0.630561133168712 74.6718201326156 
                               0.549792859784078 -124.533150778045 0.549452615264615 -124.694097926189 0.629149196823394 -101.957665489856 0.00121228977802262 101.845079532907 
                               0.630619105694177 -105.125886924984 0.630561133168718 74.6718201326155 0.00121228977802569 101.845079533012 0.452449714952011 100.811720400031 
10.4                           0.111598477529369 -2.75565357084995 0.535178735236352 36.9403352919697 0.551582587115585 -127.977330315251 0.629989014654589 -107.752903835034 
                               0.535178735236352 36.9403352919695 0.113526486824654 -2.6133006764814 0.551241664400294 -128.139543925118 0.629942921130815 72.0444515273841 
                               0.551582587115594 -127.977330315251 0.551241664400312 -128.139543925118 0.62600985578676 -106.472738032165 0.00121723754076849 97.9910610109245 
                               0.629989014654587 -107.752903835034 0.629942921130821 72.044451527384  0.00121723754077214 97.9910610110336 0.454185302481042 98.2575412697585 
10.425                         0.108681434259717 -5.45513321128145 0.534659552358914 34.4745828365422 0.553390996760214 -131.431481245329 0.629353572281879 -110.376996050319 
                               0.534659552358914 34.474582836542  0.110600002540328 -5.29351770391323 0.553049132175082 -131.59494712723 0.629319836131944 69.4199675673823 
                               0.553390996760224 -131.431481245329 0.5530491321751  -131.59494712723 0.622811428324024 -111.024598857444 0.00122198984112854 94.1372557038913 
                               0.629353572281877 -110.376996050319 0.62931983613195 69.4199675673823 0.00122198984113255 94.1372557039971 0.455926686784868 95.7048697445786 
10.45                          0.105700493098558 -8.13828593796463 0.534120197942702 32.0198713714181 0.55521466303083 -134.896186011863 0.628712733141598 -112.998220917894 
                               0.534120197942702 32.0198713714179 0.107609156172382 -7.95676905989118 0.554871590706113 -135.0608879255  0.628691813504117 66.7983082298039 
                               0.55521466303084 -134.896186011863 0.554871590706131 -135.060887925499 0.619558819189929 -115.61544192373 0.00122653746942853 90.2835720057487 
                               0.628712733141596 -112.998220917894 0.628691813504123 66.7983082298039 0.00122653746943266 90.2835720058445 0.457673910961319 93.1536624705155 
10.475                         0.102654534781305 -10.8015404349905 0.533563625250754 29.5766325019447 0.55704976146213 -138.372026090158 0.628066452388046 -115.616635247984 
                               0.533563625250754 29.5766325019445 0.104552938236107 -10.5994623501544 0.556705214008121 -138.537945686383 0.628058787129732 64.1794140847156 
                               0.557049761462139 -138.372026090158 0.556705214008137 -138.537945686383 0.616257821630492 -120.247499666976 0.00123087050828086 86.4299331396741 
                               0.628066452388044 -115.616635247984 0.628058787129737 64.1794140847155 0.00123087050828483 86.429933139754  0.459427017496138 90.603876321416  
10.5                           0.0995426698748294 -13.4406835382992 0.53299319469327 27.1453028281131 0.558892049661818 -141.859580199289 0.627414685815231 -118.232295347328 
                               0.532993194693269 27.145302828113  0.101430582798996 -13.2173686284384 0.558545758895931 -142.026696960752 0.627420689489048 61.5632262764578 
                               0.558892049661826 -141.859580199289 0.558545758895946 -142.026696960752 0.612915193652625 -124.923035856006 0.00123497831748698 82.576279897482  
                               0.627414685815229 -118.232295347328 0.627420689489052 61.5632262764577 0.0012349783174905 82.576279897541  0.461186048100925 88.0554683925512 
10.525                         0.0963642864652658 -16.050727823646 0.532412701518796 24.7263209593605 0.560736848428987 -145.359422337156 0.626757389904745 -120.845257052989 
                               0.532412701518796 24.7263209593604 0.0982416166357218 -15.8054934311966 0.560388546157943 -145.527713517676 0.626777451716477 58.9496865054617 
                               0.560736848428994 -145.359422337156 0.560388546157956 -145.527713517676 0.609538737043989 -129.644336779863 0.00123884952299666 78.7225735910852 
                               0.626757389904745 -120.845257052989 0.62677745171648 58.9496865054617 0.00123884952299944 78.7225735911199 0.462951043546299 85.50839599452   
10.55                          0.0931191084375027 -18.6257462280966 0.531826403453307 22.3201239686628 0.562579023422921 -148.872119628201 0.62609452187047 -123.455575766668 
                               0.531826403453307 22.3201239686627 0.0949859191521719 -18.3579164041088 0.562228442283677 -149.041560190719 0.626129003666787 56.3387370103933 
                               0.562579023422926 -148.872119628201 0.562228442283685 -149.041560190719 0.606137378264919 -134.41370051801 0.00124247201069542 74.868799228293  
                               0.62609452187047 -123.455575766668 0.626129003666789 56.3387370103934 0.00124247201069718 74.8687992283016 0.46472204349001 82.9626166473908 
10.575                         0.089807267278944 -21.1586640691313 0.531239047791293 19.9271432301101 0.564412967712331 -152.398229974468 0.625426039700042 -126.063306489531 
                               0.531239047791293 19.9271432301101 0.0916637960077199 -20.8675905889158 0.56405984207524 -152.568792527403 0.625475273992328 53.7303205505187 
                               0.564412967712334 -152.398229974468 0.564059842075245 -152.568792527403 0.602721250046759 -139.233424027568 0.00124583292587766 71.014968924272  
                               0.625426039700043 -126.063306489531 0.625475273992329 53.7303205505188 0.00124583292587817 71.0149689242547 0.466499086299735 80.4180880750178 
10.6                           0.0864293913669086 -23.6409956059943 0.530655897340465 17.547799586773  0.566232585584648 -155.938299502087 0.624751902193096 -128.668503857585 
                               0.530655897340465 17.5477995867731 0.0882760703658604 -23.3260895589601 0.565876652522021 -156.109954233906 0.624816190232443 51.1243803881756 
                               0.566232585584649 -155.938299502087 0.565876652522021 -156.109954233906 0.59930177219556 -144.105787770685 0.00124891867934945 67.161125558648  
                               0.624751902193098 -128.668503857585 0.624816190232443 51.1243803881758 0.00124891867934853 67.1611255586069 0.468282208870217 77.8747681994627 
10.625                         0.0829867181537078 -26.06250788929  0.530082754510804 15.182497800863  0.568031278046624 -159.492859797095 0.624072068996317 -131.271222177601 
                               0.530082754510804 15.1824978008631 0.0848241971093433 -25.7232867082491 0.567672278369453 -159.665574408901 0.6241516789162  48.5208602712184 
                               0.568031278046622 -159.492859797095 0.567672278369448 -159.665574408901 0.595891729716121 -149.03303760182 0.00125171496118873 63.3073466863918 
                               0.62407206899632 -131.271222177601 0.624151678916198 48.5208602712187 0.00125171496118629 63.3073466863306 0.470071446434376 75.3326151354537 
10.65                          0.07948123674554 -28.4107886238925 0.529525982721311 12.831620246571  0.569801930500258 -163.062424926842 0.623386500635413 -133.871515463599 
                               0.529525982721312 12.8316202465712 0.0813104073491836 -28.0469457657105 0.569439609865359 -163.236164562752 0.623481665679589 45.9197044152886 
                               0.569801930500254 -163.062424926842 0.569439609865351 -163.236164562752 0.592505345940194 -154.017363642646 0.00125420676326936 59.453748708259  
                               0.623386500635417 -133.871515463599 0.623481665679585 45.9197044152889 0.00125420676326542 59.4537487081827 0.471866832367978 72.791587184806  
10.675                         0.0759158713806883 -30.6706865403345 0.528992524176869 10.4955198181557 0.571536903130638 -166.647488246089 0.622695158544144 -136.469437473896 
                               0.528992524176869 10.495519818156  0.0777378934065518 -30.2821945889683 0.571171013219789 -166.822215421171 0.622806075398294 43.3208574857519 
                               0.571536903130632 -166.647488246089 0.571171013219776 -166.822215421171 0.589158347869981 -159.06087589527 0.00125637841172414 55.6004913035742 
                               0.622695158544148 -136.469437473897 0.62280607539829 43.3208574857522 0.00125637841171883 55.600491303489  0.473668397987367 70.2516428307322 
10.7                           0.0722947207009297 -32.8235815975511 0.528489912947042 8.17451204248027 0.573228024593021 -170.248518990378 0.6219980050906  -139.065041748724 
                               0.528489912947044 8.17451204248065 0.0741110485503758 -32.4108449941307 0.572858324364871 -170.424193515858 0.622124832337117 40.7242645791212 
                               0.573228024593013 -170.248518990377 0.572858324364855 -170.424193515858 0.585868020444143 -164.165576387208 0.00125821361057645 51.7477821245025 
                               0.621998005090604 -139.065041748725 0.622124832337112 40.7242645791216 0.00125821361057003 51.7477821244148 0.475476172339729 67.7127407319615 
10.725                         0.0686233741576071 -34.846427419244 0.528026282163704 5.86886640684992 0.574866589633378 -173.865958663299 0.621295003600977 -141.658381648392 
                               0.528026282163706 5.86886640685032 0.0704357817158406 -34.4105093574483 0.574492846647982 -174.042537568753 0.621437860317051 38.1298712037785 
                               0.57486658963337 -173.865958663299 0.574492846647965 -174.042537568753 0.582653245915494 -169.333327709139 0.00125969549780504 47.8958817466027 
                               0.621295003600982 -141.658381648392 0.621437860317045 38.1298712037789 0.00125969549779791 47.8958817465185 0.477290181985269 65.1748397165941 
10.75                          0.0649093364146134 -36.7104891086725 0.527610364051829 3.57879694015373 0.576443361317287 -177.50021722906 0.620586118381134 -144.249510392   
                               0.527610364051831 3.57879694015415 0.0667199360544941 -36.2534499300256 0.576065353132016 -177.677654681238 0.620745082900959 35.5376232597828 
                               0.576443361317279 -177.50021722906 0.576065353131998 -177.677654681238 0.579534524022012 -174.565817904093 0.00126080671511554 44.0451088653554 
                               0.620586118381139 -144.249510392001 0.620745082900954 35.5376232597832 0.00126080671510825 44.0451088652795 0.479110450770624 62.6378987756072 
10.775                         0.0611626046816043 -38.3796764623029 0.527251481425808 1.30445211827017 0.577948578573626 178.848330872902 0.619871314736242 -146.83848109668 
                               0.52725148142581 1.30445211827059 0.0629738526536246 -37.9050804388638 0.577566094207975 178.670083655    0.620046423598706 32.9474670175483 
                               0.577948578573618 178.848330872902 0.577566094207958 178.670083655    0.576533968170168 -179.864521799445 0.00126152949266878 40.1958457225297 
                               0.619871314736247 -146.838481096681 0.620046423598702 32.9474670175486 0.00126152949266198 40.1958457224648 0.480936999592733 60.1018770559369 
10.8                           0.0573964645713804 -39.8083493252271 0.526959529231783 -0.954095796543264 0.579371969778864 175.179350868438 0.619150558988923 -149.425346817336 
                               0.526959529231785 -0.954095796542891 0.059211138631611 -39.3220261210146 0.578984811244362 175.000345702659 0.619341806092474 30.3593490951516 
                               0.579371969778859 175.179350868438 0.578984811244348 175.000345702659 0.573675272475787 174.769340955015 0.00126184574995321 36.3485437396717 
                               0.619150558988927 -149.425346817337 0.61934180609247 30.3593490951518 0.00126184574994767 36.3485437396177 0.482769846152336 57.5667338530524 
10.825                         0.0536285998049756 -40.9384607116219 0.526744944705708 -3.19686182834234 0.580702773111341 171.492551914887 0.618423818496254 -152.010160586869 
                               0.526744944705711 -3.19686182834205 0.0554497236775991 -40.4496504115437 0.58031075700126 171.312843749696 0.618631154482896 27.77321643402   
                               0.580702773111338 171.492551914887 0.580310757001251 171.312843749696 0.570983644277679 169.334850666621 0.00126173721387964 32.5037293287674 
                               0.618423818496257 -152.010160586869 0.618631154482894 27.7732164340202 0.00126173721387619 32.5037293287207 0.48460900469614 55.0324286029469 
10.85                          0.0498826518729804 -41.6959378072899 0.526618664758854 -5.42395956955183 0.58192976438899 167.787691456329 0.617691061666105 -154.59297545684 
                               0.526618664758856 -5.42395956955164 0.0517133216013804 -41.219005111992 0.581532723521062 167.607338469785 0.617914393556499 25.1890162727369 
                               0.581929764388991 167.787691456329 0.58153272352106 167.607338469785 0.568485696716874 163.831434467119 0.00126118555501408 28.6620098423093 
                               0.617691061666107 -154.59297545684 0.617914393556499 25.189016272737  0.00126118555501358 28.6620098422622 0.486454485746626 52.4989208734665 
10.875                         0.04619041571149 -41.9863636191225 0.526592069309276 -7.63561241777958 0.583041293064784 164.064579623644 0.616952257973268 -157.173844538555 
                               0.526592069309278 -7.63561241777949 0.0480334500167927 -41.5433272620311 0.582639078168506 163.883643328214 0.617191449074763 22.6066961186849 
                               0.58304129306479 164.064579623644 0.582639078168513 163.883643328214 0.56620929623016 158.258914249405 0.0012601725426434 24.8240796167412 
                               0.616952257973269 -157.173844538555 0.617191449074765 22.606696118685  0.00126017254264666 24.8240796166822 0.488306295818354 49.9661703549    
10.9                           0.0425949007666539 -41.6905015874841 0.526676909461074 -9.83216445995947 0.584025326987866 160.323083627284 0.616207377975891 -159.752821044507 
                               0.526676909461075 -9.83216445995954 0.0444521853806524 -41.3146426346656 0.583617808426396 160.141628981166 0.616462248084992 20.0262037172424 
                               0.584025326987877 160.323083627284 0.583617808426414 160.141628981166 0.564183360413147 152.617554342901 0.00125868021908377 20.9907260547714 
                               0.616207377975891 -159.752821044507 0.616462248084998 20.0262037172422 0.00125868021909152 20.9907260546852 0.490164437119526 47.4341368497617 
10.925                         0.0391544676229357 -40.6613935441593 0.526885219702843 -12.0140906455579 0.584869506441545 156.56313208272  0.615456393332749 -162.329958330147 
                               0.526885219702843 -12.0140906455581 0.0410257918842021 -40.4020373739243 0.584456575956659 156.381227608447 0.615726719252953 17.4474870182273 
                               0.584869506441561 156.56313208272  0.584456575956688 156.381227608447 0.562437602731832 146.908107278231 0.00125669109329158 17.1628356835438 
                               0.615456393332747 -162.329958330147 0.615726719252962 17.447487018227  0.00125669109330436 17.1628356834126 0.492028907237433 44.902780261694  
10.95                          0.0359480141020769 -38.7273332715198 0.527229213659794 -14.1820058453531 0.585561207839252 152.784719200797 0.614699276821903 -164.905309935922 
                               0.527229213659794 -14.1820058453534 0.0378291342375201 -38.6551874666035 0.585142780306367 152.602437111947 0.614984793217079 14.8704941392839 
                               0.585561207839275 152.784719200796 0.585142780306407 152.602437111946 0.561002222053831 141.131855692775 0.00125418835342039 13.3414001174861 
                               0.614699276821899 -164.905309935922 0.614984793217091 14.8704941392834 0.00125418835343849 13.3414001172911 0.493899698806325 42.37206058343   
10.975                         0.0330803823755224 -35.7096333633069 0.527721163393199 -16.3366723569683 0.586087617294158 148.987908767969 0.613936002361325 -167.478929629531 
                               0.527721163393198 -16.3366723569688 0.0349601022479034 -35.9201352511722 0.585663632473173 148.805325104901 0.614236402963819 12.2951733258878 
                               0.586087617294186 148.987908767968 0.585663632473226 148.8053251049   0.559907536954192 135.290648181548 0.00125115609749006 9.52752184711433 
                               0.613936002361319 -167.478929629531 0.614236402963834 12.2951733258871 0.00125115609751343 9.52752184683785 0.495776799156106 39.8419378837556 
11                             0.0306852293115634 -31.4694928615015 0.528373262792932 -18.4790053975847 0.586435814076868 145.172837834987 0.613166545032086 -170.050871448337 
                               0.52837326279293 -18.4790053975853 0.0325417542987028 -32.0779123384681 0.586006238343552 144.99003261058  0.613481484223475 9.72147290764527 
                               0.586435814076902 145.172837834986 0.586006238343614 144.990032610579 0.559183567208768 129.386926740811 0.00124757958080319 5.72241976858408 
                               0.613166545032079 -170.050871448336 0.613481484223494 9.72147290764449 0.00124757958083138 5.72241976821306 0.497660189940126 37.3123722934228 
11.025                         0.028919379833384 -25.9958275306141 0.529197476243537 -20.6100761228683 0.586592863739388 141.339720027405 0.612390881104707 -172.621189741862 
                               0.529197476243533 -20.610076122869 0.0307174826874659 -27.1142932464433 0.586157691781276 141.156777383841 0.61271997588567 7.14934125055116 
                               0.586592863739426 141.339720027403 0.586157691781346 141.15677738384  0.558859567749819 123.423743424896 0.00124344547817217 1.92743436372427 
                               0.612390881104699 -172.621189741861 0.61271997588569 7.14934125055021 0.00124344547820425 1.927434363254   0.499549846740228 34.7833239899692 
11.05                          0.0279406274567536 -19.5155575572232 0.53020537444246 -22.7311117335514 0.586545920415184 137.488848387676 0.611608988069289 -175.18993921431 
                               0.530205374442456 -22.7311117335522 0.0296330067162258 -21.2074493262285 0.586105176875649 137.305856765367 0.611951820433299 4.57872670486675 
                               0.586545920415224 137.488848387674 0.586105176875725 137.305856765366 0.558963523492079 117.404763977181 0.00123874215842571 -1.85596756291462 
                               0.61160898806928 -175.189939214309 0.61195182043332 4.57872670486571 0.00123874215846023 -1.85596756347589 0.50144573864707 32.2547531814116 
11.075                         0.027867351329879 -12.5440465831501 0.531407959983291 -24.8434922808603 0.586282337509954 133.620597657094 0.610820844670044 -177.757174967024 
                               0.531407959983286 -24.8434922808612 0.0294034393647079 -14.7755369903533 0.58583607856413 133.437649976879 0.611176964393638 2.00957754827454 
                               0.586282337509994 133.620597657093 0.585836078564206 133.437649976877 0.559521616647149 111.334256531478 0.00123345996806998 -5.62618868444098 
                               0.610820844670036 -177.757174967023 0.611176964393659 2.00957754827344 0.00123345996810498 -5.62618868506697 0.503347827813617 29.7266200887893 
11.1                           0.0287371993779335 -5.77371978261825 0.53281548605048 -26.9487438611537 0.585789785683029 129.735425906664 0.610026430944856 179.677047459182 
                               0.532815486050475 -26.9487438611545 0.0300772998760777 -8.40635037431529 0.585338100529808 129.552619766414 0.610395358804929 -0.558158076035655 
                               0.585789785683067 129.735425906662 0.585338100529879 129.552619766412 0.560557681177912 105.217064021608 0.00122759152041433 -9.38149758231274 
                               0.610026430944848 179.677047459183 0.610395358804949 -0.558158076036765 0.00122759152044731 -9.38149758295396 0.505256068979556 27.1988849275465 
11.125                         0.0304946570414509 0.169832840591437 0.53443727226151 -29.0485279987558 0.58505637669526 125.833875429667 0.609225728270478 177.112672041923 
                               0.534437272261505 -29.0485279987565 0.0316205897846223 -2.67239731268832 0.584599388950619 125.651313316444 0.609606959696594 -3.12453222669463 
                               0.585056376695291 125.833875429665 0.584599388950678 125.651313316443 0.562092661613169 99.0585596727735 0.00122113198596749 -13.1200258958967 
                               0.609225728270471 177.112672041924 0.609606959696611 -3.12453222669563 0.0012211319859955 -13.1200258964755 0.50717040896426 24.6715078877534 
11.15                          0.0330174393170057 4.91928748342627 0.536281522289041 -31.1446271515667 0.584070791378102 121.916572815393 0.608418719414001 174.54964223544  
                               0.536281522289038 -31.1446271515674 0.0339329753790323 2.04287659495532 0.583608660356492 121.734362334232 0.608811728580881 -5.68959723724033 
                               0.584070791378123 121.916572815392 0.583608660356532 121.73436233423  0.564144095248209 92.8645858401652 0.0012140793795029 -16.8397662723153 
                               0.608418719413997 174.54964223544  0.608811728580892 -5.68959723724116 0.00121407937952266 -16.8397662727216 0.509090786125803 22.1444491131833 
11.175                         0.0361591294834687 8.38453019938021 0.538355148348991 -33.238926431355 0.58282240967471 117.984228133462 0.607605388591193 171.987900929213 
                               0.53835514834899 -33.2389264313555 0.0368826450751475 5.59501734020225 0.582355331547208 117.802482253798 0.608009632953523 -8.25340579530471 
                               0.582822409674719 117.984228133462 0.582355331547221 117.802482253798 0.566725637532347 86.641377442742  0.00120643483891736 -20.5385711881545 
                               0.607605388591193 171.987900929214 0.608009632953527 -8.25340579530526 0.0012064348389254 -20.5385711882438 0.511017129783384 19.6176686792762 
11.2                           0.0397815085585245 10.6569749200916 0.540663607903349 -35.333391801716 0.581301440432982 114.037633171438 0.606785721532303 169.42739040707  
                               0.540663607903353 -35.3333918017163 0.0403374525765206 8.01977073676818 0.580829649253259 113.856470492082 0.607200646800683 -10.8160110282386 
                               0.581301440432973 114.037633171438 0.580829649253238 113.856470492083 0.56984664999403 80.3954722262737 0.0011982028909013 -24.2141527024163 
                               0.606785721532306 169.42739040707  0.607200646800677 -10.8160110282387 0.00119820289089422 -24.2141527020097 0.512949359600405 17.0911265700363 
11.225                         0.043768811897247 11.9051377201873 0.543210757959035 -37.4300451911647 0.57949904840902 110.077658684911 0.605959705555908 166.868052306904 
                               0.543210757959044 -37.4300451911649 0.0441818244395185 9.44561732866731 0.579022817000867 109.897203718307 0.606384751109199 -13.3774665955043 
                               0.579499048408992 110.077658684912 0.579022817000806 109.897203718309 0.573511868290905 74.1336109806728 0.00118939169853421 -27.8640831861746 
                               0.605959705555917 166.868052306903 0.606384751109183 -13.3774665955038 0.00118939169850891 -27.8640831850632 0.514887384925315 14.5647826539312 
11.25                          0.0480294954794831 12.3086071849356 0.545998732118801 -39.5309371247779 0.577407475783648 106.105250638645 0.605127329651377 164.309827581109 
                               0.545998732118816 -39.530937124778 0.0483215135108737 10.0285997994543 0.576927116486653 105.925634114973 0.605561934376853 -15.9378267881577 
                               0.577407475783596 106.105250638648 0.576927116486544 105.925634114978 0.577721164942928 67.8626315353994 0.00118001328623995 -31.4857970596593 
                               0.605127329651392 164.309827581108 0.605561934376823 -15.9378267881565 0.00118001328619401 -31.485797057614 0.516831104087239 12.0385966588794 
11.275                         0.0524926508786422 12.0282775174836 0.549027845046313 -41.6381176226764 0.575020155418843 102.121425439314 0.604288584570468 161.752656457846 
                               0.549027845046336 -41.6381176226765 0.0526819788212465 9.91777796700837 0.574536020691774 101.942784630756 0.604732193119118 -18.4971466357339 
                               0.575020155418766 102.121425439318 0.574536020691614 101.942784630763 0.582469417196945 61.5893607833975 0.00117008373810221 -35.0765935531763 
                               0.60428858457049 161.752656457845 0.604732193119073 -18.497146635732 0.00117008373803422 -35.0765935499646 0.518780403643275 9.51252814643223 
11.3                           0.057103286617728 11.1977241059603 0.552296528253421 -43.7536062256321 0.572331813097514 98.1272641841289 0.603443462928591 159.19647840326  
                               0.552296528253452 -43.7536062256322 0.0572046507317753 9.24184892959188 0.571844295981814 97.949743249359  0.603895532368571 -21.055482020833 
                               0.572331813097412 98.1272641841354 0.571844295981601 97.94974324937   0.587746485590578 55.3205090890935 0.00115962336635414 -38.6336404958994 
                               0.603443462928619 159.196478403258 0.603895532368511 -21.0554820208302 0.00115962336626414 -38.6336404913116 0.520735157574267 6.98653648528508 
11.325                         0.0618181625095791 9.9240394362025  0.555801300132236 -45.8793620773691 0.569338556106922 94.1239059745563 0.6025919593162  156.641232084768 
                               0.555801300132275 -45.8793620773694 0.0618431498472812 8.10672572936176 0.568848090555318 93.9476563232119 0.603051966162883 -23.6128898016938 
                               0.569338556106796 94.1239059745648 0.568848090555056 93.9476563232264 0.593537303527675 49.0625712087831 0.00114865684791354 -42.1539791280196 
                               0.602591959316236 156.641232084766 0.603051966162809 -23.6128898016901 0.00114865684780336 -42.1539791219066 0.522695226425776 4.46058082426894 
11.35                          0.0666025808685519 8.29187233263317 0.559536771985703 -48.0172550130409 0.566037945746755 90.1125403693513 0.601734070420785 154.08685533556  
                               0.559536771985748 -48.0172550130413 0.0665601675014689 6.59766214247961 0.565545006824232 89.9377210459308 0.602201518017029 -26.1694279430233 
                               0.566037945746609 90.1125403693619 0.565545006823928 89.9377210459488 0.599822072979769 42.8217373223754 0.00113721332811253 -45.6345299290844 
                               0.601734070420827 154.086855335557 0.60220151801694 -26.1694279430188 0.0011372133279862 -45.6345299214091 0.524660456390874 1.93462006500692 
11.375                         0.0714280585193995 6.36792701227014 0.563495690521836 -50.1690385712574 0.562429051665269 86.0943990753549 0.60086979515985 151.53328512043  
                               0.563495690521887 -50.1690385712581 0.071325104274275 4.78271747387943 0.561934155631279 85.9211771616506 0.601344221375125 -28.7251556553364 
                               0.562429051665109 86.0943990753671 0.561934155630947 85.9211771616717 0.60657655670116 36.6038170091756 0.00112532649223619 -49.0720994609933 
                               0.600869795159897 151.533285120427 0.601344221375026 -28.7251556553313 0.00112532649210018 -49.0720994518992 0.526630678331376 -0.591387165558436 
11.4                           0.076270683780526 4.2049319245614  0.567669015943091 -52.3363257646249 0.558512486342813 82.0707469968279 0.599999134825284 148.980457503101 
                               0.567669015943144 -52.3363257646259 0.0761123539508043 2.71619992291678 0.558016190624661 81.8992980316637 0.600480120037049 -31.2801335430335 
                               0.55851248634265 82.0707469968412 0.55801619062432 81.8992980316868 0.613772453433825 30.4141780864158 0.00111303460709003 -52.4633882405249 
                               0.599999134825332 148.980457503097 0.600480120036946 -31.280133543028 0.00111303460695339 -52.4633882304241 0.528605706734036 -3.11748254252676 
11.425                         0.0811099707350932 1.8448428248332  0.572046033462209 -54.5205683170107 0.55429041853775 78.0428727835316 0.599122093239428 146.428307615164 
                               0.572046033462259 -54.5205683170119 0.0809000807594288 0.441619722656408 0.553793321605314 77.8733811982424 0.599609268554734 -33.8344237614297 
                               0.554290418537598 78.0428727835449 0.553793321604992 77.8733811982657 0.621377839721436 24.2577012659877 0.00110038053650546 -55.8049996861167 
                               0.599122093239476 146.428307615161 0.599609268554634 -33.8344237614242 0.00110038053637979 -55.8049996758005 0.530585338598251 -5.64370807002553 
11.45                          0.0859280636260491 -0.678673818604358 0.576614494885544 -56.7230399141908 0.549766565065865 74.012079033403  0.598238676923165 143.876769626811 
                               0.576614494885586 -56.7230399141921 0.0856693556669103 -2.00593432689464 0.549269306217334 73.8447386011767 0.598731732592835 -36.3880901829211 
                               0.549766565065742 74.0120790334145 0.549269306217069 73.8447386011972 0.629357660266278 18.1387506654186 0.00108741173640261 -59.0934502295417 
                               0.598238676923205 143.876769626808 0.598731732592751 -36.3880901829164 0.0010874117363017 -59.0934502203165 0.532569352251822 -8.17010610751902 
11.475                         0.0907091844846145 -3.33834993272133 0.581360785891239 -58.9448238302378 0.54494616087756 69.9796723167253 0.597348895276226 141.325776719495 
                               0.581360785891265 -58.9448238302388 0.0904035480093655 -4.59793933266271 0.544449419944569 69.8146866136381 0.597847589248236 -38.9411985724492 
                               0.544946160877487 69.9796723167327 0.544449419944407 69.8146866136514 0.637674248245426 12.0611594092397 0.0010741802366945 -62.3251807477489 
                               0.597348895276252 141.325776719493 0.597847589248182 -38.9411985724463 0.00107418023663361 -62.3251807416013 0.53455750609133 -10.6967193951085 
11.5                           0.0954392488156239 -6.11188579685987 0.5862701138452  -61.1868050982309 0.53983590800106 65.9469531946231 0.596452760769965 138.775261060699 
                               0.5862701138452  -61.186805098231 0.095087896653258 -7.31100963022966 0.539340404979565 65.784536069945  0.596956927322631 -41.4938167723991 
                               0.539835908001064 65.9469531946229 0.539340404979563 65.7845360699452 0.646287857548203 6.02822892757059 0.00106074261887137 -65.4965695558955 
                               0.596452760769968 138.775261060699 0.596956927322628 -41.4938167723994 0.00106074261886608 -65.4965695556874 0.536549537243773 -13.2235910774585 
