! Generated from PyAEDT SolutionData; AEDT ExportNetworkData workaround
# GHz S MA R 50
9 0.242662582891 140.194956488 0.515075870428 -179.354042092 0.492952270638 -90.3737198685 0.657882799167 46.1204576379 0.515075870428 -179.354042092 0.242559978872 140.310751175 0.492429416438 -90.3690929365 0.658312064433 -133.846971825 0.492952270638 -90.3737198685 0.492429416438 -90.3690929365 0.717294267101 -168.727674037 0.00051291577019 117.705056257 0.657882799167 46.1204576379 0.658312064433 -133.846971825 0.000512915770192 117.705056257 0.365807579608 -113.82641718
9.025 0.239974586858 137.080992957 0.51429509554 177.808316279 0.495614918274 -94.7842469328 0.657479057555 43.2127623276 0.51429509554 177.808316279 0.239877373759 137.199986889 0.495091186377 -94.7793842096 0.657908984594 -136.754416649 0.495614918274 -94.7842469328 0.495091186377 -94.7793842096 0.713620533618 -174.715763719 0.000517673171633 113.268149132 0.657479057555 43.2127623276 0.657908984594 -136.754416649 0.000517673171638 113.268149132 0.367255788184 -116.547046926
9.05 0.237267714569 133.969385485 0.513493286305 174.981280197 0.49828239123 -99.1927551581 0.65707189079 40.3130464211 0.513493286305 174.981280197 0.237175953976 134.091741735 0.497757873949 -99.1876666727 0.657502438197 -139.653880324 0.49828239123 -99.1927551581 0.497757873949 -99.1876666727 0.709898944384 179.289508904 0.000522566173623 108.825706198 0.65707189079 40.3130464211 0.657502438197 -139.653880324 0.00052256617363 108.825706198 0.368709685331 -119.262765843
9.075 0.234541626557 130.859966585 0.512670972014 172.164826255 0.500953871836 -103.599402827 0.656661280643 37.4211583947 0.512670972014 172.164826255 0.234455356046 130.985855338 0.500428663575 -103.594099014 0.657092415357 -142.545514153 0.500953871836 -103.599402827 0.500428663575 -103.594099014 0.706130685746 173.287760519 0.000527593795557 104.37705327 0.656661280643 37.4211583947 0.657092415357 -142.545514153 0.000527593795562 104.37705327 0.370169243276 -121.973669058
9.1 0.231795991046 127.752567089 0.511828689768 169.358934855 0.503628531525 -108.004345178 0.65624720717 34.53695048 0.511828689768 169.358934855 0.231715223255 127.882165851 0.503102728589 -107.99883689 0.65667890396 -145.429465759 0.503628531525 -108.004345178 0.503102728589 -107.99883689 0.7023167271 167.278601476 0.000532754766202 99.921542714 0.65624720717 34.53695048 0.65667890396 -145.429465759 0.000532754766206 99.9215427141 0.371634436944 -124.679849728
9.125 0.229030482626 124.647015628 0.510966985503 166.563590315 0.506305532965 -112.407734604 0.655829648985 31.6602785214 0.510966985503 166.563590315 0.228955204359 124.780509442 0.505779233356 -112.402033115 0.65626189003 -148.305879215 0.506305532965 -112.407734604 0.505779233356 -112.402033115 0.698457872805 161.261636377 0.000538047531165 95.4585540749 0.655829648985 31.6602785214 0.65626189003 -148.305879215 0.000538047531167 95.458554075 0.373105243857 -127.381399105
9.15 0.226244780908 121.543138115 0.510086414909 163.778780967 0.508984031921 -116.809720872 0.655408583471 28.7910018413 0.510086414909 163.778780967 0.22617495228 121.680719785 0.508457335121 -116.80383789 0.655841358019 -151.174895169 0.508984031921 -116.809720872 0.508457335121 -116.80383789 0.694554807196 155.236464301 0.000543470259682 90.9874945305 0.655408583471 28.7910018413 0.655841358019 -151.174895169 0.000543470259682 90.9874945305 0.374581644033 -130.078406592
9.175 0.223438569164 118.440757212 0.509187544264 161.004499238 0.511663178859 -121.210451369 0.654983986951 25.9289831127 0.509187544264 161.004499238 0.223374122776 118.582627547 0.511136185603 -121.20439904 0.655417291043 -154.036650971 0.511663178859 -121.210451369 0.511136185603 -121.20439904 0.690608133042 149.202678714 0.000549020850855 86.5077991853 0.654983986951 25.9289831127 0.655417291043 -154.036650971 0.000549020850853 86.5077991852 0.376063619882 -132.770959809
9.2 0.220611532936 115.339691787 0.508270951183 158.240741726 0.514342120312 -125.610071363 0.654555834826 23.0740882381 0.508270951183 158.240741726 0.220552373099 115.48605986 0.513814932347 -125.603862278 0.654989671064 -156.891280788 0.514342120312 -125.610071363 0.513814932347 -125.603862278 0.686618403882 143.159867117 0.000554696939441 82.0189312093 0.654555834826 23.0740882381 0.654989671064 -156.891280788 0.000554696939438 82.0189312092 0.377551156091 -135.459144643
9.225 0.217763358625 112.239756364 0.507337225328 155.487509272 0.517019999994 -130.008724288 0.654124101681 20.2261862344 0.507337225328 155.487509272 0.217709360622 112.390839786 0.516492719834 -130.002371482 0.654558479041 -159.738915714 0.517019999994 -130.008724288 0.516492719834 -130.002371482 0.682586150752 137.107610451 0.000560495901276 77.5203818336 0.654124101681 20.2261862344 0.654558479041 -159.738915714 0.000560495901271 77.5203818334 0.379044239525 -138.14304531
9.25 0.214893732041 109.140760546 0.506386969085 152.744807029 0.519695959691 -134.406552031 0.653688761368 17.3851491237 0.506386969085 152.744807029 0.214844741437 109.296785765 0.519168690355 -134.400068992 0.654123695027 -162.579683881 0.519695959691 -134.406552031 0.519168690355 -134.400068992 0.678511903875 131.045482315 0.000566414858429 73.011670209 0.653688761368 17.3851491237 0.654123695027 -162.579683881 0.000566414858424 73.0116702089 0.380542859112 -140.822744403
9.275 0.212002336931 106.042508426 0.505420798242 150.012644547 0.522369139907 -138.803695249 0.653249787075 14.5508518297 0.505420798242 150.012644547 0.211958168932 106.203711051 0.521841984652 -138.797095917 0.653685298257 -165.413710559 0.522369139907 -138.803695249 0.521841984652 -138.797095917 0.674396209903 124.973048009 0.000572450684161 68.4923431371 0.653249787075 14.5508518297 0.653685298257 -165.413710559 0.000572450684155 68.4923431371 0.382047005736 -143.498322949
9.3 0.209088853469 102.944797974 0.504439342703 147.291035857 0.525038680284 -143.200293688 0.652807151376 11.7231720784 0.504439342703 147.291035857 0.209049292332 103.111423124 0.524511742326 -143.193592453 0.6532432672 -168.241118254 0.525038680284 -143.200293688 0.524511742326 -143.193592453 0.670239645334 118.889863435 0.000578600007731 63.9619746788 0.652807151376 11.7231720784 0.6532432672 -168.241118254 0.000578600007725 63.9619746789 0.383556672126 -146.169860455
9.325 0.206152956714 99.8474203997 0.503443247252 144.579999567 0.527703719783 -147.596486512 0.652360826278 8.90199030421 0.503443247252 144.579999567 0.206117755217 100.019723088 0.527177102011 -147.589698219 0.652797579599 -171.062026807 0.527703719783 -147.596486512 0.527177102011 -147.589698219 0.666042826716 112.795473881 0.000584859219121 59.4201656489 0.652360826278 8.90199030421 0.652797579599 -171.062026807 0.000584859219116 59.4201656491 0.385071852755 -148.837434959
9.35 0.203194315043 96.7501594923 0.502433172408 141.879558981 0.530363396615 -151.99241265 0.651910783256 6.0871895598 0.502433172408 141.879558981 0.203163194001 96.9284050433 0.529837201301 -151.985552593 0.65234821249 -173.876553475 0.530363396615 -151.99241265 0.529837201301 -151.985552593 0.661806418252 106.689412688 0.000591224473689 54.8665430021 0.651910783256 6.0871895598 0.65234821249 -173.876553475 0.000591224473685 54.8665430024 0.386592543726 -151.501123077
9.375 0.200212588552 93.6527909241 0.501409795412 139.189742218 0.533016847937 -156.388211143 0.651456993284 3.27865543023 0.501409795412 139.189742218 0.200185236403 93.8372554345 0.532491176429 -156.381295064 0.651895142219 -176.684813025 0.533016847937 -156.388211143 0.532491176429 -156.381295064 0.657531137381 100.571199835 0.000597691696782 50.3007591179 0.651456993284 3.27865543023 0.651895142219 -176.684813025 0.000597691696779 50.3007591183 0.388118742673 -154.161000047
9.4 0.197207427434 90.5550815273 0.50037381136 136.510582361 0.535663209274 -160.784021502 0.650999426866 0.476275950531 0.50037381136 136.510582361 0.197183499878 90.7460523718 0.535138161694 -160.777065587 0.651438344443 -179.486917813 0.535663209274 -160.784021502 0.535138161694 -160.777065587 0.653217758908 94.4403404348 0.000604256588305 45.7224909922 0.650999426866 0.476275950531 0.651438344443 -179.486917813 0.000604256588304 45.7224909926 0.389650448657 -156.817139774
9.425 0.194178470342 87.4567885322 0.499325934536 133.842117615 0.53830161368 -165.179984071 0.65053805406 -2.32005847327 0.499325934536 133.842117615 0.194157590052 87.6545649233 0.537777288606 -165.173004945 0.650977794132 177.717022138 0.53830161368 -165.179984071 0.537777288606 -165.173004945 0.648867118189 88.2963231584 0.000610914627244 41.1314393402 0.650538054061 -2.32005847327 0.650977794132 177.717022138 0.000610914627244 41.1314393407 0.391187662066 -159.469614868
9.45 0.191125342739 84.3576587668 0.498266899976 131.184391485 0.540931190602 -169.576240396 0.650072844511 -5.11045514003 0.498266899976 131.184391485 0.191107099133 84.5625523739 0.540407684753 -169.569255117 0.650513465558 174.92689906 0.540931190602 -169.576240396 0.540407684753 -169.569255117 0.644480113867 82.1386185875 0.000617661076108 36.5273276216 0.650072844511 -5.11045514003 0.650513465558 174.92689906 0.000617661076109 36.5273276222 0.392730384518 -162.11849669
9.475 0.188047655252 81.2574278098 0.497197465294 128.537452971 0.543551064453 -173.972933596 0.649603767469 -7.89501912642 0.497197465294 128.537452971 0.188031604333 81.469763448 0.543028472366 -173.965959647 0.650045332295 172.142607368 0.543551064453 -173.972933596 0.543028472366 -173.965959647 0.640057710598 75.9666775024 0.00062449098527 31.9099009933 0.649603767469 -7.89501912642 0.650045332295 172.142607368 0.000624490985272 31.9099009939 0.394278618762 -164.763855387
9.5 0.184945002031 78.1558190948 0.496118412824 125.901356772 0.546160352859 -178.370208736 0.649130791825 -10.6738533573 0.496118412824 125.901356772 0.184930666299 78.3759354911 0.545638766563 -178.363264018 0.649573367205 169.364043592 0.546160352859 -178.370208736 0.545638766563 -178.363264018 0.635600942147 69.7799291068 0.000631399197145 27.2789251987 0.649130791825 -10.6738533573 0.649573367205 169.364043592 0.000631399197148 27.2789251993 0.39583236859 -167.405759931
9.525 0.181816959129 75.0525429566 0.495030552101 123.276163514 0.548758164565 177.231786798 0.648653886136 -13.4470586736 0.495030552101 123.276163514 0.181803827567 75.2807936051 0.548237673252 177.238683977 0.649097542432 166.591106306 0.548758164565 177.231786798 0.548237673252 177.238683977 0.631110915234 63.5777791922 0.000638380350167 22.6341854035 0.648653886136 -13.4470586736 0.649097542432 166.591106306 0.000638380350171 22.6341854041 0.397391638745 -170.044278154
9.55 0.178663082925 71.9472956116 0.49393472273 120.661939983 0.551343596986 172.832902926 0.648173018654 -16.2147338976 0.49393472273 120.661939983 0.17865061105 72.1840497306 0.550824286684 172.839733862 0.648617829392 163.823696067 0.551343596986 172.832902926 0.550824286684 172.839733862 0.626588814414 57.3596082447 0.000645428882479 17.9754849853 0.648173018654 -16.2147338976 0.648617829392 163.823696067 0.000645428882483 17.9754849859 0.398956434833 -172.679476784
9.575 0.175482908591 68.8397580634 0.492831797687 118.05875936 0.553915733378 168.432986506 0.647688157361 -18.976975897 0.492831797687 118.05875936 0.175470518591 69.0854016689 0.553397686618 168.43973211 0.648134198773 161.061715352 0.553915733378 168.432986506 0.553397686618 168.43973211 0.622035908274 51.1247694972 0.000652539035287 13.3026442873 0.647688157361 -18.976975897 0.648134198773 161.061715352 0.000652539035291 13.3026442878 0.400526763238 -175.311421478
9.6 0.172275948635 65.7295949198 0.491722687083 115.466701473 0.556473639595 164.031880967 0.647199269997 -21.7338796455 0.491722687083 115.466701473 0.172263029574 65.9845320323 0.555956935086 164.038521778 0.647646620518 158.305068497 0.556473639595 164.031880967 0.555956935086 164.038521778 0.617453557185 44.8725869331 0.000659704855788 8.61549934557 0.647199269997 -21.7338796455 0.647646620518 158.305068497 0.000659704855792 8.61549934602 0.402102631043 -177.940176853
9.625 0.169041691524 62.6164531086 0.490608342439 112.885853039 0.559016360436 159.629425954 0.646706324092 -24.4855382831 0.490608342439 112.885853039 0.16902759963 62.8811071127 0.558501072737 159.635942153 0.647155063833 155.553661638 0.559016360436 159.629425954 0.558501072737 159.635942153 0.612843222802 38.6023532471 0.000666920199603 3.91390060053 0.646706324092 -24.4855382831 0.647155063833 155.553661638 0.000666920199606 3.91390060092 0.403684045947 179.434193481
9.65 0.165779600425 59.4999604705 0.489489761507 110.316307898 0.561542915535 155.225456978 0.646209287004 -27.2320431735 0.489489761507 110.316307898 0.165763659457 59.774775651 0.561029114726 155.231828405 0.646659497174 152.807402659 0.561542915535 155.225456978 0.561029114726 155.231828405 0.608206479482 32.3133277733 0.000674178732624 -0.802288398522 0.646209287004 -27.2320431735 0.646659497174 152.807402659 0.000674178732627 -0.802288398198 0.405271016191 176.81162689
9.675 0.162489112078 56.3797242104 0.488367993688 107.758167243 0.56405229478 150.81980508 0.64570812595 -29.9734839604 0.488367993688 107.758167243 0.162470613767 56.6651674912 0.563540046148 150.826011249 0.646159888252 150.066201134 0.56405229478 150.81980508 0.563540046148 150.826011249 0.603545027791 26.0047343933 0.000681473932218 -5.53319228474 0.64570812595 -29.9734839604 0.646159888252 150.066201134 0.000681473932221 -5.53319228448 0.406863550484 174.192061692
9.7 0.159169635818 53.2553291773 0.487244146069 105.211539821 0.566543453244 146.412296514 0.645202808038 -32.7099486222 0.487244146069 105.211539821 0.159147840398 53.5518920954 0.566032816966 146.418316632 0.645656204026 147.329968275 0.566543453244 146.412296514 0.566032816966 146.418316632 0.598860710206 19.675759442 0.000688799087685 -10.2789251511 0.645202808038 -32.7099486222 0.645656204026 147.329968275 0.000688799087687 -10.2789251509 0.408461657929 171.575437123
9.725 0.155820552789 50.1263359393 0.486119390129 102.676542104 0.569015305609 142.002752442 0.644693300306 -35.4415235249 0.486119390129 102.676542104 0.155794689603 50.4345368913 0.568506336443 142.008565425 0.645148410709 144.598616885 0.569015305609 142.002752442 0.568506336443 142.008565425 0.594155529145 13.3255496316 0.000696147299924 -15.0395918037 0.644693300306 -35.4415235249 0.645148410709 144.598616885 0.000696147299925 -15.0395918035 0.410065347957 168.961693315
9.75 0.152441215367 46.9922786125 0.484994969148 100.15329843 0.571466720056 137.590988655 0.644179569753 -38.1682934741 0.484994969148 100.15329843 0.152410483558 47.3126654176 0.57095946704 137.596573152 0.644636473762 141.872061305 0.571466720056 137.590988655 0.57095946704 137.596573152 0.589431667431 6.95321002134 0.000703511480226 -19.8152889811 0.644179569753 -38.1682934741 0.644636473762 141.872061305 0.000703511480227 -19.815288981 0.411674630257 166.350771265
9.775 0.149030946828 43.852662391 0.483872206339 97.6419410815 0.573896511609 133.176815317 0.643661583371 -40.8903417655 0.483872206339 97.6419410815 0.148994516107 44.1858152244 0.573391017771 133.182149727 0.6441203579 139.150217367 0.573896511609 133.176815317 0.573391017771 133.182149727 0.584691511274 0.55780206669 0.000710884348156 -24.6061065303 0.643661583371 -40.8903417655 0.6441203579 139.150217367 0.000710884348156 -24.6061065303 0.413289514715 163.742612813
9.8 0.145589041291 40.706960715 0.482752513752 95.1426103077 0.576303434925 128.760036743 0.643139308183 -43.6077502339 0.482752513752 95.1426103077 0.145546052787 41.053495473 0.575799737002 128.76509924 0.643600027088 136.433002352 0.576303434925 128.760036743 0.575799737002 128.76509924 0.579937675893 -5.86165821171 0.00071825842845 -29.4121285291 0.643139308183 -43.6077502339 0.643600027088 136.433002352 0.00071825842845 -29.4121285291 0.414910011349 161.13716062
9.825 0.14211476397 37.5546119947 0.481637401951 92.6554542669 0.578686176512 124.340451204 0.642612711272 -46.3205993013 0.481637401951 92.6554542669 0.142064331159 37.9151841691 0.57818430468 124.345219758 0.643075444545 133.72033494 0.578686176512 124.340451204 0.57818430468 124.345219758 0.575173033831 -12.3062018906 0.000725626046927 -34.2334343472 0.642612711272 -46.3205993013 0.643075444545 133.72033494 0.000725626046926 -34.2334343472 0.41653613025 158.534358136
9.85 0.13860735178 34.3950157909 0.480528490499 90.1806288749 0.581043346379 119.917850773 0.642081759814 -49.0289680237 0.480528490499 90.1806288749 0.138548561487 34.7703249431 0.580543323996 119.922303176 0.642546572741 131.012135173 0.581043346379 119.917850773 0.580543323996 119.922303176 0.570400746076 -18.7769085799 0.000732979325357 -39.0700996362 0.642081759814 -49.0289680237 0.642546572741 131.012135173 0.000732979325357 -39.0700996361 0.41816788152 155.934149586
9.875 0.135066014328 31.2275283242 0.479427519249 87.7182975437 0.583373469095 115.492021218 0.64154642111 -51.7329341374 0.479427519249 87.7182975437 0.134997927799 31.6183232701 0.58287531246 115.496135105 0.6420133734 128.308324407 0.583373469095 115.492021218 0.58287531246 115.496135105 0.565624296055 -25.2749075634 0.000740310175313 -43.9221972406 0.64154642111 -51.7329341374 0.6420133734 128.308324407 0.000740310175312 -43.9221972406 0.419805275223 153.336479943
9.9 0.131489935341 28.0514571521 0.478336360447 85.2686307879 0.585674974295 111.062741933 0.641006662615 -54.4325741033 0.478336360447 85.2686307879 0.131411589378 28.4585419926 0.585178692422 111.066494813 0.641475807498 125.608825277 0.585674974295 111.062741933 0.585178692422 111.066494813 0.560847526556 -31.8013785646 0.000747610290971 -48.7897980227 0.641006662615 -54.4325741033 0.641475807498 125.608825277 0.000747610290971 -48.7897980227 0.421448321323 150.741294907
9.925 0.127878274573 24.8660548101 0.477257031639 82.8318056817 0.587946186604 106.629785934 0.64046245197 -57.1279631515 0.477257031639 82.8318056817 0.127788682725 25.290295973 0.587451781013 106.633155215 0.640933835264 122.913561657 0.587946186604 106.629785934 0.587451781013 106.633155215 0.556074679647 -38.3575520429 0.000754871140926 -53.6729715926 0.64046245197 -57.1279631515 0.640933835264 122.913561657 0.000754871140926 -53.6729715926 0.423097029632 148.148540885
9.95 0.124230170248 21.6705111517 0.476191709344 80.4080051402 0.590185315027 102.192919906 0.639913757026 -59.819175324 0.476191709344 80.4080051402 0.124128324039 22.1128456492 0.589692779556 102.195882922 0.640387416177 120.22245862 0.590185315027 102.192919906 0.589692779556 102.195882922 0.551310439601 -44.9447089153 0.000762083959018 -58.5717869372 0.639913757026 -59.819175324 0.640387416177 120.22245862 0.000762083959018 -58.5717869371 0.424751409762 145.558164969
9.975 0.120544742082 18.4639440504 0.47514274347 77.9974170015 0.59239044181 97.7519043159 0.639360545876 -62.5062835171 0.47514274347 77.9974170015 0.120429612269 18.9253892052 0.591899762442 97.7544383542 0.639836508972 117.535442404 0.59239044181 97.7519043159 0.591899762442 97.7544383542 0.54655997881 -51.5641795769 0.000769239734261 -63.4863129412 0.639360545876 -62.5062835171 0.639836508972 117.535442404 0.000769239734261 -63.4863129412 0.426411471072 142.970114919
10 0.116821094974 15.2453880192 0.474112672403 75.6002328844 0.594559510817 93.3064935994 0.638802786877 -65.1893595236 0.474112672403 75.6002328844 0.116691632797 15.7270529769 0.594070665535 93.3085759336 0.639281071634 114.852440379 0.594559510817 93.3064935994 0.594070665535 93.3085759336 0.541829006644 -58.2173420819 0.000776329199927 -68.416618794 0.638802786877 -65.1893595236 0.639281071634 114.852440379 0.000776329199928 -68.416618794 0.42807722262 140.38433914
10.025 0.113058323398 12.0137801697 0.473104238689 73.2166467911 0.596690315454 88.8564364235 0.638240448676 -67.8684740731 0.473104238689 73.2166467911 0.112913461809 12.5168795955 0.596203274117 88.8580443408 0.638721061406 112.173381006 0.596690315454 88.8564364235 0.596203274117 88.8580443408 0.537123821104 -64.905619326 0.000783342821899 -73.3627742751 0.638240448676 -67.8684740731 0.638721061406 112.173381006 0.000783342821899 -73.362774275 0.429748673115 137.800786666
10.05 0.109255516611 8.76794274167 0.472120405202 70.8468534276 0.598780486211 84.4014760328 0.63767350023 -70.5436968731 0.472120405202 70.8468534276 0.109094171429 9.29381320716 0.598295210454 84.402586866 0.638156434789 109.498193815 0.598780486211 84.4014760328 0.598295210454 84.402586866 0.532451363057 -71.6304750499 0.000790270786401 -78.3248499133 0.63767350023 -70.5436968731 0.638156434789 109.498193815 0.000790270786402 -78.3248499132 0.431425830872 135.219407141
10.075 0.105411764752 5.50656117616 0.471164371662 68.4910462112 0.600827477875 79.9413506884 0.63710191083 -73.2150966486 0.471164371662 68.4910462112 0.10523283568 6.0566808844 0.600343921036 79.941941847 0.637587147551 106.826809363 0.600827477875 79.9413506884 0.600343921036 79.941941847 0.527819272738 -78.3934084702 0.000797102987265 -83.3029170137 0.63710191083 -73.2150966486 0.637587147551 106.826809363 0.000797102987266 -83.3029170136 0.433108703766 132.640150801
10.1 0.101526165934 2.22815634556 0.470239591334 66.1494149331 0.602828556502 75.4757942039 0.636525650113 -75.8827411818 0.470239591334 66.1494149331 0.101328537387 2.8041690279 0.60234666358 75.475843206 0.637013154733 104.159159212 0.602828556502 75.4757942039 0.60234666358 75.475843206 0.52323594803 -85.1959473175 0.000803829012887 -88.2970475454 0.636525650113 -75.8827411818 0.637013154733 104.159159212 0.000803829012888 -88.2970475454 0.434797299187 130.062968456
10.125 0.097597834478 -1.06895095672 0.469349787699 63.8221430479 0.604780786248 71.0045365872 0.635944688078 -78.5466973514 0.469349787699 63.8221430479 0.0973803761044 -0.465206883726 0.604300493886 71.0040210925 0.636434410664 101.495175896 0.604780786248 71.0045365872 0.604300493886 71.0040210925 0.518710603911 -92.039639051 0.000810438133088 -93.307313886 0.635944688078 -78.5466973514 0.636434410664 101.495175896 0.000810438133089 -93.3073138859 0.436491624001 127.487811471
10.15 0.0936259104492 -4.38668589031 0.468498970843 61.5094045582 0.606681016161 66.5273047951 0.635358995099 -81.2070311712 0.468498970843 61.5094045582 0.0933874772043 -3.75314147811 0.606202252669 66.5262026378 0.635850868975 98.8347928936 0.606681016161 66.5273047951 0.606202252669 66.5262026378 0.514253332235 -98.92604 0.00081691928611 -98.3337884152 0.635358995099 -81.2070311712 0.635850868975 98.8347928936 0.000816919286111 -98.3337884151 0.438191684503 124.914631756
10.175 0.0896095706983 -7.72727948652 0.467691453278 59.2113604693 0.608525867087 62.0438236074 0.634768541926 -83.8638078289 0.467691453278 59.2113604693 0.0893490023004 -7.06159081581 0.608048552489 62.0421128298 0.635262482625 96.1779445998 0.608525867087 62.0438236074 0.608048552489 62.0421128298 0.50987516077 -105.856702176 0.000823261066005 -103.376542954 0.634768541926 -83.8638078289 0.635262482625 96.1779445998 0.000823261066006 -103.376542954 0.439897486378 122.343381741
10.2 0.085548041706 -11.0933478502 0.466931864843 56.928154789 0.610311718818 57.5538166284 0.634173299689 -86.5170917245 0.466931864843 56.928154789 0.0852641612046 -10.3928404424 0.609835764944 57.5514755149 0.634669203924 93.5245663024 0.610311718818 57.5538166284 0.609835764944 57.5514755149 0.505588110185 -112.833157497 0.00082945171072 -108.435648041 0.634173299689 -86.5170917245 0.634669203924 93.5245663024 0.00082945171072 -108.435648041 0.441609034662 119.774014365
10.225 0.0814406146125 -14.4879982236 0.466225166289 54.6599100546 0.612034697684 53.0570074222 0.633573239893 -89.1669465082 0.466225166289 54.6599100546 0.0811322257168 -13.749596819 0.611560008291 53.0540145331 0.634070984573 90.8745941547 0.612034697684 53.0570074222 0.611560008291 53.0540145331 0.501405247343 -119.856899176 0.000835479091226 -113.511172045 0.633573239893 -89.1669465082 0.634070984573 90.8745941547 0.000835479091226 -113.511172045 0.443326333695 117.206483057
10.25 0.0772866629918 -17.9149730732 0.465576661091 52.4067223755 0.613690664758 48.5531207877 0.632968334406 -91.8134351189 0.465576661091 52.4067223755 0.076952545651 -17.1351119691 0.613217135697 48.5494549944 0.633467775702 88.2279651514 0.613690664758 48.5531207877 0.613217135697 48.5494549944 0.497340732939 -126.929360045 0.000841330702069 -118.603180103 0.632968334406 -91.8134351189 0.633467775702 88.2279651514 0.000841330702069 -118.603180103 0.445049387089 114.640741725
10.275 0.0730856641824 -21.3788489589 0.464992004981 50.1686559889 0.615275204925 44.0418841812 0.63235855544 -94.4566198214 0.464992004981 50.1686559889 0.0727245676963 -20.5533561796 0.614802724346 44.0375247001 0.632859527924 85.5846171049 0.615275204925 44.0418841812 0.614802724346 44.0375247001 0.493409861178 -134.051887641 0.000846993653763 -123.711732882 0.63235855544 -94.4566198214 0.632859527924 85.5846171049 0.000846993653763 -123.711732882 0.446778197683 112.076744732
10.3 0.06883722541 -24.8853159139 0.464477212634 47.9457373371 0.616783617041 39.523029289 0.631743875525 -97.0965622446 0.464477212634 47.9457373371 0.068447858013 -24.0092616489 0.61631206564 39.5179557166 0.63224619139 82.9444886213 0.616783617041 39.523029289 0.61631206564 39.5179557166 0.489629088817 -141.22571592 0.000852454667502 -128.836885162 0.631743875525 -97.0965622446 0.63224619139 82.9444886213 0.000852454667502 -128.836885162 0.448512767502 109.514446891
10.325 0.0645411166279 -28.4415777903 0.464038660881 45.7379486907 0.618210905464 34.9962937569 0.631124267474 -99.7333234188 0.464038660881 45.7379486907 0.0641221299778 -27.5090732867 0.61774015678 34.9904861047 0.631627715866 80.3075190782 0.618210905464 34.9962937569 0.61774015678 34.9904861047 0.486016050528 -148.4519336 0.000857700072701 -133.978684229 0.631124267474 -99.7333234188 0.631627715866 80.3075190782 0.000857700072701 -133.978684229 0.45025309772 106.953803441
10.35 0.0601973131815 -32.0569389521 0.463683087784 43.5452213565 0.61955177326 30.4614230784 0.630499704337 -102.366963812 0.463683087784 43.5452213565 0.0597472793672 -31.0608655656 0.619081694009 30.4548618071 0.631004050809 77.6736486013 0.61955177326 30.4614230784 0.619081694009 30.4548618071 0.482589557229 -155.731449214 0.000862715807927 -139.13716809 0.630499704337 -102.366963812 0.631004050809 77.6736486013 0.000862715807927 -139.13716809 0.451999188618 104.394770035
10.375 0.0558060534809 -35.7436862813 0.46341758686 41.3674285296 0.6208006174 25.9181726426 0.629870159343 -104.99754337 0.46341758686 41.3674285296 0.0553234308298 -34.6753243344 0.620331067868 25.9108386972 0.630375145462 75.0428180426 0.6208006174 25.9181726426 0.620331067868 25.9108386972 0.479369573742 -163.06495315 0.000867487425817 -144.312363489 0.629870159343 -104.99754337 0.630375145462 75.0428180426 0.000867487425818 -144.312363489 0.453751039541 101.837302726
10.4 0.0513679206585 -39.5184545604 0.463249595708 39.2043778721 0.621951526304 21.3663099437 0.62923560584 -107.625121547 0.463249595708 39.2043778721 0.050851002367 -38.366965854 0.621482360782 21.3581847876 0.629740948957 72.4149689575 0.621951526304 21.3663099437 0.621482360782 21.3581847876 0.476377171965 -170.452877146 0.000872000102633 -149.504283745 0.62923560584 -107.625121547 0.629740948957 72.4149689575 0.000872000102634 -149.504283745 0.455508648854 99.2813579501
10.425 0.0468839644083 -43.4044131463 0.463186878297 37.0558039251 0.622998280097 16.8056169476 0.62859601721 -110.249757348 0.463186878297 37.0558039251 0.0463308000847 -42.1561059031 0.622529347368 16.7966825966 0.629101410434 69.7900435823 0.622998280097 16.8056169476 0.622529347368 16.7966825966 0.473634455712 -177.89535192 0.000876238653104 -154.712926396 0.62859601721 -110.249757348 0.629101410434 69.7900435823 0.000876238653104 -154.712926396 0.457272013899 96.7268925107
10.45 0.0423558936697 -47.4349100443 0.463237500156 34.921360486 0.623934353971 12.235892612 0.627951366782 -112.87150936 0.463237500156 34.921360486 0.0417641667064 -46.0721755974 0.623465497853 12.2261316684 0.628456479169 67.1679848113 0.623934353971 12.235892612 0.623465497853 12.2261316684 0.471164453496 174.607836076 0.000880187551273 -159.93827067 0.627951366782 -112.87150936 0.628456479169 67.1679848113 0.000880187551274 -159.93827067 0.459041130951 94.1738635654
10.475 0.0377864015155 -51.659838114 0.463409795764 32.8006131137 0.624752925046 7.65695555316 0.627301627734 -115.490435789 0.463409795764 32.8006131137 0.037153231572 -50.1595894579 0.624283984982 7.64635123848 0.627806104723 64.5487361734 0.624752925046 7.65695555316 0.624283984982 7.64635123848 0.468990975935 167.05728756 0.000883830958042 -165.180274777 0.627301627734 -115.490435789 0.627806104723 64.5487361734 0.000883830958043 -165.180274777 0.460815995165 91.6222286093
10.5 0.0331797535052 -56.157406662 0.463712327478 30.6930319501 0.625446883147 3.06864684687 0.626646772976 -118.106594492 0.463712327478 30.6930319501 0.0325013661205 -54.4887763138 0.624977694851 3.05718303486 0.627150237095 61.9322418079 0.625446883147 3.06864684687 0.624977694851 3.05718303486 0.467138435086 159.454031431 0.000887152756124 -170.438873046 0.626646772976 -118.106594492 0.627150237095 61.9322418079 0.000887152756125 -170.438873046 0.462596600528 89.0719454602
10.525 0.0285429439983 -61.0574747239 0.464153835462 28.5979850741 0.626008845902 -1.52916704919 0.625986775028 -120.72004301 0.464153835462 28.5979850741 0.0278140919534 -59.17852577 0.625539242055 -1.54150580061 0.626488826898 59.3184464396 0.626008845902 -1.52916704919 0.625539242055 -1.54150580061 0.465631623995 151.799562109 0.000890136593085 -175.713972909 0.625986775028 -120.72004301 0.626488826898 59.3184464396 0.000890136593086 -175.713972909 0.464382939802 86.5229722428
10.55 0.0238882017469 -66.5919909252 0.464743178188 26.5147326289 0.626431178545 -6.13659127032 0.625321605887 -123.330838603 0.464743178188 26.5147326289 0.0231010962825 -64.4457687393 0.625960989549 -6.14981968778 0.625821825544 56.7072953527 0.626431178545 -6.13659127032 0.625960989549 -6.14981968778 0.464495456027 144.095871204 0.000892765933132 178.994548241 0.625321605887 -123.330838603 0.625821825544 56.7072953527 0.000892765933132 178.994548241 0.466175004472 83.975267373
10.575 0.0192391242512 -73.2167383479 0.465489263282 24.4424219814 0.626706018829 -10.7536994395 0.624651236882 -125.939038275 0.465489263282 24.4424219814 0.0183813552541 -70.7311402555 0.626235073605 -10.7678315037 0.625149185442 54.0987343628 0.626706018829 -10.7536994395 0.626235073605 -10.7678315037 0.463754665178 136.345471384 0.00089502411822 173.686846295 0.624651236882 -125.939038275 0.625149185442 54.0987343628 0.00089502411822 173.686846295 0.46797278468 81.4287895428
10.6 0.0146483017354 -81.9497814665 0.466400968705 22.3800841857 0.626825307349 -15.3805305083 0.623975638527 -128.544698806 0.466400968705 22.3800841857 0.0136987750286 -79.0734364938 0.62635343419 -15.3955794246 0.62447086021 51.4927097883 0.626825307349 -15.3805305083 0.62635343419 -15.3955794246 0.463433470445 128.551410316 0.000896894438978 168.363113753 0.623975638527 -128.544698806 0.62447086021 51.4927097883 0.000896894438976 168.363113753 0.469776269159 78.8834977037
10.625 0.0102600927292 -95.4858028454 0.467487054501 20.3266320268 0.626780823601 -20.0170855767 0.62329478036 -131.147876778 0.467487054501 20.3266320268 0.00918430102723 -92.5086585622 0.626307851069 -20.0330637462 0.623786804907 48.8891684189 0.626780823601 -20.0170855767 0.626307851069 -20.0330637462 0.463555209417 120.717272728 0.00089836021582 163.023583097 0.62329478036 -131.147876778 0.623786804907 48.8891684189 0.000898360215818 163.023583097 0.471585445168 76.3393510508
10.65 0.00659633710783 -122.078774163 0.468756065691 18.2808599117 0.626564227977 -24.6633247261 0.622608630792 -133.748628599 0.468756065691 18.2808599117 0.00540726662832 -122.332079834 0.626089985845 -24.6802437192 0.623096976261 46.2880574822 0.626564227977 -24.6633247261 0.626089985845 -24.6802437192 0.464141948455 112.847168921 0.000899404890487 157.668530167 0.622608630792 -133.748628599 0.623096976261 46.2880574822 0.000899404890484 157.668530167 0.47340029841 73.7963090066
10.675 0.00552267631124 -172.942874629 0.470216227171 16.2414458553 0.62616710984 -29.3191639101 0.621917156942 -136.347010529 0.470216227171 16.2414458553 0.00484920272128 176.180090788 0.625691430074 -29.3370344393 0.62240133292 43.6893246078 0.62616710984 -29.3191639101 0.625691430074 -29.3370344393 0.465214078863 104.945708622 0.000900012128029 152.298277506 0.621917156942 -136.347010529 0.62240133292 43.6893246078 0.000900012128024 152.298277507 0.475220812952 71.2543312037
10.7 0.00820608108516 147.004707301 0.471875331881 14.2069557729 0.625581041722 -33.9844719449 0.621220324482 -138.943078697 0.471875331881 14.2069557729 0.00826288841771 138.729097337 0.625103759498 -34.0033038409 0.621699835704 41.0929177884 0.625581041722 -33.9844719449 0.625103759498 -34.0033038409 0.466789910319 97.0179597184 0.000900165929085 146.913197631 0.621220324482 -138.943078697 0.621699835704 41.0929177884 0.000900165929079 146.913197631 0.477046971138 68.7133774684
10.725 0.0124507681975 128.093379843 0.473740623843 12.175850242 0.624797639556 -38.6590676534 0.620518097495 -141.536889122 0.473740623843 12.175850242 0.0128255134788 122.976806854 0.624318594308 -38.6788698412 0.620992447863 38.4987853377 0.624797639556 -38.6590676534 0.624318594308 -38.6788698412 0.468885274176 89.0693922321 0.000899850752036 141.513716162 0.620518097495 -141.536889122 0.620992447863 38.4987853376 0.00089985075203 141.513716163 0.478878753493 66.1734078029
10.75 0.0171581162577 117.245937915 0.47581867804 10.1464938308 0.623808628719 -43.3427172137 0.619810438332 -144.128497728 0.47581867804 10.1464938308 0.0176918472915 113.758912954 0.623327665203 -43.3634976913 0.620279135334 35.906875844 0.623808628719 -43.3427172137 0.623327665203 -43.3634976913 0.471513150009 81.1058087866 0.000899051644337 136.100314783 0.619810438332 -144.128497728 0.620279135334 35.906875844 0.000899051644331 136.100314784 0.480716138615 63.6343823677
10.775 0.0220494301846 109.572718419 0.478115279443 8.11716701371 0.622605915509 -48.0351317715 0.619097307493 -146.717960359 0.478115279443 8.11716701371 0.0226818486578 107.006829547 0.622122884895 -48.0568975897 0.619559866993 33.3171381213 0.622605915509 -48.0351317715 0.622122884895 -48.0568975897 0.474683328754 73.1332636807 0.000897754382054 130.673533954 0.619097307493 -146.717960359 0.619559866993 33.3171381213 0.000897754382047 130.673533954 0.482559103068 61.0962614631
10.8 0.0270346808722 103.397814992 0.480635303781 6.08608060375 0.621181663519 -52.7359653749 0.61837866353 -149.305332787 0.480635303781 6.08608060375 0.0277375511109 101.412010254 0.620696424474 -52.7587226188 0.618834614897 30.7295211545 0.621181663519 -52.7359653749 0.620696424474 -52.7587226188 0.478402124978 65.1579734704 0.000895945616312 125.233975329 0.61837866353 -149.305332787 0.618834614897 30.7295211545 0.000895945616306 125.23397533 0.484407621257 58.5590055106
10.825 0.0320751747311 98.0331692926 0.483382602876 4.05139253967 0.619528374169 -57.4448132902 0.617654462973 -151.890670728 0.483382602876 4.05139253967 0.0328328556912 96.4436205574 0.619040793954 -57.4685670633 0.618103354506 28.1439740411 0.619528374169 -57.4448132902 0.619040793954 -57.4685670633 0.482672149186 57.1862225565 0.000893613025055 119.782303826 0.617654462973 -151.890670728 0.618103354506 28.1439740411 0.000893613025051 119.782303826 0.486261665292 56.0225750337
10.85 0.0371499033603 93.1506880457 0.486359897512 2.01122676336 0.617638970514 -62.1612107618 0.616924660292 -154.474029842 0.486359897512 2.01122676336 0.0379525216116 91.8485887569 0.617148926054 -62.1859651714 0.617366064869 25.5604459287 0.617638970514 -62.1612107618 0.617148926054 -62.1859651714 0.487492148746 49.2242676227 0.000890745468175 114.319249275 0.616924660292 -154.474029842 0.617366064869 25.5604459287 0.000890745468173 114.319249275 0.48812120485 53.4869306371
10.875 0.0422450414 88.5756657461 0.489568680848 -0.0363061683034 0.615506883216 -66.884632271 0.616189207893 -157.055465743 0.489568680848 -0.0363061683036 0.0430856637441 87.4917907273 0.615014262158 -66.9103904161 0.616622728785 22.978885948 0.615506883216 -66.884632271 0.615014262158 -66.9103904161 0.49285692315 41.2782448257 0.000887333143809 108.845607613 0.616189207893 -157.055465743 0.616622728785 22.978885948 0.00088733314381 108.845607613 0.489986207012 50.9520329872
10.9 0.0473500099193 84.207105035 0.493009135302 -2.0930871808 0.613126137442 -71.6144913495 0.615448056159 -159.635034004 0.493009135302 -2.0930871808 0.0482233149859 83.2948698374 0.612630839173 -71.6412553108 0.615873332903 20.3992431431 0.613126137442 -71.6144913495 0.612630839173 -71.6412553108 0.4987573162 33.3540833972 0.0008833677433 103.362241557 0.615448056159 -159.635034004 0.615873332903 20.3992431431 0.000883367743306 103.362241556 0.491856636092 48.4178427893
10.925 0.0524557939227 79.9828531167 0.496680065674 -4.16096600263 0.610491439257 -76.3501409955 0.614701153545 -162.212790155 0.496680065674 -4.16096600263 0.0533573856597 79.209483814 0.609993375879 -76.3779118285 0.615117867773 17.8214663985 0.610491439257 -76.3501409955 0.609993375879 -76.3779118285 0.505180284506 25.4574288094 0.000878842602102 97.8700807165 0.614701153545 -162.212790155 0.615117867773 17.8214663985 0.000878842602113 97.8700807159 0.493732453452 45.8843207663
10.95 0.0575541544534 75.862768243 0.500578850949 -6.24173827555 0.607598259964 -81.0908747345 0.613948446721 -164.788789692 0.500578850949 -6.24173827555 0.0584801806371 75.2043623588 0.60709735721 -81.119652464 0.61435632784 15.2455043666 0.607598259964 -81.0908747345 0.60709735721 -81.119652464 0.512109038671 17.5935779345 0.00087375284373 92.3701211173 0.613948446721 -164.788789692 0.61435632784 15.2455043666 0.000873752843746 92.3701211162 0.495613617298 43.3514276347
10.975 0.062637238334 71.819930576 0.504701416794 -8.33712304835 0.604442916739 -85.8359283553 0.613189880782 -167.36308808 0.504701416794 -8.33712304835 0.063584166592 71.2585303773 0.603939114827 -85.8657119737 0.61358871138 12.6713053952 0.604442916739 -85.8359283553 0.603939114827 -85.8657119737 0.519523250958 9.76742778753 0.000868095513746 86.8634240904 0.613189880782 -167.36308808 0.613588711381 12.6713053952 0.000868095513768 86.8634240888 0.497500082453 40.8191240809
11 0.0676973817124 67.8357528235 0.50904223028 -10.4487412504 0.601022647851 -90.5844823429 0.612425399515 -169.935740752 0.50904223028 -10.4487412504 0.0686618626449 67.3575262302 0.600515902253 -90.6152698108 0.6128150204 10.0988174567 0.601022647851 -90.5844823429 0.600515902253 -90.6152698108 0.527399321171 1.9834385537 0.000861869700758 81.3511145254 0.612425399515 -169.935740752 0.6128150204 10.0988174567 0.000861869700785 81.3511145232 0.499391800114 38.2873707352
11.025 0.0727270156733 63.8971139021 0.513594317717 -12.5780957162 0.597335680742 -95.3356650166 0.611654945745 -172.506803123 0.513594317717 -12.5780957162 0.0737057970078 63.4911776407 0.596825962866 -95.3674532661 0.612035260512 7.52798808213 0.597335680742 -95.3356650166 0.596825962866 -95.3674532661 0.535710690998 -5.75438923277 0.000855076641451 75.8343784702 0.611654945745 -172.506803123 0.612035260512 7.52798808212 0.000855076641482 75.8343784674 0.501288717585 35.756128146
11.05 0.0777186292684 59.9946027031 0.518349305889 -14.7265532825 0.59338129127 -100.088556366 0.610878461736 -175.076330595 0.518349305889 -14.7265532825 0.078708501461 59.6522346331 0.592868589044 -100.121341308 0.611249440817 4.95876429719 0.59338129127 -100.088556366 0.592868589044 -100.121341308 0.544428196289 -13.4425242191 0.000847719806834 70.314460087 0.610878461736 -175.076330595 0.611249440817 4.95876429718 0.000847719806867 70.3144600836 0.503190777984 33.2253567516
11.075 0.0826647666705 56.1214004981 0.523297486252 -16.8953294048 0.589159852538 -104.842192564 0.610095889682 -177.644378575 0.523297486252 -16.8953294048 0.0836625287661 55.8354968109 0.588644170893 -104.875969098 0.610457573831 2.39109256104 0.589159852538 -104.842192564 0.588644170893 -104.875969098 0.553520446404 -21.077901897 0.000839804967139 64.7926579802 0.610095889682 -177.644378575 0.610457573831 2.39109256103 0.000839804967172 64.7926579764 0.505097919919 30.6950168517
11.1 0.0875580454558 52.2725458668 0.528427901041 -19.0854756515 0.584672871878 -109.595571126 0.609307172262 179.788997509 0.528427901041 -19.0854756515 0.0885604845324 52.0372374506 0.584154233109 -109.630333153 0.609659675455 -0.175081295643 0.584672871878 -109.595571126 0.584154233109 -109.630333153 0.562954220033 -28.6579122049 0.000831340233135 59.2703209266 0.609307172261 179.788997509 0.609659675456 -0.175081295652 0.000831340233166 59.2703209228 0.507010077136 28.1650685769
11.125 0.0923911882583 48.4444368438 0.533728449538 -21.2978703269 0.579923014748 -114.347656653 0.608512253261 177.223742178 0.533728449538 -21.2978703269 0.0933950683057 48.2548120811 0.579401458763 -114.383397094 0.608855765028 -2.73981213718 0.579923014748 -114.347656653 0.579401458763 -114.383397094 0.572694867408 -36.1803790759 0.000822336072075 53.7488430507 0.608512253261 177.223742178 0.608855765028 -2.73981213718 0.0008223360721 53.7488430472 0.508927178129 25.6354718575
11.15 0.0971570628217 44.6344847068 0.539186012242 -23.5332123661 0.574914114597 -119.097387102 0.607711078276 174.659799866 0.539186012242 -23.5332123661 0.0981591203774 44.4863852335 0.574389699046 -119.134097918 0.608045865422 -5.30315559803 0.574914114597 -119.097387102 0.574389699046 -119.134097918 0.582706709705 -43.6435339762 0.000812805296964 48.229658496 0.607711078276 174.659799866 0.608045865422 -5.30315559804 0.000812805296981 48.2296584935 0.510849145721 23.1061863908
11.175 0.101848727021 40.840867327 0.544786590143 -25.7920185305 0.569651168043 -123.8436805 0.606903595468 172.097114881 0.544786590143 -25.7920185305 0.102845671766 40.7307349254 0.569123968322 -123.881352716 0.607230003166 -7.86516817049 0.569651168043 -123.8436805 0.569123968322 -123.881352716 0.592953427367 -51.0459853788 0.000802763028432 42.7142356588 0.606903595468 172.097114881 0.607230003166 -7.86516817049 0.000802763028438 42.7142356579 0.512775896586 20.5771716067
11.2 0.106459476323 37.062349474 0.550515455961 -28.0746238306 0.564140315039 -128.58544201 0.606089756381 169.535631341 0.550515455961 -28.0746238306 0.107447995386 36.9871095107 0.563610424174 -128.624065745 0.60640820854 -10.4259073068 0.564140315039 -128.58544201 0.563610424174 -128.624065745 0.603398430197 -58.3866859242 0.000792226629065 37.2040710527 0.606089756381 169.535631341 0.60640820854 -10.4259073068 0.000792226629058 37.2040710543 0.514707340746 18.0483866333
11.225 0.110982891694 33.298149135 0.55635731392 -30.381185002 0.558388804091 -133.321571246 0.605269516804 166.975293108 0.55635731392 -30.381185002 0.111959656759 33.2551205838 0.557856332503 -133.361135745 0.605580515593 -12.985431536 0.558388804091 -133.321571246 0.557856332503 -133.361135745 0.614005203091 -65.6648987587 0.00078121561069 31.7006828849 0.605269516804 166.975293108 0.605580515593 -12.985431536 0.000781215610668 31.70068289 0.516643381003 15.5197902599
11.25 0.115412886366 29.547836103 0.56229646451 -32.7116867825 0.552404942937 -138.050969733 0.604442837673 164.416043707 0.56229646451 -32.7116867825 0.116374562896 29.5346612142 0.551870018094 -138.091463406 0.604746962029 -15.5438005936 0.552404942937 -138.050969733 0.551870018094 -138.091463406 0.624737622393 -72.8801642526 0.000769751515715 26.2056044255 0.604442837673 164.416043707 0.604746962029 -15.5438005936 0.000769751515679 26.2056044352 0.518583912326 12.9913409001
11.275 0.1197437501 25.8112536283 0.568316970659 -35.065950671 0.546198035485 -142.772548392 0.603609685988 161.85782622 0.568316970659 -35.065950671 0.120687008139 25.8258423307 0.545660801444 -142.813958855 0.603907588936 -18.1010755609 0.546198035485 -142.772548392 0.545660801444 -142.813958855 0.635560238857 -80.0322680084 0.000757857774218 20.7203772549 0.603609685988 161.85782622 0.603907588936 -18.1010755609 0.00075785777417 20.72037727 0.520528821175 10.4629965538
11.3 0.123970189834 22.0884568664 0.574402821855 -37.4436458018 0.53977830612 -147.485234946 0.60277003574 159.300583173 0.574402821855 -37.4436458018 0.124891715959 22.1289423604 0.539238922971 -147.527549067 0.603062440331 -20.657319009 0.53977830612 -147.485234946 0.539238922971 -147.527549067 0.64643852417 -87.1212107927 0.000745559539002 15.2465444747 0.60277003574 159.300583173 0.603062440332 -20.657319009 0.000745559538945 15.2465444961 0.522477984763 7.93471476798
11.325 0.128087365816 18.3796637806 0.580538092961 -39.844301539 0.533156812827 -152.18798112 0.601923868823 156.744256395 0.58053809296 -39.8443015391 0.128983875876 18.4443667371 0.532615456048 -152.231185074 0.602211562541 -23.2125951457 0.533156812827 -152.18798112 0.532615456048 -152.231185074 0.657339078963 -94.1471807806 0.000732883501334 9.78564396472 0.601923868823 156.744256395 0.602211562541 -23.2125951456 0.000732883501274 9.78564399296 0.524431270254 5.40645259772
11.35 0.132090922479 14.6852154575 0.586707094762 -42.2673213848 0.526345350817 -156.87976955 0.601071175906 154.188786866 0.586707094762 -42.2673213849 0.132959174801 14.7726149062 0.525802210545 -156.923848871 0.601355003403 -25.7669699598 0.526345350817 -156.87976955 0.525802210545 -156.923848871 0.668229801077 -101.110528294 0.000719857690441 4.33920176524 0.601071175907 154.188786866 0.601355003404 -25.7669699598 0.000719857690385 4.33920180022 0.526388533882 2.8781665668
11.375 0.13597701353 11.005543668 0.59289451369 -44.7119977972 0.519356348552 -161.559620277 0.600211957256 151.634114534 0.59289451369 -44.7119977972 0.136813822345 11.1142531406 0.51881162879 -161.604559926 0.600492811338 -28.3205113637 0.519356348552 -161.559620277 0.51881162879 -161.604559926 0.679080013766 -108.011743048 0.000706511260145 -1.09127434337 0.600211957257 151.634114534 0.600492811338 -28.3205113637 0.000706511260101 -1.09127430259 0.52834962 0.349812628274
11.4 0.139742320898 7.34114411545 0.599085538557 -47.1775275322 0.5122027582 -166.226596763 0.599346223463 149.080178117 0.599085538557 -47.1775275323 0.140544569738 7.4698919544 0.511656675965 -166.27238119 0.59962503428 -30.87328933 0.5122027582 -166.226596763 0.511656675965 -166.27238119 0.689860554271 -114.851433797 0.000692874266207 -6.50430099722 0.599346223463 149.080178117 0.59962503428 -30.87328933 0.000692874266184 -6.50430095276 0.53031436004 -2.17865387433
11.425 0.143384067355 3.69255423221 0.605265972643 -49.6630271537 0.504897942628 -170.879811325 0.598473996058 146.526914876 0.605265972643 -49.6630271537 0.14414872223 3.84016723153 0.504350727052 -170.926424548 0.59875171851 -33.425376025 0.504897942628 -170.879811325 0.504350727052 -170.926424548 0.700543824021 -121.630310178 0.000678977438025 -11.8984250847 0.598473996059 146.526914876 0.59875171851 -33.425376025 0.000678977438029 -11.8984250404 0.532282571393 -4.70727824503
11.45 0.146900022808 0.0603346811954 0.61142232992 -52.1675483867 0.49745556103 -175.51842996 0.597595307992 143.974260371 0.61142232992 -52.1675483867 0.147624144986 0.225724415312 0.496907452435 -175.565855642 0.597872907378 -35.976845937 0.49745556103 -175.51842996 0.496907452435 -175.565855642 0.711103802398 -128.349166495 0.000664851948323 -17.2722292136 0.597595307993 143.974260371 0.597872907379 -35.976845937 0.000664851948359 -17.2722291753 0.534254056189 -7.23610647213
11.475 0.150288504402 -3.55494607053 0.617541914691 -54.6900930375 0.489889455254 179.858323527 0.596710203932 141.422148185 0.617541914691 -54.6900930374 0.150969262648 -3.37279473373 0.489340704198 179.810101989 0.596988639937 -38.5277760007 0.489889455254 179.858323527 0.489340704198 179.810101989 0.721516026686 -135.008867164 0.000650529184357 -22.6243367699 0.596710203932 141.422148185 0.596988639937 -38.5277760007 0.000650529184424 -22.6243367463 0.536228599987 -9.76518526318
11.5 0.153548370715 -7.15272459264 0.623612884369 -57.2296272436 0.48221353874 175.25116408 0.595818740353 138.870509634 0.623612884369 -57.2296272436 0.15418305286 -6.95476318991 0.481664405056 175.202163468 0.596098949472 -41.0782457177 0.48221353874 175.25116408 0.481664405056 175.202163468 0.73175754141 -141.610333518 0.000636040523947 -27.95341654 0.595818740353 138.870509634 0.596098949472 -41.0782457177 0.000636040524033 -27.9534165433 0.538205970364 -12.2945620777
