! Generated from PyAEDT SolutionData; AEDT ExportNetworkData workaround
# GHz S MA R 50
9 0.356174966852 -2.40608311937 0.293472396773 -80.6013611542 0.611513361224 -20.8133225706 0.642701139228 45.4081762216 0.293472396773 -80.6013611542 0.353319493903 -1.99557871951 0.610086107386 -20.8353227578 0.645627004652 -134.704243016 0.611513361224 -20.8133225706 0.610086107386 -20.8353227578 0.503829702122 175.344761495 0.00140779219118 -123.586194703 0.642701139228 45.4081762216 0.645627004652 -134.704243016 0.00140779219118 -123.586194703 0.412430642194 -131.284545994
9.025 0.354488173152 -5.42100197347 0.293230833913 -84.1816281036 0.612976285901 -25.3626259918 0.6423493391 42.5326894993 0.293230833913 -84.1816281036 0.351625956639 -5.00989873239 0.611545881794 -25.3841041626 0.645279220435 -137.580952474 0.612976285901 -25.3626259918 0.611545881794 -25.3841041626 0.500284785031 169.596828851 0.00141630520762 -128.479210928 0.6423493391 42.5326894993 0.645279220435 -137.580952474 0.00141630520766 -128.479210929 0.413521384572 -133.938766272
9.05 0.352854705732 -8.42469699775 0.293023700708 -87.7433785556 0.614387656794 -29.898207065 0.641994237531 39.6650533527 0.293023700708 -87.7433785556 0.349985750539 -8.01311669869 0.612954115405 -29.919174907 0.644928248473 -140.449799716 0.614387656794 -29.898207065 0.612954115405 -29.919174907 0.496826610288 163.86116503 0.00142466686696 -133.361923089 0.641994237531 39.6650533527 0.644928248472 -140.449799716 0.00142466686703 -133.361923092 0.414618801154 -136.587921581
9.075 0.351271768793 -11.41770981 0.292851606992 -91.2871364497 0.615749449693 -34.4201456353 0.64163584666 36.8051257603 0.292851606992 -91.2871364497 0.348396091307 -11.0057677809 0.614312769402 -34.4406148937 0.644574098246 -143.310927047 0.615749449693 -34.4201456353 0.614312769402 -34.4406148937 0.4934548204 158.13884305 0.001432881118 -138.233658993 0.64163584666 36.8051257602 0.644574098246 -143.310927047 0.00143288111809 -138.233658997 0.415722770517 -139.232109963
9.1 0.349736521268 -14.4005419866 0.292714976473 -94.8134413351 0.617063701313 -38.9285458874 0.64127417828 33.9527675197 0.292714976474 -94.8134413351 0.346854151421 -13.9883466663 0.615623865238 -38.948528315 0.644216779554 -146.164473941 0.617063701313 -38.9285458874 0.615623865238 -38.948528315 0.490168417276 152.430788575 0.00144095226732 -143.093834804 0.64127417828 33.9527675197 0.644216779554 -146.164473941 0.00144095226741 -143.093834808 0.416833176306 -141.871427527
9.125 0.348246093072 -17.3736556162 0.292614058535 -98.3228442166 0.61833249449 -43.423533519 0.640909243717 31.1078422293 0.292614058535 -98.3228442166 0.345357076099 -16.9613081191 0.616889469886 -43.4430408266 0.643856302284 -149.010577047 0.61833249449 -43.423533519 0.616889469886 -43.4430408266 0.486965828139 146.737790092 0.0014488849041 -147.941946161 0.640909243717 31.1078422293 0.643856302283 -149.010577047 0.00144888490418 -147.941946165 0.417949907009 -144.505968495
9.15 0.346797599807 -20.337473921 0.292548939666 -101.815903772 0.619557944699 -47.9052531563 0.640541053713 28.2702162614 0.292548939666 -101.815903772 0.343901997728 -19.925067602 0.618111682437 -47.9242969632 0.643492676227 -151.849370208 0.619557944699 -47.9052531563 0.618111682437 -47.9242969632 0.483844970666 141.060509282 0.00145668383973 -152.777559285 0.640541053713 28.2702162614 0.643492676226 -151.849370208 0.0014566838398 -152.777559288 0.419072855744 -147.135825246
9.175 0.345388156106 -23.2923819366 0.292519554432 -105.293182922 0.620742187872 -52.3738660058 0.640169618332 25.4397587284 0.292519554432 -105.293182922 0.342486048961 -22.880001955 0.619292621968 -52.39245779 0.643125910933 -154.680984485 0.620742187872 -52.3738660058 0.619292621968 -52.39245779 0.480803316206 135.399491353 0.00146435406256 -157.600302238 0.640169618332 25.4397587284 0.643125910933 -154.680984485 0.00146435406262 -157.600302241 0.420201920058 -149.761088367
9.2 0.344014887787 -26.2387272392 0.292525695927 -108.755245736 0.621887369444 -56.8295477385 0.639794946871 22.6163414428 0.292525695927 -108.755245736 0.34110637463 -25.8264501243 0.620434416646 -56.847698787 0.642756015595 -157.505548189 0.621887369444 -56.8295477385 0.620434416646 -56.847698787 0.47783795014 129.755175156 0.00147190070766 -162.409856479 0.639794946871 22.6163414428 0.642756015595 -157.505548189 0.00147190070771 -162.409856481 0.421337001735 -152.3818467
9.225 0.342674942965 -29.1768207158 0.292567025678 -112.202654654 0.622995634557 -61.2724865957 0.639417047784 19.7998388717 0.292567025678 -112.202654654 0.339760142635 -28.7647139337 0.62153919399 -61.2902079546 0.642382998965 -160.323186925 0.622995634557 -61.2724865957 0.62153919399 -61.2902079546 0.474945628731 124.127902934 0.00147932904088 -167.205948837 0.639417047784 19.7998388717 0.642382998965 -160.323186925 0.00147932904091 -167.205948839 0.422478006612 -154.99818739
9.25 0.341365502237 -32.1069373691 0.292643082984 -115.635967998 0.62406911935 -65.7028817075 0.639035928614 16.9901280873 0.292643082984 -115.635967998 0.338444553926 -31.6950588931 0.622609072209 -65.7201841319 0.642006869291 -163.134023633 0.62406911935 -65.7028817075 0.622609072209 -65.7201841319 0.472122831984 118.517929562 0.00148664445641 -171.988344015 0.639035928614 16.9901280873 0.642006869291 -163.134023633 0.00148664445643 -171.988344016 0.423624844413 -157.610195944
9.275 0.340083788068 -35.0293171544 0.292753293676 -119.055737765 0.625109943248 -70.1209416119 0.638651595933 14.187088713 0.292753293676 -119.055737765 0.337156851697 -34.6177150391 0.623646152537 -70.137835515 0.641627634285 -165.938178641 0.625109943249 -70.1209416119 0.623646152537 -70.137835515 0.469365812257 112.925431186 0.00149385248653 -176.756837684 0.638651595933 14.187088713 0.641627634285 -165.938178641 0.00149385248654 -176.756837685 0.424777428583 -160.217956272
9.3 0.338827073466 -37.9441658433 0.29289697832 -122.462507666 0.626120202174 -74.5268829603 0.638264055293 11.3906028679 0.29289697832 -122.462507666 0.335894329869 -37.5328778037 0.624652512489 -74.5433783627 0.641245301101 -168.735769718 0.626120202174 -74.5268829603 0.624652512489 -74.5433783627 0.466670638489 107.350513191 0.00150095882218 178.488749749 0.638264055293 11.3906028679 0.641245301101 -168.735769718 0.00150095882218 178.488749749 0.42593567613 -162.821550747
9.325 0.337592690022 -40.8516559104 0.293073359861 -125.856811411 0.627101962589 -78.9209293975 0.637873311173 8.60055510809 0.293073359861 -125.856811411 0.334654340973 -40.4407089086 0.625630199942 -78.9370358757 0.640859876333 -171.526912132 0.627101962589 -78.9209293975 0.625630199942 -78.9370358757 0.464033236083 101.793217448 0.00150796934267 173.748578688 0.637873311173 8.60055510809 0.640859876333 -171.526912132 0.00150796934266 173.748578688 0.427099507487 -165.421060251
9.35 0.336378035395 -43.7519274428 0.293281570748 -129.239171198 0.628057256295 -83.3033106 0.637479366947 5.81683236658 0.293281570748 -129.239171198 0.33343430346 -43.3413372811 0.626581227978 -83.3190372346 0.640471366031 -174.31171871 0.628057256295 -83.3033106 0.626581227978 -83.3190372346 0.461449422529 96.253528818 0.00151489015296 169.022795154 0.637479366947 5.81683236658 0.640471366031 -174.31171871 0.00151489015295 169.022795154 0.428268846364 -168.016564227
9.375 0.335180580288 -46.6450890659 0.293520659559 -132.610096408 0.628988075906 -87.6742614596 0.637082224844 3.03932389242 0.293520659559 -132.610096408 0.332231708539 -46.2348599907 0.627507570386 -87.689616783 0.640079775716 -177.090299902 0.628988075906 -87.6742614596 0.627507570386 -87.689616783 0.458914938987 90.7313808972 0.00152172762681 164.311534884 0.637082224844 3.03932389242 0.640079775716 -177.090299902 0.0015217276268 164.311534885 0.429443619623 -170.60814073
9.4 0.333997874975 -49.5312188876 0.29378959715 -135.970082477 0.629896370928 -92.0340213978 0.636681885917 0.267921188911 0.29378959715 -135.970082477 0.331044126555 -49.1213432027 0.62841115778 -92.0490133414 0.639685110421 -179.862763843 0.629896370928 -92.0340213978 0.62841115778 -92.0490133414 0.456425478061 85.2266610366 0.00152848845398 159.614926709 0.636681885917 0.267921188912 0.639685110421 -179.862763843 0.00152848845397 159.61492671 0.430623757148 -173.195866478
9.425 0.332827555409 -52.4103654549 0.294087282381 -139.319609933 0.630784044367 -96.3828337956 0.636278350021 -2.4974820482 0.294087282381 -139.319609933 0.32986921297 -52.0008231473 0.629293874228 -96.3974696373 0.639287374718 177.37078358 0.630784044367 -96.3828337956 0.629293874228 -96.3974696373 0.453976708063 79.7392146425 0.00153517969014 154.933095237 0.636278350021 -2.4974820482 0.639287374718 177.37078358 0.00153517969013 154.933095238 0.431809191725 -175.779816898
9.45 0.331667348953 -55.2825487241 0.294412547436 -142.659143586 0.6316529498 -100.720945528 0.635871615785 -5.25698999243 0.294412547436 -142.659143586 0.328704713968 -54.8733071025 0.630157554363 -100.735231838 0.638886572773 174.610238663 0.6316529498 -100.720945528 0.630157554363 -100.735231838 0.451564294067 74.2688488091 0.00154180880776 150.266162892 0.635871615785 -5.25698999243 0.638886572774 174.610238663 0.00154180880775 150.266162893 0.432999858934 -178.360066179
9.475 0.330515079753 -58.1477610408 0.294764162779 -145.989131844 0.632504888861 -105.048606585 0.635461680599 -8.01070474776 0.294764162779 -145.989131844 0.327548471714 -57.7387743885 0.631003980885 -105.062549174 0.638482708384 171.855499821 0.632504888861 -105.048606585 0.631003980885 -105.062549174 0.449183916078 68.8153353258 0.00154838374686 145.61425134 0.635461680599 -8.01070474776 0.638482708384 171.855499821 0.00154838374685 145.614251341 0.434195697036 179.063312689
9.5 0.329368673784 -61.0059681285 0.295140841784 -149.310006161 0.633341609075 -109.366069776 0.635048540596 -10.758726409 0.295140841784 -149.310006161 0.326398429296 -60.5971773719 0.631834882424 -109.379673638 0.638075785031 169.106467518 0.633341609075 -109.366069776 0.631834882424 -109.379673638 0.446831284629 63.3784131151 0.00155491296429 140.97748236 0.635048540596 -10.758726409 0.638075785031 169.106467518 0.00155491296428 140.977482361 0.43539664687 176.490247861
9.525 0.32822616358 -63.8571100842 0.295541245063 -152.622180581 0.634164801995 -113.673590494 0.634632190639 -13.5011531215 0.295541245063 -152.622180581 0.325252635358 -63.4484424784 0.632651931695 -113.686859756 0.637665805928 166.363044205 0.634164801995 -113.673590494 0.632651931695 -113.686859756 0.444502154118 57.9577901598 0.0015614054808 136.355978218 0.634632190639 -13.5011531215 0.637665805929 166.363044205 0.0015614054808 136.355978218 0.436602651757 173.920668594
9.55 0.327085692674 -66.7011023795 0.295963984537 -155.926051395 0.634976101597 -117.971426537 0.634212624312 -16.2380811391 0.295963984537 -155.926051395 0.324109248451 -66.2924712108 0.633456743919 -117.984364405 0.63725277407 163.625134253 0.634976101597 -117.971426537 0.633456743919 -117.984364405 0.442192334176 52.5531449788 0.00156787092505 131.749861599 0.634212624312 -16.2380811391 0.63725277407 163.625134253 0.00156787092505 131.7498616 0.437813657404 171.35450521
9.575 0.325945519759 -69.5378368653 0.296407627268 -159.221996868 0.635777082902 -122.259837979 0.633789833915 -18.9696048813 0.296407627268 -159.221996868 0.322966541111 -69.129141173 0.634250875454 -122.272446681 0.636836692277 160.89264389 0.635777082902 -122.259837979 0.634250875454 -122.272446681 0.439897699345 47.1641277152 0.0015743195741 127.159255172 0.633789833915 -18.9696048813 0.636836692277 160.89264389 0.0015743195741 127.159255173 0.439029611818 168.791689044
9.6 0.324804022577 -72.3671827789 0.296870699091 -162.510377055 0.636569260775 -126.539087076 0.63336381046 -21.6958169888 0.296870699091 -162.510377055 0.321822903682 -71.9583070971 0.635035822623 -126.551367812 0.636417563243 158.165481138 0.636569260775 -126.539087076 0.635035822623 -126.551367812 0.437614197324 41.7903608944 0.00158076239017 122.584280832 0.63336381046 -21.6958169888 0.636417563243 158.165481138 0.00158076239017 122.584280832 0.440250465216 166.232152409
9.625 0.323659701567 -75.1889877533 0.297351688066 -165.791533675 0.637354088886 -130.809438198 0.632934543667 -24.4168083775 0.297351688066 -165.791533675 0.320676847896 -74.7798018731 0.635813020678 -130.821391084 0.635995389577 155.44355575 0.637354088886 -130.809438198 0.635813020678 -130.821391084 0.435337856013 36.4314399101 0.00158721105354 118.025058689 0.632934543667 -24.4168083775 0.635995389577 155.44355575 0.00158721105354 118.025058689 0.441476169947 163.675828558
9.65 0.322511183266 -78.0030788267 0.297849047781 -169.06579005 0.638132958793 -135.071157785 0.632502021968 -27.132668291 0.297849047781 -169.06579005 0.319527010226 -77.5934375802 0.636583842907 -135.082781804 0.635570173841 152.726779152 0.638132958793 -135.071157785 0.636583842907 -135.082781804 0.433064789567 31.0869332931 0.00159367799184 113.481705865 0.632502021968 -27.132668291 0.635570173841 152.726779152 0.00159367799184 113.481705865 0.442706680412 161.122651639
9.675 0.321357223493 -80.8092634536 0.298361200517 -172.33345109 0.638907199141 -139.324514328 0.632066232512 -29.8434843514 0.298361200517 -172.33345109 0.318372155018 -80.3990065204 0.637349599836 -139.335807272 0.635141918584 150.01506438 0.638907199141 -139.324514328 0.637349599836 -139.335807272 0.430791203659 25.7563828095 0.00160017640603 108.954335132 0.632066232512 -29.8434843514 0.635141918584 150.01506438 0.00160017640603 108.954335131 0.44394195299 158.572556667
9.7 0.320196710324 -83.6073305164 0.298886540318 -175.594803322 0.639678074937 -143.569778348 0.631627161166 -32.5493426085 0.298886540318 -175.594803322 0.317211177438 -83.1962822536 0.638111538521 -143.580736771 0.634710626376 147.30832603 0.639678074937 -143.569778348 0.638111538521 -143.580736771 0.428513400111 20.439303434 0.00160672029355 104.443053447 0.631627161166 -32.5493426085 0.634710626376 147.30832603 0.00160672029355 104.443053446 0.445181945965 156.02547948
9.725 0.31902866688 -86.3970513395 0.299423435951 -178.850114955 0.640446786902 -147.80722239 0.631184792526 -35.2503275876 0.299423435951 -178.850114955 0.316043106222 -85.985020636 0.638870841911 -147.817841556 0.634276299832 144.606480192 0.640446786902 -147.80722239 0.638870841911 -147.817841556 0.426227781051 15.1351832354 0.00161332446928 99.9479604276 0.631184792526 -35.2503275876 0.634276299832 144.606480192 0.00161332446928 99.9479604272 0.446426619462 153.481356712
9.75 0.317852253929 -89.1781807074 0.29997023381 177.900364025 0.641214470877 -152.037121023 0.630739109926 -37.9465223353 0.29997023381 177.900364025 0.314867106269 -88.7649608635 0.639628628253 -152.047394857 0.633838941637 141.909444405 0.641214470877 -152.037121023 0.639628628253 -152.047394857 0.423930852732 9.84348320628 0.00162000458506 95.4691467828 0.630739109926 -37.9465223353 0.633838941637 141.909444405 0.00162000458506 95.4691467824 0.447675935375 150.940125758
9.775 0.31666677235 -91.9504578899 0.300525260755 174.656401735 0.641982197273 -156.259750841 0.630290095451 -40.6380084642 0.300525260755 174.656401735 0.313682481087 -91.5358265223 0.64038595056 -156.269671875 0.633398554565 139.217137601 0.641982197273 -156.259750841 0.64038595056 -156.269671875 0.421619229115 4.56363706244 0.00162677714843 91.0066927307 0.630290095451 -40.6380084642 0.633398554565 139.217137601 0.00162677714843 91.0066927303 0.448929857311 148.40172474
9.8 0.315471665443 -94.7136076765 0.301086826899 171.417784264 0.642750970556 -160.475390457 0.629837729947 -43.3248661961 0.301086826899 171.417784264 0.312488675107 -94.2973266516 0.641143796092 -160.484949786 0.632955141491 136.529480052 0.642750970556 -160.475390457 0.641143796092 -160.484949786 0.419289635341 -0.704948967013 0.00163365954145 86.5606664198 0.629837729947 -43.3248661961 0.632955141491 136.529480052 0.00163365954144 86.5606664195 0.450188350525 145.866092483
9.825 0.314266521132 -97.4673414275 0.30165322838 168.184315523 0.643521728763 -164.684320503 0.629381993039 -46.0071744033 0.30165322838 168.184315523 0.311285275883 -97.0491568216 0.641903085876 -164.693507738 0.632508705408 133.846393326 0.643521728763 -164.684320503 0.641903085876 -164.693507738 0.41693891116 -5.96289634632 0.00164067004027 82.1311223582 0.629381993039 -46.0071744033 0.632508705408 133.846393326 0.00164067004027 82.1311223579 0.451451381862 143.333168481
9.85 0.313051074063 -100.211358145 0.302222750095 164.955817091 0.644295343024 -168.886823629 0.628922863141 -48.6850106491 0.302222750095 164.955817091 0.310072016206 -99.7910002346 0.642664674238 -168.89562685 0.632059249431 131.167800235 0.644295343024 -168.886823629 0.642664674238 -168.89562685 0.414564014409 -11.210854427 0.00164782783621 77.7180998538 0.628922863141 -48.6850106491 0.632059249431 131.167800235 0.00164782783621 77.7180998536 0.452718919706 140.802892873
9.875 0.311825207616 -102.945345572 0.302793668444 161.732128056 0.645072617117 -173.083184493 0.628460317481 -51.3584512267 0.302793668444 161.732128056 0.308848776137 -102.522528854 0.643429348349 -173.091590205 0.631606776804 128.493624791 0.645072617117 -173.083184493 0.643429348349 -173.091590205 0.412162024603 -16.449500626 0.00165515305882 73.3216214627 0.628460317481 -51.3584512267 0.631606776804 128.493624791 0.00165515305882 73.3216214626 0.453990933925 138.275206415
9.9 0.310588955857 -105.668981331 0.303364254062 158.513104865 0.64585428702 -177.273689758 0.627994332109 -54.0275711976 0.303364254062 158.513104865 0.307615584973 -105.243404576 0.644197827778 -177.281682847 0.631151290903 125.823792163 0.64585428702 -177.273689758 0.644197827778 -177.281682847 0.409730146697 -21.6795405893 0.00166266680148 68.941691438 0.627994332109 -54.0275711976 0.631151290903 125.823792163 0.00166266680147 68.9416914379 0.455267395815 135.750050458
9.925 0.309342505429 -108.381934104 0.303932774568 155.298621176 0.646641020475 178.541371922 0.627524881919 -56.6924444278 0.303932774568 155.298621176 0.306372623174 -107.95328044 0.644970764054 178.53380823 0.630692795238 123.158228631 0.646641020475 178.541371922 0.644970764054 178.53380823 0.407265715081 -26.9017083467 0.00167039114979 64.5782941671 0.627524881919 -56.6924444278 0.630692795238 123.158228631 0.00167039114979 64.5782941671 0.456548278059 133.227366922
9.95 0.308086197401 -111.08386488 0.30449749735 152.088567721 0.647433416557 174.361709903 0.627051940664 -59.3531436238 0.30449749735 152.088567721 0.305120224235 -110.651801915 0.645748740225 174.354594083 0.630231293452 120.49686155 0.647433416557 174.361709903 0.645748740225 174.354594083 0.404766197841 -32.1167664651 0.00167834921306 60.2313925878 0.627051940664 -59.3531436238 0.630231293452 120.49686155 0.00167834921306 60.231392588 0.457833554674 130.707098272
9.975 0.306820529078 -113.774428261 0.305056692365 148.882852187 0.648232005237 170.187031564 0.626575480975 -62.0097403678 0.305056692365 148.882852187 0.303858876531 -113.338608238 0.64653227042 170.18038383 0.62976678932 117.839619303 0.648232005237 170.187031564 0.64653227042 170.18038383 0.402229201354 -37.3255062146 0.00168656515865 55.9009265694 0.626575480975 -62.0097403678 0.62976678932 117.839619303 0.00168656515864 55.9009265696 0.459123200969 128.189187502
10 0.305546155774 -116.453273867 0.305608635011 145.681399118 0.649037246962 166.017042305 0.626095474369 -64.6623051518 0.305608635011 145.681399118 0.302589225117 -116.013333863 0.647321799406 166.010884649 0.629299286752 115.186431271 0.649037246962 166.017042305 0.647321799407 166.010884649 0.39965247523 -42.5287477584 0.00169506424932 51.5868112491 0.626095474369 -64.6623051518 0.629299286752 115.186431271 0.00169506424932 51.5868112494 0.460417193495 125.673578111
10.025 0.304263892535 -119.120047831 0.306151609043 142.484149839 0.649849532216 161.85144555 0.625611891271 -67.3109074105 0.306151609043 142.484149839 0.301312073481 -118.675609992 0.648117702149 161.845801774 0.628828789787 112.537227788 0.649849532216 161.85144555 0.648117702149 161.845801774 0.397033917664 -47.7273403841 0.00170387288316 47.2889353167 0.625611891271 -67.3109074105 0.628828789787 112.537227788 0.00170387288316 47.288935317 0.461715510012 123.160214084
10.05 0.302974715808 -121.774394423 0.306683909581 139.291062406 0.650669181092 157.689942734 0.625124701017 -69.9556155548 0.306683909581 139.291062406 0.300028385232 -121.325066244 0.648920283359 157.684838488 0.628355302599 109.89194011 0.650669181092 157.689942734 0.648920283359 157.684838488 0.394371581223 -52.9221627916 0.00171301863573 43.0071592441 0.625124701017 -69.9556155548 0.628355302599 109.89194011 0.00171301863573 43.0071592444 0.463018129438 120.649039872
10.075 0.301679765034 -124.415957799 0.307203846202 136.102111593 0.651496442861 153.53223329 0.624633871868 -72.5964970034 0.307203846202 136.102111593 0.29873928571 -123.961332451 0.64972977704 153.527696102 0.627878829501 107.250500377 0.651496442861 153.53223329 0.64972977704 153.527696102 0.391663679111 -58.1141234549 0.00172253030392 38.7413134619 0.624633871868 -72.5964970034 0.627878829501 107.250500377 0.00172253030392 38.7413134621 0.464325031816 118.14000038
10.1 0.300380344121 -127.044383915 0.307709746161 132.917288907 0.652331495533 149.378014617 0.624139371012 -75.233618215 0.307709746161 132.917288907 0.297446063466 -126.584040616 0.650546346033 149.374073925 0.627399374947 104.612841582 0.652331495533 149.378014617 0.650546346033 149.374073925 0.388908591959 -63.3041610736 0.00173243795112 34.4911964907 0.624139371012 -75.233618215 0.627399374947 104.612841582 0.00173243795112 34.491196491 0.465636198271 115.633040946
10.125 0.299077922783 -129.659322614 0.308199957735 129.736602652 0.653174445426 145.226982045 0.623641164565 -77.867044719 0.308199957735 129.736602652 0.29615017159 -129.192827052 0.651370081549 145.223669225 0.626916943551 101.978897535 0.653174445426 145.226982045 0.651370081549 145.223669225 0.386104875172 -68.4932451291 0.00174277295302 30.2565730429 0.623641164565 -77.867044719 0.626916943551 101.978897535 0.00174277295302 30.2565730431 0.466951610973 113.128107325
10.15 0.297774137663 -132.260429903 0.308672853741 126.560078024 0.654025326725 141.078828773 0.623139217566 -80.4968411469 0.308672853741 126.560078024 0.29485322881 -131.787334716 0.652201002701 141.076177168 0.626431540094 99.3486028334 0.654025326725 141.078828773 0.652201002701 141.076177168 0.383251266891 -73.6823765597 0.00175356804363 26.0371721139 0.623139217566 -80.4968411469 0.626431540094 99.3486028334 0.00175356804363 26.0371721141 0.4682712531 110.625145679
10.175 0.296470793202 -134.847370462 0.309126835241 123.387757261 0.65488410105 136.933245802 0.622633493971 -83.1230712624 0.309126835241 123.387757261 0.293557020324 -134.367215761 0.653039056029 136.931290747 0.625943169552 96.7218928289 0.65488410105 136.933245802 0.653039056029 136.931290747 0.380346696621 -78.8725885643 0.00176485736106 21.8326850915 0.622633493971 -83.1230712624 0.625943169552 96.7218928289 0.00176485736106 21.8326850917 0.469595108801 108.124102557
10.2 0.295169862174 -137.419820367 0.309560335475 120.219699836 0.655750657018 132.789921842 0.622123956632 -85.7457979917 0.309560335475 120.219699836 0.292263498261 -136.932134329 0.653884115024 132.788700689 0.62545183712 94.0987035976 0.655750657018 132.789921842 0.653884115024 132.788700689 0.377390294579 -84.0649475443 0.00177667649273 17.6427639147 0.622123956632 -85.7457979917 0.62545183712 94.0987035976 0.00177667649273 17.6427639148 0.470923163156 105.624924885
10.225 0.293873485789 -139.977470092 0.309971824047 117.05598271 0.656624809813 128.648543199 0.621610567275 -88.3650834533 0.309971824047 117.05598271 0.290974781699 -139.481769601 0.654735979644 128.648095343 0.624957548248 91.4789719095 0.656624809813 128.648543199 0.654735979644 128.648095343 0.374381401831 -89.2605541867 0.00178906251986 13.4670193186 0.621610567275 -88.3650834533 0.624957548248 91.4789719095 0.00178906251986 13.4670193187 0.472255402147 103.127559954
10.25 0.292583973283 -142.52002777 0.310359811425 113.896700626 0.657506300753 124.508793644 0.621093286471 -90.9809889874 0.310359811425 113.896700626 0.289693156132 -142.015819123 0.655594375827 124.509160539 0.624460308688 88.8626351991 0.657506300753 124.508793644 0.655594375827 124.509160539 0.371319581298 -94.4605446881 0.00180205406127 9.30501920595 0.621093286471 -90.9809889874 0.624460308688 88.8626351991 0.00180205406127 9.30501920598 0.473591812614 100.631955406
10.275 0.291303800872 -145.047222752 0.310722853774 110.741966478 0.658394796875 120.370354248 0.620572073595 -93.5935751855 0.310722853774 110.741966478 0.288421072267 -144.534002417 0.656458955012 120.371579434 0.623960124543 86.249631536 0.658394796875 120.370354248 0.656458955012 120.371579434 0.368204629696 -99.6660921161 0.00181569131659 5.15628718505 0.620572073595 -93.5935751855 0.623960124543 86.249631536 0.00181569131659 5.15628718506 0.47493238222 98.1380592239
10.3 0.290035609946 -147.558809464 0.311059558202 107.591911726 0.659289890516 116.2329032 0.620046886771 -96.2029019186 0.311059558202 107.591911726 0.287161144036 -147.036064907 0.657329293649 116.23503232 0.623457002335 83.6398995957 0.659289890516 116.2329032 0.657329293649 116.23503232 0.365036590522 -104.878407894 0.00183001610955 1.02030131664 0.620046886771 -96.2029019186 0.623457002335 83.6398995957 0.00183001610955 1.02030131663 0.476277099419 95.6458197203
10.325 0.288782204381 -150.054571584 0.31136858845 104.446686879 0.660191098918 112.096115588 0.619517682818 -98.8090283661 0.31136858845 104.446686879 0.285916145667 -149.52178214 0.658204892719 112.099196408 0.62295094908 81.0333786312 0.660191098918 112.096115588 0.658204892719 112.099196408 0.361815768172 -110.098743393 0.00184507193175 -3.10350689209 0.619517682818 -98.8090283661 0.62295094908 81.0333786312 0.00184507193174 -3.10350689211 0.47762595341 93.1551855276
10.35 0.287546546806 -152.534326533 0.31164867111 101.306462041 0.661097863836 107.959663153 0.61898441717 -101.412013044 0.31164867111 101.306462041 0.284689007678 -151.99096434 0.659085177261 107.96374558 0.622441972377 78.4300084438 0.661097863836 107.959663153 0.659085177261 107.96374558 0.358542743296 -115.328391602 0.00186090398799 -7.2157532098 0.61898441717 -101.412013044 0.622441972377 78.4300084438 0.00186090398799 -7.21575320983 0.478978934106 90.666105588
10.375 0.286331753674 -154.997930291 0.311898602421 98.1714275225 0.662009551178 103.823214004 0.618447043796 -104.011913831 0.311898602421 98.1714275225 0.283482811635 -154.443461265 0.659969495899 103.828350104 0.621930080512 75.8297293544 0.662009551178 103.823214004 0.659969495899 103.828350104 0.355218389527 -120.568688851 0.00187755924431 -11.3171010887 0.618447043796 -104.011913831 0.621930080512 75.8297293544 0.00187755924431 -11.3171010887 0.480336032088 88.1785291445
10.4 0.285141088982 -157.445282524 0.312117255743 95.0417945134 0.662925450659 99.6864323035 0.617905515092 -106.608787997 0.312117255743 95.0417945134 0.282300783491 -156.87916738 0.660857120391 99.6926763206 0.621415282577 73.2324821747 0.662925450659 99.6864323035 0.660857120391 99.6926763206 0.351843891677 -125.82101652 0.00189508647988 -15.4082617326 0.617905515092 -106.608787997 0.621415282577 73.2324821747 0.00189508647988 -15.4082617326 0.481697238565 85.6924057323
10.425 0.283977956445 -159.876332014 0.31230358977 91.9177958249 0.663844775488 95.5489779014 0.617359781773 -109.202692228 0.31230358977 91.9177958249 0.281146285341 -159.298027313 0.661747245186 95.5563862753 0.620897588603 70.6382081774 0.663844775488 95.5489779014 0.661747245186 95.5563862753 0.348420765558 -131.086802705 0.00191353634455 -19.4899938071 0.617359781773 -109.202692228 0.620897588603 70.6382081774 0.00191353634455 -19.4899938072 0.483062545336 83.20768517
10.45 0.28284588997 -162.291082376 0.312456657593 88.7996866937 0.664766662087 91.4105059346 0.616809792734 -111.793682654 0.312456657593 88.7996866937 0.280022805417 -161.700041598 0.662638987001 91.4191373202 0.620377009721 68.0468490667 0.664766662087 91.4105059346 0.662638987001 91.4191373202 0.344950879535 -136.367523755 0.00193296142364 -23.563102782 0.616809792734 -111.793682654 0.620377009721 68.0468490667 0.00193296142364 -23.563102782 0.484431944735 80.7243175521
10.475 0.281748542217 -164.689598026 0.312575616708 85.6877456498 0.665690169851 87.2706663719 0.616255494901 -114.381814868 0.312575616708 85.6877456498 0.27893394612 -164.085272642 0.663531384425 87.2805816586 0.619853558327 65.458346948 0.665690169851 87.2706663719 0.663531384425 87.2805816586 0.34143647795 -141.664705586 0.00195341631191 -27.6284399024 0.616255494901 -114.381814868 0.619853558327 65.458346948 0.00195341631191 -27.6284399024 0.485805429595 78.2422532411
10.5 0.280689671093 -167.072010371 0.312659740086 82.5822754432 0.666614280953 83.1291035065 0.615696833062 -116.967143954 0.312659740086 82.5822754432 0.27788340992 -166.453850902 0.664423397547 83.1403658397 0.619327248286 62.8726442959 0.666614280953 83.1291035065 0.664423397547 83.1403658397 0.337880206542 -146.979924703 0.00197495769888 -31.6869007954 0.615696833062 -116.967143954 0.619327248286 62.8726442959 0.00197495769888 -31.6869007953 0.487182993188 75.7614428601
10.525 0.279673123965 -169.438524166 0.312708428429 79.4836040267 0.667537900193 78.9854553869 0.615133749674 -119.549724507 0.312708428429 79.4836040267 0.276874982922 -168.80598121 0.665313907614 78.9981301914 0.618798095148 60.2896839226 0.667537900193 78.9854553869 0.665313907614 78.9981301914 0.334285139965 -152.314808771 0.00199764446765 -35.739423724 0.615133749674 -119.549724507 0.618798095148 60.2896839226 0.00199764446765 -35.739423724 0.488564629178 73.281837286
10.55 0.278702819428 -171.78942399 0.312721223754 76.3920855883 0.668459854919 74.8393531815 0.614566184651 -122.129610654 0.312721223754 76.3920855883 0.275912515928 -171.141949188 0.666201716726 74.853508187 0.61826611639 57.7094089436 0.668459854919 74.8393531815 0.666201716726 74.853508187 0.330654811512 -157.67103662 0.0020215378097 -39.78698751 0.614566184651 -122.129610654 0.61826611639 57.7094089436 0.0020215378097 -39.78698751 0.489950331561 70.8033876423
10.575 0.277782726434 -174.125080777 0.312697824448 73.3081016261 0.669378894992 70.6904204644 0.613994075121 -124.706856071 0.312697824448 73.3081016261 0.274999902808 -173.462127682 0.667085547564 70.7061257349 0.617731331695 55.1317627427 0.669378894992 70.6904204644 0.667085547564 70.7061257349 0.326993245097 -163.050337509 0.00204670135845 -43.8306091506 0.613994075121 -124.706856071 0.617731331695 55.1317627427 0.00204670135845 -43.8306091506 0.491340094607 68.3260452927
10.6 0.276916840617 -176.445958311 0.31263810199 70.2320620566 0.670293692831 66.5382724162 0.613417355163 -127.281514001 0.31263810199 70.2320620566 0.27414105601 -175.766983143 0.667964043164 66.5556003824 0.61719376325 52.5566889351 0.670293692831 66.5382724162 0.667964043164 66.5556003824 0.323304989544 -168.454489459 0.00207320134419 -47.8713411625 0.613417355163 -127.281514001 0.61719376325 52.5566889351 0.00207320134419 -47.8713411625 0.492733912794 65.849761834
10.625 0.276109157656 -178.752619631 0.312542119496 67.164406342 0.671202843516 62.3825149238 0.612835955516 -129.853637267 0.312542119496 67.164406342 0.273339879047 -178.057081866 0.668835766716 62.401540421 0.616653436081 49.9841313276 0.671202843516 62.3825149238 0.668835766716 62.401540421 0.319595155164 -173.885316423 0.00210110677386 -51.9102686898 0.612835955516 -129.853637267 0.616653436081 49.9841313276 0.00210110677386 -51.9102686897 0.494131780739 63.3744890902
10.65 0.275363643494 178.954266771 0.312410152335 64.1056046237 0.672104864965 58.2227435669 0.612249803248 -132.423278286 0.312410152335 64.1056046237 0.27260023581 179.666904017 0.669699201407 58.2435438784 0.61611037843 47.4140338766 0.672104864965 58.2227435669 0.669699201407 58.2435438784 0.315869452547 -179.344684057 0.00213048963905 -55.9485064171 0.612249803248 -132.423278286 0.61611037843 47.4140338766 0.00213048963905 -55.9485064171 0.495533693125 60.9001791056
10.675 0.274684201302 176.673921033 0.312242711028 61.0561588401 0.672998198177 54.0585424736 0.611658821398 -134.990489075 0.312242711028 61.0561588401 0.271925916551 177.404190866 0.670552750288 54.081197381 0.615564622159 44.8463406432 0.672998198177 54.0585424736 0.670552750288 54.081197381 0.312134233452 175.165506203 0.00216142515629 -59.9871953327 0.611658821398 -134.990489075 0.615564622159 44.8463406432 0.00216142515629 -59.9871953327 0.496939644618 58.4267841384
10.7 0.274074635023 174.405446393 0.312040566721 58.0166038065 0.673881207528 49.8894830246 0.611062928584 -137.555321256 0.312040566721 58.0166038065 0.271320600427 175.153878302 0.671394736146 49.9140748657 0.615016203208 42.280995744 0.673881207528 49.8894830246 0.671394736146 49.9140748657 0.308396533548 169.643325098 0.00219399204421 -64.0274993893 0.611062928584 -137.555321256 0.615016203208 42.280995744 0.00219399204421 -64.0274993893 0.498349629781 55.9542566539
10.725 0.273538609382 172.147824136 0.311804779521 54.9875082248 0.674752181119 45.7151223822 0.610462038559 -140.11782606 0.311804779521 54.9875082248 0.270787814456 172.914944507 0.672223401384 45.7417361186 0.614465162096 39.7179432978 0.674752181119 45.7151223822 0.672223401384 45.7417361186 0.30466411672 164.086825859 0.00222827284288 -68.0706021147 0.610462038559 -140.11782606 0.614465162096 39.7179432978 0.00222827284288 -68.0706021147 0.499763642982 53.4825493174
10.75 0.27307960624 169.899909102 0.311536730066 51.9694755896 0.675609331135 41.535001817 0.609856059734 -142.678054322 0.311536730066 51.9694755896 0.270330888775 170.686242144 0.673036907856 41.5637251127 0.613911544468 37.1571273675 0.675609331135 41.535001817 0.673036907856 41.5637251127 0.300945520488 158.494057308 0.00226435428144 -72.1177032258 0.609856059734 -142.678054322 0.613911544468 37.1571273675 0.00226435428144 -72.1177032258 0.501181678293 51.0116149877
10.775 0.272700877166 167.660425852 0.311238154694 48.9631449418 0.676450794214 37.348644799 0.609244894643 -145.236056476 0.311238154694 48.9631449418 0.26995290809 168.466494988 0.673833336632 37.3795681115 0.613355401714 34.5984918956 0.676450794214 37.348644799 0.673833336632 37.3795681115 0.297250102027 152.863080142 0.00230232770128 -76.1700153075 0.609244894643 -145.236056476 0.613355401714 34.5984918956 0.00230232770128 -76.1700153075 0.502603729374 48.541406709
10.8 0.272405392115 165.427965537 0.310911184707 45.969191416 0.677274631747 33.1555548152 0.60862843936 -147.791882536 0.310911184707 45.969191416 0.269656659178 166.254295334 0.674610687647 33.1887715019 0.612796791633 32.0419806327 0.677274631747 33.1555548152 0.674610687647 33.1887715019 0.293588084081 147.191986864 0.00234228954321 -80.2287606181 0.60862843936 -147.791882536 0.612796791633 32.0419806327 0.00234228954321 -80.2287606181 0.504029789362 46.0718777032
10.825 0.272195784058 163.200983533 0.310558390224 42.9883265141 0.678078830078 28.9552128695 0.608006582849 -150.345582081 0.310558390224 42.9883265141 0.26944457432 164.048102225 0.675366879137 28.9908193104 0.612235779184 29.4875370581 0.678078830078 28.9552128695 0.675366879137 28.9908193104 0.289970599998 141.4789258 0.00238434190869 -84.2951680955 0.608006582849 -150.345582081 0.612235779184 29.4875370581 0.00238434190869 -84.2951680954 0.505459850736 43.6029813615
10.85 0.272074289428 160.977797853 0.310182829253 40.0212980186 0.678861300512 24.7470746126 0.607379206246 -152.897204229 0.310182829253 40.0212980186 0.269318670486 161.846240532 0.676099746806 24.7851703535 0.611672437304 26.935104291 0.678861300512 24.7470746126 0.676099746806 24.7851703535 0.286409736933 135.722129679 0.00242859320686 -88.3704706426 0.607379206246 -152.897204229 0.611672437304 26.935104291 0.00242859320686 -88.3704706425 0.506893905173 41.1346712353
10.875 0.272042684176 158.756588331 0.309788102684 37.0688894461 0.679619879024 20.53056704 0.60674618207 -155.446797595 0.309788102684 37.0688894461 0.269280484086 159.646900883 0.676807042573 20.5712549585 0.611106847818 24.3846249897 0.679619879024 20.53056704 0.676807042573 20.5712549585 0.282918576179 129.919949167 0.00247515890131 -92.4559027855 0.60674618207 -155.446797595 0.611106847818 24.3846249897 0.00247515890131 -92.4559027854 0.508331943401 38.6669010263
10.9 0.27210221519 156.535396533 0.309378416022 34.1319189127 0.680352325538 16.3050846899 0.606107373336 -157.994410252 0.309378416022 34.1319189127 0.269331001018 157.448140383 0.677486432765 16.3484711875 0.610539102446 21.8360412383 0.680352325538 16.3050846899 0.677486432765 16.3484711875 0.279511229502 124.070891746 0.00252416237325 -96.5526988089 0.606107373336 -157.994410252 0.610539102446 21.8360412383 0.00252416237325 -96.5526988088 0.509773955025 36.1996245756
10.925 0.272253526779 154.312126296 0.308958648838 31.2112372589 0.681056322601 12.0699852541 0.605462632576 -160.540089671 0.308958648838 31.2112372589 0.269470581692 155.247884048 0.678135495554 12.1161804796 0.609969303921 19.2892944183 0.681056322601 12.0699852541 0.678135495554 12.1161804796 0.276202870306 118.173666185 0.00257573592026 -100.662091494 0.605462632576 -160.540089671 0.609969303921 19.2892944183 0.00257573592027 -100.662091494 0.511219928345 33.7327958525
10.95 0.272496581792 152.084544761 0.308534433054 28.307725244 0.681729473227 7.8245845079 0.604811800742 -163.083882651 0.308534433054 28.307725244 0.269698880572 153.043926825 0.678751717393 7.87370261539 0.60939756723 16.7443250616 0.681729473227 7.8245845079 0.678751717393 7.87370261539 0.2730097585 112.227232727 0.00263002191385 -104.785311602 0.604811800742 -163.083882651 0.60939756723 16.7443250616 0.00263002191386 -104.785311602 0.512669850154 31.2663689415
10.975 0.272830576857 149.850283693 0.30811224141 25.4222895794 0.682369297628 3.56815044323 0.604154705979 -165.625835235 0.30811224141 25.4222895794 0.270014759697 150.833935986 0.679332488143 3.62030989185 0.608824020996 14.2010726828 0.682369297628 3.56815044323 0.679332488143 3.62030989185 0.269949258071 106.230858924 0.00268717414269 -108.92358828 0.604154705979 -165.625835235 0.608824020996 14.2010726828 0.00268717414271 -108.92358828 0.51412370552 28.8002980281
11 0.273253851028 147.606840828 0.307699487661 22.5558575175 0.682973228479 -0.700103528503 0.603491162242 -168.165992603 0.307699487661 22.5558575175 0.270416195411 148.615453667 0.679875094487 -0.64477962752 0.608248809012 11.6594755865 0.682973228479 -0.700103528503 0.679875094487 -0.644779627519 0.26703984662 100.18418079 0.00274735937351 -113.078150583 0.603491162242 -168.165992603 0.608248809012 11.6594755865 0.00274735937354 -113.078150583 0.515581477543 26.3345373836
11.025 0.273763786959 145.351580889 0.307304640366 19.7093696497 0.683538604261 -4.9810264608 0.602820967744 -170.704398944 0.307304640366 19.7093696497 0.270900177368 146.385899201 0.680376711174 -4.92240994166 0.607672091967 9.11947064565 0.683538604261 -4.9810264608 0.680376711174 -4.92240994166 0.264301116556 94.0872686673 0.00281075916719 -117.25023036 0.602820967744 -170.704398944 0.607672091967 9.11947064565 0.00281075916723 -117.25023036 0.517043147092 23.869041348
11.05 0.274356703437 143.081735861 0.306937352463 16.8837704891 0.68406266013 -9.27553902975 0.602143903198 -173.241097306 0.306937352463 16.8837704891 0.271462598565 144.14257086 0.680834389444 -9.21349620515 0.607094049372 6.58099304577 0.68406266013 -9.27553902975 0.680834389444 -9.21349620515 0.261753768249 87.9406968404 0.00287757199427 -121.441066787 0.602143903198 -173.241097306 0.607094049372 6.58099304577 0.00287757199431 -121.441066787 0.518508692515 21.4037643115
11.075 0.275027737789 140.794403957 0.306608609203 14.0799963205 0.684542515597 -13.5846441845 0.601459729814 -175.776129398 0.306608609203 14.0799963204 0.272098134814 141.882646476 0.681245041905 -13.5190353033 0.606514881713 4.04397598814 0.684542515597 -13.5846441845 0.681245041905 -13.5190353033 0.25941959626 81.745615609 0.00294801570211 -125.651912873 0.601459729814 -175.776129398 0.606514881713 4.04397598814 0.00294801570215 -125.651912873 0.51997808932 18.9386606942
11.1 0.275770716247 138.486546633 0.306330897551 11.2989596827 0.684975158139 -17.9094395508 0.600768187032 -178.309535366 0.30633089755 11.2989596827 0.272800111618 139.603182339 0.681605422889 -17.8401181676 0.605934812892 1.5083503456 0.684975158139 -17.9094395508 0.681605422889 -17.8401181676 0.257321470838 75.5038241896 0.00302233039527 -129.884044355 0.600768187032 -178.309535366 0.605934812892 1.50835034559 0.00302233039531 -129.884044355 0.521451309822 16.4736849231
11.125 0.276578009813 136.15498281 0.306118400675 8.54152971186 0.685357421635 -22.2511318981 0.600068989927 179.158646494 0.306118400675 8.54152971186 0.273560355826 137.301109586 0.681912103108 -22.1779441385 0.605354092964 -1.02595573865 0.685357421635 -22.2511318981 0.681912103108 -22.1779441385 0.255483318059 69.2178425625 0.00310078180191 -134.138771436 0.600068989927 179.158646494 0.605354092964 -1.02595573866 0.00310078180194 -134.138771435 0.522928322768 14.0087914082
11.15 0.277440372446 133.79637929 0.305987221908 5.80850740142 0.68568595823 -26.6110540398 0.599361826243 176.628380087 0.305987221908 5.80850740142 0.27436902866 134.973227134 0.682161437115 -26.533837744 0.604773001238 -3.55901731967 0.68568595823 -26.6110540398 0.682161437115 -26.533837744 0.25393010339 62.8909802611 0.00318366521236 -138.417453933 0.599361826243 176.628380087 0.604773001238 -3.55901731967 0.00318366521238 -138.417453933 0.5244090929 11.5439345151
11.175 0.278346757439 131.407236051 0.305955643325 3.10059463139 0.685957201874 -30.990684612 0.598646353006 174.099631953 0.305955643325 3.10059463138 0.275214435729 132.616189965 0.682349521695 -30.9092683327 0.604191849802 -6.0909131998 0.685957201874 -30.990684612 0.682349521695 -30.9092683327 0.252687824786 56.5274001817 0.00327131009239 -142.721520509 0.598646353006 174.099631953 0.604191849802 -6.0909131998 0.0032713100924 -142.721520509 0.525893580503 9.07906853607
11.2 0.279284106611 128.983864806 0.306044425103 0.41835557052 0.686167321333 -35.3916712659 0.597922192642 171.572371816 0.306044425103 0.418355570522 0.27608280825 130.226491231 0.682472142831 -35.3058730931 0.603610987517 -8.62172657387 0.686167321333 -35.3916712659 0.682472142831 -35.3058730931 0.251783522618 50.1321758558 0.00336408549264 -147.052492767 0.597922192642 171.572371816 0.603610987517 -8.62172657387 0.00336408549263 -147.052492767 0.527381740881 6.61414765803
11.225 0.280237105195 126.522358685 0.306277152994 -2.23783124418 0.686312159861 -39.8158579203 0.597188928559 169.046573263 0.306277152994 -2.23783124418 0.276958047881 127.800436237 0.68252470827 -39.7254840999 0.603030804594 -11.1515457898 0.686312159861 -39.8158579203 0.68252470827 -39.7254840999 0.251245314375 43.7113413237 0.00346240639966 -151.412015188 0.597188928559 169.046573263 0.603030804594 -11.1515457898 0.00346240639962 -151.412015187 0.528873523802 4.14912592798
11.25 0.281187893 124.018550276 0.306680642594 -4.86783220606 0.686387157979 -44.2653168636 0.596446100139 166.522214629 0.306680642594 -4.86783220606 0.277821425063 125.334105726 0.682502161895 -44.1701601666 0.602451737822 -13.6804652478 0.686387157979 -44.2653168636 0.682502161895 -44.1701601666 0.251102461869 37.2719338085 0.0035667412018 -155.801892046 0.596446100139 166.522214629 0.602451737821 -13.6804652478 0.00356674120171 -155.801892046 0.53036887287 1.68395721568
11.275 0.282115719139 121.467954337 0.307285410755 -7.47183180297 0.686387254807 -48.7423866639 0.595693197119 163.999280105 0.307285410756 -7.47183180296 0.278651217232 122.823305053 0.682398875102 -48.6422244546 0.601874276573 -16.2085864683 0.686387254807 -48.7423866639 0.682398875102 -48.6422244546 0.251385476912 30.8220308045 0.00367762047769 -160.22413274 0.595693197119 163.999280105 0.601874276573 -16.2085864683 0.00367762047755 -160.22413274 0.531867724844 -0.781404826573
11.3 0.282996523101 118.865690178 0.308126226319 -10.0504226532 0.686306762111 -53.2497170699 0.59492965341 161.477761194 0.308126226319 -10.0504226531 0.279422268414 120.263494636 0.682208508996 -53.1443090069 0.601298969733 -18.7360193627 0.686306762111 -53.2497170699 0.682208508996 -53.1443090069 0.252126267516 24.3707848549 0.00379564735581 -164.681007244 0.59492965341 161.477761194 0.601298969732 -18.7360193627 0.00379564735561 -164.681007243 0.533370008885 -3.24700680718
11.325 0.283802418501 116.206376891 0.309242754509 -12.6047160403 0.686139203537 -57.7903223544 0.594154840501 158.95765859 0.309242754509 -12.6047160403 0.280105444744 117.649695305 0.681923839482 -57.6794076415 0.600726433707 -21.2628837535 0.686139203537 -57.7903223544 0.681923839482 -57.6794076415 0.253358319485 17.9284610483 0.00392150974238 -169.175113842 0.594154840501 158.95765859 0.600726433707 -21.2628837535 0.00392150974211 -169.175113841 0.534875645725 -5.71289564144
11.35 0.284501046634 113.483991858 0.310680311663 -15.1364773209 0.685877109252 -62.3676449053 0.593368060822 156.438984661 0.310680311664 -15.1364773209 0.280666950497 114.976359672 0.681536534964 -62.2509389866 0.600157361719 -23.7893111998 0.685877109253 -62.3676449053 0.681536534964 -62.2509389866 0.255116896639 11.5064838153 0.00405599477203 -173.709461821 0.593368060822 156.438984661 0.600157361719 -23.7893111997 0.0040559947717 -173.70946182 0.53638454676 -8.17911860079
11.375 0.285054753667 110.691679006 0.312490749408 -17.6482914747 0.685511753256 -66.9856313082 0.592568541789 153.921766727 0.312490749409 -17.6482914747 0.281067454797 112.237196841 0.681036873287 -66.8628218715 0.599592534642 -26.3154471975 0.685511753256 -66.9856313082 0.681036873287 -66.8628218715 0.257439225198 5.11750057256 0.00420000590077 -178.287572477 0.592568541789 153.921766727 0.599592534641 -26.3154471975 0.00420000590038 -178.287572475 0.537896613041 -10.6457233649
11.4 0.28541952573 107.821487239 0.314733489642 -20.143765152 0.685032816623 -71.6488237328 0.591755431933 151.406051434 0.314733489643 -20.143765152 0.281260957919 109.424932096 0.680413380433 -71.5195658452 0.599032833657 -28.841453847 0.685032816623 -71.6488237328 0.680413380433 -71.5195658452 0.260364601971 -1.22453037575 0.00435458313237 177.086397287 0.591755431933 151.406051434 0.599032833657 -28.841453847 0.00435458313193 177.086397289 0.539411734178 -13.1127580769
11.425 0.285543587233 104.864010275 0.317476733178 -22.6277728911 0.684427954613 -76.3624701582 0.590927801645 148.891910611 0.317476733179 -22.6277728912 0.281193294506 106.53097444 0.679652367951 -76.226380304 0.598479255122 -31.3675131012 0.684427954613 -76.3624701582 0.679652367951 -76.226380304 0.263934329568 -7.50422219037 0.00452092694086 172.407503331 0.590927801645 148.891910611 0.598479255122 -31.3675131011 0.00452092694042 172.407503333 0.540929787126 -15.5802714011
11.45 0.285365524025 101.807884643 0.320798864586 -25.106756792 0.683682238355 -81.132657909 0.590084653066 146.379449137 0.320798864587 -25.106756792 0.280800123127 103.544951005 0.678737338678 -80.9893066274 0.597932928073 -33.8938307443 0.683682238355 -81.132657909 0.678737338678 -80.9893066274 0.268191332185 -13.7046111253 0.00470042651249 167.669827648 0.590084653066 146.379449137 0.597932928072 -33.8938307442 0.00470042651209 167.66982765 0.542450634858 -18.0483125832
11.475 0.284811726178 98.6390793551 0.324790071608 -27.589090923 0.682777432003 -85.9664761775 0.589224947058 143.868815511 0.324790071609 -27.589090923 0.280004177997 100.454044954 0.677648220244 -85.8153788988 0.597395134926 -36.4206412938 0.682777432003 -85.9664761775 0.677648220244 -85.8153788988 0.273179240451 -19.8069845803 0.00489469295419 162.866247744 0.589224947058 143.868815511 0.597395134925 -36.4206412938 0.00489469295392 162.866247745 0.543974124911 -20.5169315132
11.5 0.283792841116 95.3398724114 0.329554185885 -30.0855241971 0.681691052922 -90.8722147787 0.58834766105 141.360215942 0.329554185885 -30.0855241971 0.278711443219 97.242036232 0.676360372253 -90.7128203198 0.596867336039 -38.9482140804 0.681691052922 -90.8722147787 0.676360372253 -90.7128203198 0.27894065333 -25.7907056048 0.0051055980573 157.98815048 0.58834766105 141.360215942 0.596867336039 -38.9482140804 0.0051055980573 157.98815048 0.545500087786 -22.9861787897
