! Generated from PyAEDT SolutionData; AEDT ExportNetworkData workaround
# GHz S MA R 50
9 0.25877640482 125.508320876 0.479146779515 174.812245631 0.519936290609 -103.558427322 0.658118066685 46.0944140777 0.479146779515 174.812245631 0.260339393608 125.453446568 0.520209132398 -103.718398895 0.657285495342 -134.091131936 0.519936290609 -103.558427322 0.520209132398 -103.718398895 0.677531083232 174.803054903 0.000586115388535 143.324082519 0.658118066685 46.0944140777 0.657285495342 -134.091131936 0.000586115388535 143.324082519 0.367227510388 -115.227419174
9.025 0.255587680923 122.082870732 0.477120576498 171.990240468 0.523878440126 -108.267645961 0.657709675507 43.1898320906 0.477120576498 171.990240468 0.257101362577 122.030440032 0.524156701157 -108.429490902 0.656897535457 -136.995879088 0.523878440126 -108.267645961 0.524156701157 -108.429490902 0.671424779165 168.301445821 0.000576546872708 137.874887295 0.657709675507 43.1898320906 0.656897535457 -136.995879088 0.000576546872732 137.874887297 0.368650663465 -117.947243826
9.05 0.252380937198 118.649141917 0.475053376076 169.180394522 0.527813065742 -112.974588878 0.657298400139 40.2933202799 0.475053376076 169.180394522 0.253844030368 118.598684213 0.528096379461 -113.138322812 0.656506980839 -139.892639099 0.527813065742 -112.974588878 0.528096379461 -113.138322812 0.665227639931 161.794386136 0.000566371339601 132.441615755 0.657298400139 40.2933202799 0.656506980839 -139.892639099 0.000566371339632 132.441615757 0.370077179606 -120.661745324
9.075 0.249154968722 115.206058468 0.472943629971 166.382792353 0.53174137576 -117.679429235 0.656884261695 37.4047264756 0.472943629971 166.382792353 0.250566333805 115.157079454 0.532029359187 -117.845065442 0.656113806565 -142.781565757 0.53174137576 -117.679429235 0.532029359187 -117.845065442 0.658935544618 155.281535792 0.000555587387087 127.026344711 0.656884261695 37.4047264756 0.656113806565 -142.781565757 0.000555587387116 127.026344713 0.371507023363 -123.371008703
9.1 0.245908440894 111.752492713 0.470789700065 163.597559629 0.535664630464 -122.382369378 0.656467278848 34.5239019587 0.470789700066 163.597559629 0.247267081289 111.704472697 0.535956884984 -122.549918762 0.655717984194 -145.662809184 0.535664630464 -122.382369378 0.535956884984 -122.549918762 0.652543998155 148.762438156 0.000544194283845 121.631389147 0.656467278848 34.5239019587 0.655717984194 -145.662809184 0.000544194283866 121.631389149 0.372940165669 -126.075117661
9.125 0.242639892339 108.287260122 0.468589877199 160.824866046 0.539584117044 -127.083641302 0.65604746809 31.6507013525 0.468589877199 160.824866046 0.243944956793 108.239652967 0.539880229236 -127.253112352 0.65531948204 -148.53651594 0.539584117044 -127.083641302 0.539880229236 -127.253112352 0.646048151446 142.236515623 0.000532191987819 116.259361714 0.65604746809 31.6507013525 0.65531948204 -148.53651594 0.000532191987831 116.259361715 0.374376583754 -128.774154641
9.15 0.239347737038 104.809114154 0.466342401165 158.064928514 0.543501122948 -131.783506959 0.65562484394 28.7849825133 0.466342401165 158.064928514 0.240598523351 104.761346677 0.543800665455 -131.954905716 0.65491826541 -151.402829118 0.543501122948 -131.783506959 0.543800665455 -131.954905716 0.639442825295 135.703064483 0.000519581186648 110.913245066 0.65562484394 28.7849825133 0.65491826541 -151.402829118 0.00051958118665 110.913245067 0.375816261032 -131.468200925
9.175 0.236030266504 101.31674102 0.464045482477 155.318014652 0.547416907717 -136.482258417 0.655199419115 25.9266064224 0.464045482477 155.318014652 0.237226226607 101.268212724 0.547719440156 -136.655588438 0.654514296814 -154.261888445 0.547416907717 -136.482258417 0.547719440156 -136.655588438 0.632722538408 129.161248981 0.00050636336452 105.596480638 0.655199419115 25.9266064224 0.654514296814 -154.261888445 0.000506363364515 105.596480637 0.377259186989 -134.15733671
9.2 0.232685652661 97.8087542861 0.461697326541 152.584446575 0.551332673338 -141.180217846 0.654771204652 23.0754370791 0.461697326541 152.584446575 0.233826398967 97.7588372952 0.55163774324 -141.355480171 0.654107536155 -157.113830375 0.551332673338 -141.180217846 0.55163774324 -141.355480171 0.625881539822 122.610094536 0.000492540901309 100.313078648 0.654771204652 23.0754370791 0.654107536155 -157.113830375 0.000492540901299 100.313078647 0.378705357043 -136.841641188
9.225 0.229311951966 94.2836891487 0.459296160817 149.86460498 0.555249533151 -145.877737346 0.654340209995 20.2313413945 0.459296160817 149.86460498 0.230397264764 94.2317282731 0.555556676952 -146.054930463 0.653697940898 -159.958788179 0.555249533151 -145.877737346 0.555556676952 -146.054930463 0.618913846242 116.048480032 0.000478117211806 95.0677557702 0.654340209995 20.2313413945 0.653697940898 -159.958788179 0.000478117211794 95.0677557699 0.380154772407 -139.521192629
9.25 0.225907111144 90.7399962597 0.456840265538 147.158933503 0.559168479344 -150.575198597 0.653906443047 17.3941890879 0.456840265538 147.158933503 0.22693694683 90.6853091336 0.559477223406 -150.754318415 0.653285466235 -162.796892035 0.559168479344 -150.575198597 0.559477223406 -150.754318415 0.611813284839 109.475129123 0.00046309693568 89.8661091528 0.653906443047 17.3941890879 0.653285466235 -162.796892035 0.00046309693567 89.8661091526 0.381607439929 -142.196068451
9.275 0.222468974835 87.1760349058 0.454328008488 144.467943318 0.563090349062 -155.27301233 0.653469910184 14.5638525846 0.454328008488 144.467943318 0.223443474738 87.1179121707 0.563400210739 -155.454052155 0.652870065237 -165.628269112 0.563090349062 -155.27301233 0.563400210739 -155.454052155 0.604573542215 102.888600431 0.000447486192828 84.7148386718 0.653469910184 14.5638525846 0.652870065237 -165.628269112 0.000447486192822 84.7148386718 0.383063371939 -144.866345292
9.3 0.218995295362 83.5900653687 0.451757884279 141.792217932 0.567015789151 -159.971617627 0.653030616237 11.7402069165 0.451757884279 141.792217932 0.219914794992 83.5277708943 0.567326277892 -160.15456814 0.652451689007 -168.453043653 0.567015789151 -159.971617627 0.567326277892 -160.15456814 0.597188220372 96.2872765443 0.000431292924561 79.6220337988 0.653030616237 11.7402069165 0.652451689008 -168.453043653 0.00043129292456 79.6220337991 0.384522586067 -147.532099082
9.325 0.215483744824 79.9802402628 0.449128558528 139.132418125 0.570945219568 -164.671481014 0.65258856445 8.92312962489 0.449128558528 139.132418125 0.216348783365 79.9130114129 0.571255838064 -164.856330259 0.652030286842 -171.271337051 0.570945219568 -164.671481014 0.571255838064 -164.856330259 0.589650900688 89.6693516637 0.000414527349561 74.5975479109 0.65258856445 8.92312962489 0.652030286842 -171.271337051 0.000414527349567 74.5975479113 0.385985105079 -150.193405102
9.35 0.211931929676 76.3445946322 0.446438917296 136.489286979 0.574878795475 -169.37309538 0.652143756397 6.11250066632 0.446438917296 136.489286979 0.212743259605 76.2716425976 0.575189040844 -169.559828746 0.651605806389 -174.083267928 0.574878795475 -169.37309538 0.575189040844 -169.559828746 0.581955217071 83.0328177436 0.000397202576066 69.6534922109 0.652143756397 6.11250066632 0.651605806389 -174.083267928 0.000397202576079 69.6534922115 0.387450956687 -152.850338051
9.375 0.208337407994 72.68103457 0.443688122138 133.863654928 0.578816368056 -174.076978672 0.651696191881 3.30820232121 0.443688122138 133.863654928 0.209096004731 72.6015447984 0.57912573308 -174.265578896 0.651178193829 -176.888952202 0.578816368056 -174.076978672 0.579125733081 -174.265578896 0.57409493969 76.3754489368 0.000379335430572 64.8048950696 0.651696191881 3.30820232121 0.651178193829 -176.888952202 0.000379335430592 64.8048950703 0.388920173363 -155.502972105
9.4 0.204697709667 68.9873240896 0.440875671126 131.256444747 0.582757444112 -178.78367239 0.6512458688 0.510119105859 0.440875671126 131.256444747 0.205404781177 68.9004568546 0.583065418516 -178.974119553 0.650747394061 -179.688503164 0.582757444112 -178.78367239 0.583065418516 -178.974119553 0.566064070902 69.6947841295 0.000360947592099 60.0705927175 0.6512458688 0.510119105859 0.650747394061 -179.688503164 0.000360947592124 60.0705927181 0.390392792154 -158.151380967
9.425 0.201010359797 65.2610699443 0.43800146621 128.668676377 0.586701144484 176.506260147 0.650792782985 -2.28186231224 0.43800146621 128.668676377 0.201667356067 65.1659611042 0.587007216264 176.31398861 0.65031335091 177.51796846 0.586701144484 176.506260147 0.587007216264 176.31398861 0.557856955263 62.9881073221 0.000342067165674 55.4744470645 0.650792782985 -2.28186231224 0.65031335091 177.51796846 0.000342067165703 55.4744470649 0.391868854484 -160.795637925
9.45 0.19727290566 61.4997040402 0.435065887291 126.101471473 0.590646161409 171.792235771 0.65033692802 -5.06785319547 0.435065887291 126.101471473 0.197881528 61.3954660508 0.590949818216 171.598165059 0.649876007353 174.730354441 0.590646161409 171.792235771 0.590949818216 171.598165059 0.549468405836 56.2524255825 0.000322730899046 51.0470307938 0.65033692802 -5.06785319547 0.649876007353 174.730354441 0.000322730899076 51.0470307939 0.393348405962 -163.435815898
9.475 0.19348294768 57.7004630331 0.432069873386 123.5560575 0.594590714931 167.073653683 0.649878295026 -7.84796281333 0.432069873386 123.5560575 0.194045157764 57.5861862931 0.594891445511 166.87781161 0.649435305772 171.948548984 0.594590714931 167.073653683 0.594891445511 166.87781161 0.540893849315 49.4844442738 0.00030298735929 46.8279854136 0.649878295026 -7.84796281333 0.649435305772 171.948548984 0.00030298735932 46.8279854133 0.394831496183 -166.071987479
9.5 0.189638174939 53.8603646207 0.429015011248 121.033771195 0.598532508537 162.34989794 0.649416872429 -10.6222985156 0.429015011248 121.033771195 0.190156203511 53.7351192514 0.598829804228 162.152314907 0.648991188221 169.172448664 0.598532508537 162.34989794 0.598829804228 162.152314907 0.532129492915 42.6805392366 0.00028290156883 42.8693525994 0.649416872429 -10.6222985156 0.648991188221 169.172448664 0.000282901568858 42.8693525986 0.396318178532 -168.704224983
9.525 0.185736405885 49.9761799586 0.425903631729 118.536061134 0.602468684241 157.620340219 0.648952645699 -13.390965801 0.425903631728 118.536061134 0.186212761024 49.8390181443 0.602762040539 157.421049182 0.648543596728 166.401952367 0.602468684241 157.620340219 0.602762040539 157.421049182 0.523172516409 35.8367255973 0.000262561899535 39.2403081222 0.648952645699 -13.390965801 0.648543596728 166.401952367 0.000262561899559 39.240308121 0.397808509986 -171.33260048
9.55 0.181775635003 46.0444015181 0.422738914085 116.064489104 0.6063957774 152.884342875 0.64848559707 -16.1540683818 0.422738914085 116.064489104 0.182213109818 45.8943605719 0.606684695591 152.683379309 0.648092473613 163.636961227 0.6063957774 152.884342875 0.606684695591 152.683379309 0.514021293156 28.9486228796 0.000242090512651 36.0338779499 0.64848559707 -16.1540683818 0.648092473613 163.636961227 0.000242090512668 36.0338779484 0.399302550916 -173.957185836
9.575 0.177754086387 42.0612055775 0.419524998269 113.620729879 0.610309671636 148.141262329 0.648015705238 -18.9117082426 0.419524998269 113.620729879 0.178155765981 41.8973119448 0.610593660499 147.938664176 0.64763776184 160.877378561 0.610309671636 148.141262329 0.610593660499 147.938664176 0.504675644559 22.0114161336 0.000221659414844 33.3763062123 0.648015705238 -18.9117082426 0.64763776184 160.877378561 0.000221659414855 33.3763062105 0.400800364892 -176.578052742
9.6 0.1736702753 38.0224083886 0.416267104988 111.20656896 0.614205554302 143.390452771 0.647542945037 -21.6639856945 0.416267104988 111.20656896 0.174039542813 37.8436828633 0.614484131893 143.186260392 0.647179405383 158.123109814 0.614205554302 143.390452771 0.614484131893 143.186260392 0.495137132932 15.0198128766 0.00020151537 31.4394743106 0.647542945037 -21.6639856945 0.647179405383 158.123109814 0.000201515370002 31.4394743091 0.402302018483 -179.195272743
9.625 0.169523079048 33.9234148879 0.412971663042 108.823897709 0.618077873051 138.631270226 0.647067287103 -24.4109994235 0.412971663042 108.823897709 0.169863620509 33.7288793991 0.618350568567 138.42552634 0.646717349624 155.374062486 0.618077873051 138.631270226 0.618350568567 138.42552634 0.485409398412 7.96799578385 0.000182018321822 30.4552092956 0.647067287103 -24.4109994235 0.646717349624 155.374062486 0.000182018321817 30.4552092948 0.403807581065 178.191082729
9.65 0.165311818702 29.7591586224 0.409646442982 106.474705222 0.621920294182 133.863076981 0.646588697525 -27.1528465328 0.409646442982 106.474705222 0.16562762639 29.5478450595 0.622186649904 133.6558266 0.646251541758 152.630146073 0.621920294182 133.863076981 0.622186649904 133.6558266 0.475498546154 0.84957131561 0.000163698414493 30.7249579979 0.646588697525 -27.1528465328 0.646251541758 152.630146073 0.000163698414483 30.7249579985 0.405317124626 175.580942339
9.675 0.161036353544 25.5240313443 0.406300695624 104.161066201 0.625725663525 129.085246393 0.646107137482 -29.8896225785 0.406300695624 104.161066201 0.161331727447 25.2949930282 0.625985236856 128.87653675 0.645781931221 149.891271993 0.625725663525 129.085246393 0.625985236856 128.87653675 0.46541359065 -6.34248514904 0.000147331246501 32.6038003576 0.646107137482 -29.8896225785 0.645781931221 149.891271993 0.000147331246486 32.6038003605 0.406830723576 172.974234824
9.7 0.156697190423 21.2118004975 0.40294529328 101.885123957 0.629485970815 124.297168087 0.645622562881 -32.6214215985 0.40294529328 101.885123957 0.156976737292 20.9641270932 0.6297383364 124.087048556 0.645308470126 147.157353516 0.629485970815 124.297168087 0.6297383364 124.087048556 0.455166964445 -13.6158865012 0.000134006012914 36.4093671313 0.645622562881 -32.6214215985 0.645308470126 147.157353516 0.000134006012898 36.4093671375 0.408348454557 170.370888973
9.725 0.152295610687 16.815512594 0.399592870739 99.6490676142 0.633192318589 119.498253554 0.645134923997 -35.3483361348 0.399592870739 99.6490676142 0.152564240025 16.5483495018 0.633437070524 119.286775563 0.644831113692 144.428305685 0.633192318589 119.498253554 0.633437070524 119.286775563 0.444775098713 -20.9790913577 0.00012509706462 42.1888722929 0.645134923997 -35.3483361348 0.644831113692 144.428305685 0.000125097064606 42.1888723027 0.409870396253 167.770833617
9.75 0.14783381786 12.3273802994 0.396257962072 97.4551024988 0.636834896826 114.687942136 0.644644165126 -38.0704572467 0.396257962072 97.4551024988 0.148096733993 12.0399538746 0.63707165096 114.475159079 0.644349820678 141.704045239 0.636834896826 114.687942136 0.63707165096 114.475159079 0.434259082871 -28.4413584307 0.000121980773297 49.3896443168 0.644644165126 -38.0704572467 0.644349820678 141.704045239 0.000121980773289 49.3896443292 0.411396629207 165.173997608
9.775 0.143315109857 7.73865095651 0.392957128209 95.3054126932 0.640402964657 109.865707414 0.644150224252 -40.7878745177 0.392957128209 95.3054126932 0.143577798981 7.43030131458 0.640631360969 109.651674548 0.643864553793 138.98449052 0.640402964657 109.865707414 0.640631360969 109.651674548 0.423645409295 -36.0127926072 0.000125474107024 56.7957592357 0.644150224252 -40.7878745177 0.643864553793 138.98449052 0.000125474107023 56.7957592485 0.412927235637 162.580309819
9.8 0.138744080302 3.03945440705 0.38970906897 93.202114763 0.643884840627 105.031063953 0.643653032752 -43.500676053 0.38970906897 93.202114763 0.139012291021 2.70967808299 0.644104545689 104.815838295 0.643375280079 136.269561389 0.643884840627 105.031063953 0.644104545689 104.815838295 0.412966806764 -43.704374955 0.000135410121073 63.0718359965 0.643653032752 -43.500676053 0.643375280079 136.269561389 0.000135410121078 63.0718360077 0.414462299254 159.989699124
9.825 0.134126854353 -1.78137153294 0.386534711859 91.1472018037 0.647267903095 100.183574409 0.64315251514 -46.2089484693 0.386534711859 91.1472018037 0.134406569747 -2.13286615371 0.647478612606 99.9672146251 0.642881971251 133.559179119 0.647267903095 100.183574409 0.647478612606 99.9672146251 0.402263161858 -51.5279653554 0.000150815222215 67.4390497293 0.64315251514 -46.2089484693 0.642881971251 133.559179119 0.000150815222225 67.4390497378 0.416001905085 157.402094404
9.85 0.12947136537 -6.73647842079 0.383457268557 89.1424772072 0.65053860246 95.3228569242 0.642648588873 -48.912776876 0.383457268557 89.1424772072 0.129768763974 -7.10969920044 0.650740043833 95.105423211 0.642384603986 130.853266297 0.65053860246 95.3228569242 0.650740043833 95.105423211 0.391582520023 -59.4962618328 0.000170458760931 69.7914802977 0.642648588873 -48.912776876 0.642384603986 130.853266297 0.000170458760942 69.7914803035 0.417546139297 154.817424534
9.875 0.124787679722 -11.8402255567 0.380502248661 87.189477965 0.653682486935 90.4485927883 0.642141164219 -51.6122448483 0.380502248661 87.189477965 0.125109081865 -12.2348036183 0.653874421935 90.2301467483 0.641883160135 128.151746712 0.653682486935 90.4485927883 0.653874421935 90.2301467483 0.38098214618 -67.6226948016 0.000193253385928 70.3955823395 0.642141164219 -51.6122448483 0.641883160135 128.151746712 0.000193253385938 70.3955823431 0.419095089022 152.235618389
9.9 0.120088377743 -17.1089134727 0.377697419128 85.2893879308 0.656684243629 85.5605342686 0.64163014423 -54.3074343927 0.377697419128 85.2893879308 0.120440172525 -17.5239835385 0.656866471036 85.3411387809 0.64137762685 125.454545239 0.656684243629 85.5605342686 0.656866471036 85.3411387809 0.3705296068 -75.9212275087 0.000218374884536 69.6103475999 0.64163014423 -54.3074343927 0.64137762685 125.454545239 0.000218374884542 69.6103476019 0.420648842187 149.656604841
9.925 0.115388999056 -22.5610196417 0.375072697133 83.4429422828 0.65952775661 80.6585125387 0.6411154248 -56.9984259055 0.375072697133 83.4429422828 0.115777545641 -22.9950672265 0.659700114886 80.4382316224 0.640867996597 122.761587718 0.65952775661 80.6585125387 0.659700114886 80.4382316224 0.360303809503 -84.406026508 0.000245233244073 67.7582549083 0.6411154248 -56.9984259055 0.640867996597 122.761587718 0.000245233244075 67.7582549092 0.422207487346 147.080312766
9.95 0.110708559487 -28.2174120467 0.372659963959 81.650325473 0.662196183527 75.7424455906 0.640596894866 -59.6852981253 0.372659963959 81.650325473 0.11114005435 -28.66808061 0.662358553464 75.5213442625 0.640354267061 120.072800829 0.662196183527 75.7424455906 0.662358553464 75.5213442625 0.350395900635 -93.0909594805 0.000273408492933 65.0928396748 0.640596894866 -59.6852981253 0.640354267061 120.072800829 0.00027340849293 65.0928396751 0.423771113513 144.506671046
9.975 0.106070143392 -34.1014981675 0.370492788386 79.9110661813 0.664672052124 70.8123460079 0.640074436731 -62.3681280812 0.370492788386 79.9110661813 0.106550442766 -34.5653500246 0.664824359444 70.5904901348 0.639836440892 117.388111964 0.664672052124 70.8123460079 0.664824359444 70.5904901348 0.340909875489 -101.988874845 0.000302594861113 61.8037008866 0.640074436731 -62.3681280812 0.639836440892 117.388111964 0.000302594861105 61.8037008865 0.425339810002 141.935608576
10 0.10150156764 -40.2392395552 0.368606050044 78.2239341617 0.666937377701 65.8683284559 0.639547926551 -65.0469910377 0.368606050044 78.2239341617 0.102035951684 -40.7114673878 0.667079595561 65.6457846004 0.639314525309 114.707449099 0.666937377701 65.8683284559 0.667079595561 65.6457846004 0.331962701755 -111.110622896 0.000332561095696 58.0305044038 0.639547926551 -65.0469910377 0.639314525309 114.707449099 0.000332561095682 58.0305044035 0.426913666261 139.367054278
10.025 0.097036098665 -46.6589228177 0.3670354567 76.5868452355 0.668973802124 60.9106167272 0.639017234983 -67.7219604393 0.3670354567 76.5868452355 0.0976289615397 -47.1330159843 0.669105953509 60.6874519885 0.638788531535 112.030740664 0.668973802124 60.9106167272 0.669105953509 60.6874519885 0.323683701538 -120.46379806 0.000363124154447 53.8762579395 0.639017234983 -67.7219604393 0.638788531535 112.030740664 0.000363124154429 53.8762579393 0.428492771722 136.800937107
10.05 0.0927131778196 -53.3905254717 0.365816954504 74.9967818852 0.670762754492 55.9395501659 0.638482228013 -70.3931078571 0.365816954504 74.9967818853 0.0933676269148 -53.8579099638 0.670884914435 55.7158320152 0.638258474043 109.357915421 0.670762754492 55.9395501659 0.670884914435 55.7158320152 0.316212895832 -130.051223677 0.000394132146792 49.4176217396 0.638482228013 -70.3931078571 0.638258474043 109.357915421 0.000394132146771 49.4176217395 0.430077215641 134.237186069
10.075 0.0885790673539 -60.4644539721 0.364986036874 73.4497376922 0.672285632922 50.9555892824 0.637942767962 -73.0605029392 0.364986036874 73.4497376922 0.0892964177867 -60.9141504721 0.672397930516 50.7313853927 0.637724369639 106.688902341 0.672285632922 50.9555892824 0.672397930516 50.7313853927 0.309698012419 -139.869269956 0.000425453303477 44.7123808916 0.637942767962 -73.0605029392 0.637724369639 106.688902341 0.000425453303453 44.7123808916 0.431667086947 131.675730229
10.1 0.084687265149 -67.9093776813 0.36457696568 71.9406939899 0.67352400618 45.9593203618 0.637398714674 -75.7242133703 0.36457696568 71.9406939899 0.0854664259257 -68.3277618477 0.673626626338 45.7346984333 0.637186236344 104.0236305 0.67352400618 45.9593203618 0.673626626338 45.7346984333 0.30428992708 -149.906190525 0.000456968822793 39.8047284874 0.637398714674 -75.7242133703 0.637186236344 104.0236305 0.000456968822768 39.8047284876 0.433262474097 129.116498736
10.125 0.0810984506719 -75.7488754964 0.364621927182 70.4636363315 0.674459833087 40.9514588692 0.636849926873 -78.3843048413 0.364621927182 70.4636363315 0.081935221852 -76.1196771063 0.674553017991 40.7264864489 0.636644092121 101.362028978 0.674459833087 40.9514588692 0.674553017991 40.7264864489 0.300136481202 -160.140766394 0.000488568226558 34.728980952 0.636849926873 -78.3843048413 0.636644092121 101.362028978 0.000488568226534 34.7289809523 0.434863464926 126.559420833
10.15 0.0778796309051 -83.9967221272 0.365150153828 69.011616532 0.675075696751 35.9328514561 0.636296263682 -81.0408410339 0.365150153828 69.011616532 0.0787659717647 -84.3014524762 0.675159746959 35.7075957536 0.636097953432 98.7040267805 0.675075696751 35.9328514561 0.675159746959 35.7075957536 0.297374909263 -170.541621405 0.00052014636948 29.5122007345 0.636296263682 -81.0408410339 0.636097953432 98.7040267805 0.000520146369457 29.5122007349 0.43647014651 124.004425881
10.175 0.075102092287 -92.6509652125 0.366187050639 67.5768631293 0.675355049815 30.9044763912 0.635737586274 -83.6938836233 0.366187050639 67.5768631293 0.0760254794944 -92.8699822172 0.67543032496 30.6790040896 0.63554783367 96.0495527749 0.675355049815 30.9044763912 0.67543032496 30.6790040896 0.296123484773 178.932431645 0.000551601563136 24.1760628989 0.635737586274 -83.6938836233 0.63554783367 96.0495527749 0.000551601563115 24.1760628993 0.438082605023 121.45144338
10.2 0.0728378075798 -101.68755404 0.367753370124 66.1509392882 0.675282466029 25.8674422534 0.635173759627 -86.3434923018 0.367753370124 66.1509392882 0.0737808678944 -101.801906083 0.67534938509 25.6418193162 0.634993741483 93.3985356505 0.675282466029 25.8674422534 0.67534938509 25.6418193162 0.296473358492 168.330785151 0.000582834470625 18.7381970375 0.635173759627 -86.3434923018 0.634993741482 93.3985356505 0.000582834470607 18.7381970379 0.439700925605 118.900402989
10.225 0.0711541917619 -111.055101367 0.369864481518 64.7249428397 0.674843892716 20.82298476 0.634604654339 -88.9897248258 0.369864481518 64.7249428397 0.0720948333686 -111.049078284 0.674902933801 20.5972762337 0.634435679033 90.7509039035 0.674843892716 20.82298476 0.674902933801 20.5972762337 0.298481775342 157.708200269 0.000613747547294 13.2131622332 0.634604654339 -88.9897248258 0.634435679033 90.7509039035 0.00061374754728 13.2131622337 0.441325192231 116.35123455
10.25 0.0701076043701 -120.673024041 0.372529777868 63.2897388676 0.674026898016 15.7724616398 0.634030148465 -91.6326370886 0.372529777868 63.2897388676 0.0710198351303 -120.536993476 0.674078597652 15.5467314531 0.633873640253 88.1065858479 0.674026898016 15.7724616398 0.674078597652 15.5467314531 0.302167784331 147.121089588 0.000644244876326 7.61316268313 0.634030148465 -91.6326370886 0.633873640253 88.1065858479 0.000644244876315 7.61316268355 0.442955487582 113.803868117
10.275 0.0697366615157 -130.435168055 0.375752257903 61.8362116696 0.672820906394 10.7173455075 0.633450129313 -94.2722832211 0.375752257903 61.8362116696 0.0705921337255 -130.167929375 0.672865858272 10.4916562666 0.633307609121 85.4655096536 0.672820906394 10.7173455075 0.672865858272 10.4916562666 0.307511159108 136.623529535 0.000674232293237 1.9485778772 0.633450129313 -94.2722832211 0.633307609121 85.4655096536 0.00067423229323 1.94857787754 0.444591892921 111.258233973
10.3 0.0700569329329 -140.219568129 0.37952830917 60.3555206275 0.671217415617 5.65921474973 0.632864495154 -96.908715718 0.37952830917 60.3555206275 0.0708270167091 -139.829372505 0.671256268808 5.43362753065 0.632737558044 82.8276034134 0.671217415617 5.65921474973 0.671256268808 5.43362753065 0.314454626593 126.263697388 0.00070361772144 -3.77164144764 0.632864495154 -96.908715718 0.632737558044 82.8276034134 0.000703617721435 -3.77164144737 0.446234487977 108.714262666
10.325 0.0710585474857 -149.902545455 0.38384770575 58.8393439205 0.669210188535 0.599742491244 0.632273156772 -99.5419855921 0.38384770575 58.8393439205 0.0717165171308 -149.406294167 0.669243645153 0.374316628795 0.632163446378 80.1927952358 0.669210188535 0.599742491244 0.669243645153 0.374316628795 0.322908866374 116.081294896 0.000732311658551 -9.53967568231 0.632273156772 -99.5419855921 0.632163446378 80.1927952358 0.000732311658549 -9.53967568213 0.447883350826 106.171885032
10.35 0.0727074492221 -159.373276259 0.388693819475 57.2800952226 0.666795413316 -4.45931623136 0.631676038817 -102.172142552 0.388693819475 57.2800952226 0.0732303037061 -158.794096416 0.666824225658 -4.68452335723 0.631585219166 77.561013364 0.666795413316 -4.45931623136 0.666824225658 -4.68452335723 0.332759305682 106.106233743 0.00076022776427 -15.3486115817 0.631676038817 -102.172142552 0.631585219166 77.561013364 0.00076022776427 -15.3486115816 0.449538557781 103.631032221
10.375 0.074949867973 -168.544725941 0.394044029656 55.6711013357 0.66397182651 -9.51613889959 0.631073080896 -104.799235204 0.394044029656 55.6711013357 0.0753194474781 -167.908724036 0.663996793675 -9.74107208013 0.631002806127 74.9321863154 0.66397182651 -9.51613889959 0.663996793675 -9.74107208013 0.343873602784 96.3585427444 0.000787283507976 -21.1922720584 0.631073080896 -104.799235204 0.631002806127 74.9321863154 0.000787283507978 -21.1922720584 0.451200183288 101.091635733
10.4 0.0777186366109 -177.358617868 0.399870304539 54.0067326505 0.660740794261 -14.5688513033 0.630464238355 -107.423311265 0.399870304539 54.0067326505 0.0779219558643 -176.691771996 0.660762758302 -14.7934577197 0.63041612095 72.3062430399 0.660740794261 -14.5688513033 0.660762758302 -14.7934577197 0.356108858402 86.8492252549 0.000813400839437 -27.0650872004 0.630464238355 -107.423311265 0.63041612095 72.3062430399 0.00081340083944 -27.0650872004 0.452868299817 98.5536274399
10.425 0.080939745617 174.215387877 0.40613991901 52.2824827684 0.657106348263 -19.6155443982 0.629849482732 -110.044417797 0.40613991901 52.2824827684 0.0809686941358 174.889522615 0.657126189906 -19.8397738422 0.629825060923 69.6831130906 0.657106348263 -19.6155443982 0.657126189906 -19.8397738422 0.369317901986 77.5816969769 0.000838506850204 -32.96199666 0.629849482732 -110.044417797 0.629825060923 69.6831130906 0.000838506850207 -32.96199666 0.45454297777 96.0169396195
10.45 0.0845379216752 166.184395774 0.412816268205 50.4949979291 0.653075174485 -24.6542918975 0.629228801842 -112.662601443 0.412816268205 50.4949979291 0.0843885878468 166.845952018 0.653093808482 -24.8780969944 0.629229506924 67.0627268013 0.653075174485 -24.6542918975 0.653093808482 -24.8780969944 0.383354334867 68.5534530715 0.000862534397108 -38.8783760331 0.629228801842 -112.662601443 0.629229506924 67.0627268013 0.000862534397111 -38.8783760332 0.45622428538 93.4815049845
10.475 0.0884406690455 158.53854917 0.419859735516 48.6420605344 0.64865655429 -29.683168238 0.628602199493 -115.277908661 0.419859735516 48.6420605344 0.0881125318112 159.171721629 0.648674924459 -29.9065046706 0.628629323783 64.4450154653 0.64865655429 -29.683168238 0.648674924459 -29.9065046706 0.398076284284 59.7576996719 0.000885422663159 -44.8099816197 0.628602199493 -115.277908661 0.628629323783 64.4450154653 0.000885422663162 -44.8099816198 0.457912288622 90.9472567122
10.5 0.0925807638643 151.257121857 0.427228575535 46.7225337137 0.643862259191 -34.7002665454 0.627969694846 -117.890385961 0.427228575535 46.7225337137 0.0920759199765 151.84994431 0.643881333223 -34.9230932801 0.628024361001 61.8299115088 0.643862259191 -34.7002665454 0.643881333223 -34.9230932801 0.413348995677 51.1847888375 0.000907117635276 -50.7529092451 0.627969694846 -117.890385961 0.628024361001 61.8299115088 0.000907117635278 -50.7529092451 0.459607051126 88.4141284747
10.525 0.0968974955351 144.313501216 0.43487977706 44.7362754146 0.638706402071 -39.703716225 0.627331321416 -120.500080124 0.43487977706 44.7362754146 0.0962200075488 144.857314094 0.638727166187 -39.9259957388 0.627414453819 59.217348653 0.638706402071 -39.703716225 0.638727166187 -39.9259957388 0.429046472017 42.8233856004 0.000927572482685 -56.7035637803 0.627331321416 -120.500080124 0.627414453819 59.217348653 0.000927572482686 -56.7035637804 0.461308634088 85.8820544683
10.55 0.10133703434 137.678806323 0.442769877334 42.6840309896 0.633205249172 -44.6916998183 0.626687125777 -123.107038406 0.442769877334 42.6840309896 0.100492423298 138.167625189 0.633228702696 -44.9133983268 0.626799424595 56.6072620591 0.633205249172 -44.6916998183 0.633228702696 -44.9133983268 0.445052384348 34.6613583502 0.0009467478245 -62.6586367157 0.626687125777 -123.107038406 0.626799424595 56.6072620591 0.0009467478245 -62.6586367157 0.463017096191 83.350969443
10.575 0.105852262896 131.324266447 0.450855705496 40.5673128763 0.627376998355 -49.6624687949 0.626037165995 -125.711308721 0.450855705496 40.5673128763 0.104847135048 131.754175581 0.627404148292 -49.8835564811 0.62617908445 53.9995884521 0.627376998355 -49.6624687949 0.627404148292 -49.8835564811 0.461260455266 26.686419798 0.000964611879739 -68.6150896973 0.626037165995 -125.711308721 0.62617908445 53.9995884521 0.00096461187974 -68.6150896973 0.46473249352 80.8208087308
10.6 0.110402321968 125.222632989 0.459095039994 38.3882749865 0.621241530127 -54.6143579884 0.625381509843 -128.3129398 0.459095039994 38.3882749865 0.109244104558 125.591262197 0.621273385815 -54.8348092324 0.625553235126 51.3942662195 0.621241530127 -54.6143579884 0.621273385815 -54.8348092324 0.477574478857 18.8865614964 0.000981140497732 -74.5701423688 0.625381509843 -128.3129398 0.625553235126 51.3942662195 0.000981140497732 -74.5701423688 0.466454879484 78.2915082745
10.625 0.114952034935 119.348908866 0.467447170949 36.149588091 0.614820138559 -59.5457984351 0.624720232872 -130.911981318 0.467447170949 36.149588091 0.113648793814 119.655010364 0.614857706472 -59.7655920441 0.624921671008 48.7912354804 0.614820138559 -59.5457984351 0.614857706472 -59.7655920441 0.493908100328 11.2503276999 0.000996317071295 -80.5212632104 0.624720232872 -130.911981318 0.624921671008 48.7912354804 0.000996317071295 -80.5212632104 0.468184304732 75.7630046539
10.65 0.119471307945 113.680631417 0.475873363918 33.8543210253 0.60813524954 -64.4553284322 0.624053416384 -133.508483999 0.475873363918 33.8543210253 0.118031623071 113.923751965 0.608179528296 -64.6744478707 0.62428418123 46.1904381268 0.60813524954 -64.4553284322 0.608179528296 -64.6744478707 0.510184443308 3.76697021651 0.00101013233906 -86.4661623502 0.624053416384 -133.508483999 0.62428418123 46.1904381268 0.00101013233906 -86.4661623501 0.469920817074 73.2352351126
10.675 0.123934556954 108.197883375 0.484337225908 31.5058311255 0.601210133755 -69.3416026875 0.623381145373 -136.102499682 0.484337225908 31.5058311255 0.122367436984 108.378117757 0.601262109394 -69.5600363081 0.623640551828 43.5918178336 0.601210133755 -69.3416026875 0.601262109394 -69.5600363081 0.526335644948 -3.5734810967 0.00102258408673 -92.4027855567 0.623381145373 -136.102499682 0.623640551828 43.5918178336 0.00102258408673 -92.4027855567 0.471664461395 70.7081375829
10.7 0.128320184392 102.883151464 0.492804977975 29.1076660362 0.594068621491 -74.2033994991 0.622703506499 -138.694081368 0.492804977975 29.1076660362 0.126635006556 103.000961259 0.594129263064 -74.4211407731 0.622990567856 40.9953200394 0.594068621491 -74.2033994991 0.594129263064 -74.4211407731 0.542302338536 -10.7802050377 0.00103367675973 -98.3293088219 0.622703506499 -138.694081368 0.622990567856 40.9953200394 0.00103367675973 -98.3293088219 0.473415279571 68.1816507095
10.725 0.132610112032 97.7211099702 0.501245641225 26.6634779744 0.586734825728 -79.0396259559 0.622020586139 -141.283283231 0.501245641225 26.6634779744 0.13081657766 97.7771927306 0.58680508123 -79.2566737038 0.622334015441 38.4008919003 0.586734825728 -79.0396259559 0.58680508123 -79.2566737038 0.558033109231 -17.8616125923 0.00104342100171 -104.244133102 0.622020586139 -141.283283231 0.622334015441 38.4008919003 0.00104342100171 -104.244133102 0.475173310372 65.6557138717
10.75 0.136789368312 92.6983767897 0.509631144714 24.1769507022 0.579232879201 -83.8493212059 0.621332468566 -143.870160612 0.509631144714 24.1769507022 0.134897467565 92.6935731231 0.579313671875 -84.0656798281 0.621670683707 35.8084822175 0.579232879201 -83.8493212059 0.579313671875 -84.0656798281 0.5734839392 -24.8253925591 0.00105183313444 -110.145878928 0.621332468566 -143.870160612 0.621670683707 35.8084822175 0.00105183313444 -110.145878928 0.476938589368 63.1302672045
10.775 0.140845724703 87.8032695659 0.517936364746 21.6517388499 0.571586690158 -88.6316578856 0.620639234285 -146.454769985 0.517936364746 21.6517388499 0.138865706348 87.7384982259 0.57167891519 -88.8473375927 0.621000366546 33.2180413439 0.571586690158 -88.6316578856 0.57167891519 -88.8473375927 0.588617652607 -31.6785689416 0.00105893459511 -116.033380701 0.620639234285 -146.454769985 0.621000366546 33.2180413439 0.00105893459511 -116.033380701 0.478711148818 60.6052516177
10.8 0.144769374645 83.0255767967 0.526139105422 19.0914188078 0.563819720507 -93.3859418409 0.619940958574 -149.037168915 0.526139105422 19.0914188078 0.142711718339 82.9017901743 0.56392424211 -93.6009588843 0.620322864214 30.629521071 0.563819720507 -93.3859418409 0.56392424211 -93.6009588843 0.603403367336 -38.4275631104 0.00106475134676 -121.905680597 0.619940958574 -149.037168915 0.620322864214 30.629521071 0.00106475134676 -121.905680597 0.480491017558 58.0806088136
10.825 0.148552648785 78.3563509285 0.534220030307 16.4994501456 0.555954788995 -98.1116103017 0.619237710216 -151.617415987 0.534220030307 16.4994501456 0.146428038385 78.1745052592 0.556072437878 -98.3259872039 0.619637984713 28.0428745018 0.555954788995 -98.1116103017 0.556072437878 -98.3259872039 0.617815958323 -45.0782561711 0.00106931327682 -127.762022054 0.619237710216 -151.617415987 0.619637984713 28.0428745018 0.00106931327682 -127.762022054 0.482278220874 55.5562813024
10.85 0.152189761079 73.7877258086 0.542162554651 13.8791463802 0.548013901029 -102.808228691 0.618529550466 -154.195570742 0.542162554651 13.8791463802 0.150009058219 73.5487618938 0.548145472252 -103.021994476 0.618945544978 25.4580559114 0.548013901029 -102.808228691 0.548145472252 -103.021994476 0.631835536173 -51.6360487036 0.00107265359728 -133.601842901 0.618529550466 -154.195570742 0.618945544978 25.4580559114 0.00107265359727 -133.601842901 0.48407278036 53.0322124165
10.875 0.15567658123 69.3127582369 0.549952707007 11.2336538723 0.540018105819 -107.475486266 0.617816532233 -156.771693595 0.549952707007 11.2336538723 0.153450798844 69.0175896132 0.540164357008 -107.688676689 0.618245371846 22.875020601 0.540018105819 -107.475486266 0.540164357008 -107.688676689 0.645446944058 -58.1059162501 0.00107480825858 -139.424768202 0.617816532233 -156.771693595 0.618245371846 22.875020601 0.00107480825858 -139.424768202 0.485874713767 50.5083463226
10.9 0.159010429891 64.925291981 0.557578968269 8.5659376511 0.531987380675 -112.113190786 0.617098699479 -159.345845752 0.557578968269 8.5659376511 0.156750705614 64.5747983155 0.532149030571 -112.325848566 0.61753730283 20.2937247458 0.531987380675 -112.113190786 0.532149030571 -112.325848566 0.658639275439 -64.4924597463 0.00107581538748 -145.230602943 0.617098699479 -159.345845752 0.61753730283 20.2937247458 0.00107581538747 -145.230602942 0.487684034831 47.9846280312
10.925 0.162189893788 60.6198419942 0.565032095306 5.87877304086 0.52394054156 -116.721262408 0.616376086831 -161.918089129 0.565032095306 5.87877304086 0.159907463343 60.2148661035 0.52411826889 -116.933437456 0.616821186698 17.7141252428 0.52394054156 -116.721262408 0.52411826889 -116.933437456 0.671405414798 -70.7999506326 0.00107571475707 -151.019324688 0.616376086831 -161.918089129 0.616821186698 17.7141252428 0.00107571475705 -151.019324687 0.48950075309 45.461003405
10.95 0.165214658589 56.3914963887 0.572304935386 3.17474204992 0.515895178455 -121.299727 0.615648719382 -164.488486275 0.572304935386 3.17474204992 0.162920829308 55.9328437325 0.516089621085 -121.511476654 0.616096883884 15.1361795579 0.515895178455 -121.299727 0.516089621085 -121.511476654 0.683741603179 -77.0323707297 0.00107454729544 -156.791076359 0.615648719382 -164.488486275 0.616096883884 15.1361795579 0.00107454729543 -156.791076358 0.491324873675 42.9374191647
10.975 0.168085357775 52.2358337646 0.579392236694 0.456233597495 0.507867613638 -125.848709043 0.614916612674 -167.057100296 0.579392236694 0.456233597498 0.16579148244 51.7242735953 0.508079367979 -126.0600983 0.615364266741 12.5598455766 0.507867613638 -125.848709043 0.508079367979 -126.0600983 0.695647029981 -83.1934471686 0.00107235463764 -162.546159283 0.614916612674 -167.057100296 0.615364266741 12.5598455766 0.00107235463762 -162.546159282 0.493156397085 40.4138228927
11 0.170803436133 48.1488536777 0.586290459339 -2.27455323733 0.499872880665 -130.368424295 0.614179772837 -169.623994786 0.586290459339 -2.27455323733 0.168520887321 47.5851212612 0.500102501312 -130.579526045 0.614623219662 9.98508145813 0.499872880665 -130.368424295 0.500102501312 -130.579526045 0.707123452036 -89.2866827813 0.00106917872372 -168.285026655 0.614179772837 -169.623994786 0.614623219662 9.98508145813 0.0010691787237 -168.285026654 0.494995318942 37.8901630343
11.025 0.173371026728 44.1269182549 0.592997590374 -5.01560364732 0.491924721693 -134.859172343 0.613438196869 -172.189233775 0.592997590374 -5.01560364732 0.171111171806 43.5117177521 0.492172721249 -135.070067605 0.613873639103 7.4118454955 0.491924721693 -134.859172343 0.492172721249 -135.070067605 0.718174840604 -95.3153824093 0.00106506144448 -174.008277567 0.613438196869 -172.189233775 0.613873639103 7.41184549551 0.00106506144447 -174.008277565 0.496841629721 35.3663888963
11.05 0.175790840361 40.1667032149 0.599512965621 -7.76507980757 0.484035600672 -139.321329191 0.612691873039 -174.75288167 0.599512965621 -7.76507980756 0.173565017258 39.500710934 0.48430244974 -139.532107354 0.613115433499 4.84009598073 0.484035600672 -139.321329191 0.48430244974 -139.532107354 0.72880705647 -101.2826756 0.00106004433514 -179.71665173 0.612691873039 -174.75288167 0.613115433499 4.84009598074 0.00106004433512 -179.716651728 0.498695314451 32.8424506435
11.075 0.178066066633 36.2651567872 0.605837100369 -10.5213123661 0.476216729959 -143.755339965 0.611940781386 -177.315003224 0.605837100369 -10.5213123661 0.175885560484 35.5490246055 0.47650285727 -143.966099029 0.612348523136 2.26979107648 0.476216729959 -143.755339965 0.47650285727 -143.966099029 0.739027552992 -107.191536142 0.00105416831599 174.588974979 0.611940781386 -177.315003224 0.612348523136 2.26979107648 0.00105416831596 174.588974981 0.500556352398 30.3182992918
11.1 0.180200285805 32.4194652424 0.611971530424 -13.282791129 0.468478108008 -148.161711851 0.611184894319 -179.875663501 0.611971530424 -13.282791129 0.178076306521 31.6538240599 0.468783900653 -148.372558671 0.611572839962 -0.299111306442 0.468478108008 -148.161711851 0.468783900653 -148.372558671 0.74884510653 -113.044798868 0.00104747347865 168.907594026 0.611184894319 -179.875663501 0.611572839962 -0.299111306436 0.00104747347863 168.907594028 0.502424716711 27.793886698
11.125 0.182197390675 28.6270239418 0.61791866447 -16.0481552777 0.460828565889 -152.541007302 0.610424177266 177.565072136 0.61791866447 -16.0481552777 0.180141051474 27.8124870726 0.461154369637 -152.752057842 0.610788327376 -2.86665362581 0.460828565889 -152.541007302 0.461154369637 -152.752057842 0.75826957343 -118.845174101 0.00103999891566 163.238066673 0.610424177266 177.565072136 0.610788327376 -2.86665362581 0.00103999891563 163.238066675 0.50430037404 25.2691655462
11.15 0.184061517733 24.8854129869 0.623681648252 -18.8161833882 0.453275820603 -156.893837605 0.609658589406 175.007138038 0.623681648252 -18.8161833882 0.182083814637 24.0225794273 0.453621940277 -157.105217192 0.609994940016 -5.43287881975 0.453275820603 -156.893837605 0.453621940277 -157.105217192 0.767311672422 -124.595260105 0.00103178259072 157.579125282 0.609658589406 175.007138038 0.609994940016 -5.43287881974 0.0010317825907 157.579125284 0.506183284114 22.7440893312
11.175 0.185796986859 21.1923766949 0.629264240756 -21.5857834673 0.44582653333 -161.220856815 0.608888084422 172.450468262 0.629264240756 -21.5857834673 0.183908779159 20.2818342294 0.446193233221 -161.4327004 0.609192643531 -7.99783041401 0.44582653333 -161.220856815 0.446193233221 -161.4327004 0.775982791121 -130.29755382 0.00102286124712 151.929373353 0.608888084422 172.450468262 0.609192643531 -7.997830414 0.0010228612471 151.929373355 0.508073399279 20.2186123368
11.2 0.187408248878 17.5458062566 0.634670702259 -24.3559831676 0.438486370979 -165.522756102 0.608112611312 169.894996555 0.634670702258 -24.3559831676 0.185620240522 16.5881343775 0.438873875274 -165.735208536 0.608381414393 -10.5615526258 0.438486370979 -165.522756102 0.438873875274 -165.735208536 0.784294815128 -135.954460164 0.00101327035117 146.287284221 0.608112611312 169.894996555 0.608381414393 -10.5615526258 0.00101327035115 146.287284223 0.509970663988 17.6926896104
11.225 0.188899840279 13.9437250374 0.639905693908 -27.1259203075 0.431260069602 -169.800258517 0.607332115216 167.340656334 0.639905693908 -27.1259203075 0.187222562157 12.9394976663 0.431668562821 -170.013474826 0.607561239719 -13.1240904652 0.431260069602 -169.800258517 0.431668562821 -170.013474826 0.792259978144 -141.568300112 0.00100304406821 140.651198309 0.607332115216 167.340656334 0.607561239719 -13.1240904652 0.00100304406819 140.65119831 0.511875014235 15.1662769333
11.25 0.190276344438 10.3842760731 0.644974188319 -29.8948337844 0.424151498465 -174.054114191 0.60654653827 164.787380645 0.644974188319 -29.8948337844 0.188720137521 9.33406407939 0.424581125884 -174.268259868 0.606732117137 -15.6854898347 0.424151498465 -174.054114191 0.424581125884 -174.268259868 0.799890731433 -147.141317755 0.000992215268363 135.019318848 0.60654653827 164.787380645 0.606732117137 -15.6854898347 0.000992215268348 135.019318849 0.513786376934 12.6393307861
11.275 0.191542358722 6.86571139165 0.649881390573 -32.6620549434 0.41716372376 -178.28509595 0.605755820481 162.235102121 0.649881390573 -32.6620549434 0.190117358002 5.7700849059 0.417614591796 -178.500347258 0.605894054696 -18.2457976286 0.41716372376 -178.28509595 0.417614591796 -178.500347258 0.807199630937 -152.675686487 0.00098081556001 129.389705974 0.605755820481 162.235102121 0.605894054696 -18.2457976286 0.000980815559997 129.389705975 0.515704669211 10.1118083104
11.3 0.192702466878 3.38638285048 0.6546326689 -35.4269994415 0.410299071102 177.506004648 0.604959900617 159.683752922 0.6546326689 -35.4269994415 0.191418586058 2.24591337727 0.410771247677 177.289460353 0.605047070818 -20.8050618329 0.410299071102 177.506004648 0.410771247677 177.289460353 0.814199240373 -158.173514461 0.000968875348825 123.760269103 0.604959900617 159.683752922 0.605047070818 -20.8050618329 0.000968875348815 123.760269103 0.517629797633 7.58366726539
11.325 0.193761216123 -0.05526576258 0.659233494316 -38.1891596289 0.40355918618 173.318380867 0.604158717108 157.133264673 0.659233494316 -38.1891596289 0.192628133017 -1.24000342939 0.404052701022 173.10034481 0.604191194313 -23.3633316265 0.40355918618 173.318380867 0.404052701022 173.10034481 0.820902048665 -163.63684942 0.000956423921043 118.128757483 0.604158717108 157.133264673 0.604191194313 -23.3633316265 0.000956423921036 118.128757482 0.519561657336 5.0548659814
11.35 0.19472309843 -3.46070557581 0.663689388431 -40.9480974538 0.396945093009 169.151213974 0.603352208965 154.583568388 0.663689388431 -40.9480974538 0.193750241015 -4.68913162991 0.397459937905 168.931475597 0.603326464442 -25.9206574858 0.396945093009 169.151213974 0.397459937905 168.931475597 0.827320400112 -169.067682997 0.000943489549832 112.492748829 0.603352208965 154.583568388 0.603326464442 -25.9206574858 0.000943489549828 112.492748828 0.521500131053 2.5253633098
11.375 0.195592535504 -6.83132860006 0.668005878685 -43.7034378891 0.390457249427 165.00367604 0.602540316712 152.034594383 0.668005878685 -43.7034378891 0.194789068588 -8.10285668671 0.390993378408 164.782012631 0.602452931041 -28.4770912921 0.390457249427 165.00367604 0.390993378408 164.782012631 0.833466435792 -174.467954551 0.00093009962429 106.849635925 0.602540316712 152.034594383 0.602452931041 -28.4770912921 0.000930099624289 106.849635924 0.523445088042 -0.00488142970989
11.4 0.196373866997 -10.1684529577 0.672188460251 -46.4548628675 0.384095599552 160.874932401 0.601722983333 149.486272183 0.672188460251 -46.4548628675 0.195748679457 -11.4824888201 0.384652929 160.651108689 0.60157065471 -31.0326864442 0.384095599552 160.874932401 0.384652929 160.651108689 0.839352044762 -179.839554592 0.000916280801099 101.196611093 0.601722983333 149.486272183 0.60157065471 -31.0326864442 0.000916280801101 101.196611093 0.525396382887 -2.53590850356
11.425 0.197071341548 -13.4733274913 0.676242563905 -49.2021057081 0.377859623018 156.764143796 0.600900155232 146.938530417 0.676242563905 -49.2021057081 0.196633034113 -14.8292677954 0.378438031712 156.537911521 0.600679707057 -33.5874979768 0.377859623018 156.764143796 0.378438031712 156.537911521 0.844988823705 174.815672155 0.000902059179467 95.5306484174 0.600900155232 146.938530417 0.600679707057 -33.5874979768 0.000902059179471 95.5306484171 0.527353854179 -5.06775781965
11.45 0.197689110266 -16.7471358474 0.680173529185 -51.9449460127 0.371748380922 152.670468201 0.600071783219 144.391296703 0.680173529185 -51.9449460127 0.197445983813 -18.1443671822 0.372347709984 152.441565649 0.599780171007 -36.1415826848 0.371748380922 152.670468201 0.372347709984 152.441565649 0.8503880438 169.495924018 0.000887460500609 89.848483639 0.600071783219 144.391296703 0.599780171007 -36.1415826848 0.000887460500614 89.8484836389 0.529317323066 -7.60046898265
11.475 0.198231222321 -19.9910001155 0.683986582211 -54.6832050055 0.365760558429 148.593062388 0.599237823511 141.844497527 0.683986582211 -54.6832050055 0.198191266657 -21.4288981673 0.366380611192 148.361213886 0.598872141174 -38.6949992557 0.365760558429 148.593062388 0.366380611192 148.361213886 0.855560623645 164.199439956 0.00087251037369 84.1465916356 0.599237823511 141.844497527 0.598872141174 -38.6949992557 0.000872510373695 84.1465916357 0.531286591658 -10.134081348
11.5 0.198701622329 -23.205984086 0.687686817578 -57.4167412903 0.359894504075 144.531083224 0.598398238759 139.298058104 0.687686817578 -57.4167412903 0.198872505449 -24.6839129848 0.360535045859 144.295998596 0.597955724292 -41.24780841 0.359894504075 144.531083224 0.360535045859 144.295998596 0.860517107205 158.924497436 0.000857234530814 78.4211614504 0.598398238759 139.298058104 0.597955724292 -41.24780841 0.000857234530814 78.4211614503 0.533261441307 -12.6686340739
