! Generated from PyAEDT SolutionData; AEDT ExportNetworkData workaround
# GHz S MA R 50
9 0.686598047852 25.2238896379 0.262705084717 -84.9715594029 0.539429084105 -4.92554965317 0.410591551752 32.2073548148 0.262705084717 -84.9715594029 0.684711634663 25.0023714312 0.541844297339 -4.93272522993 0.410561534075 -147.881996806 0.539429084105 -4.92554965317 0.541844297339 -4.93272522993 0.644531211051 167.536195198 0.000733923813022 167.854731731 0.410591551752 32.2073548148 0.410561534075 -147.881996806 0.000733923813022 167.854731731 0.814158010292 -158.428653042
9.025 0.685089174692 22.1883611053 0.262641409877 -88.4284525756 0.541412259946 -9.4371604152 0.410541206012 29.4971588245 0.262641409877 -88.4284525756 0.683183999947 21.9701437585 0.543830627356 -9.44282305572 0.410519547524 -150.590547671 0.541412259946 -9.4371604152 0.543830627356 -9.44282305572 0.641196847594 161.60432755 0.000740150356751 163.575260403 0.410541206012 29.4971588244 0.410519547524 -150.590547671 0.000740150356839 163.575260403 0.814204578127 -160.758358505
9.05 0.683615480432 19.162093927 0.262582724528 -91.8699457884 0.543341255863 -13.9348701872 0.410486174752 26.7943210929 0.262582724527 -91.8699457884 0.681691346904 18.947172073 0.545762976387 -13.9390039184 0.410473289716 -153.291755818 0.543341255863 -13.9348701872 0.545762976387 -13.9390039184 0.637920460543 155.688142967 0.00074660175329 159.310356825 0.410486174751 26.7943210929 0.410473289716 -153.291755818 0.00074660175343 159.310356826 0.814255646761 -163.082678671
9.075 0.682175182037 16.1447854169 0.262530440754 -95.2963044614 0.545218207196 -18.4187083569 0.410426697609 24.0987155343 0.262530440754 -95.2963044614 0.680231871314 15.9331444089 0.5476435003 -18.4212999719 0.410422979846 -155.985749042 0.545218207196 -18.4187083568 0.5476435003 -18.4212999719 0.634701541242 149.788436206 0.000753287336428 155.058906995 0.410426697609 24.0987155343 0.410422979846 -155.985749042 0.000753287336593 155.058906995 0.81431098409 -165.401710111
9.1 0.680766393675 13.1361502236 0.262485903521 -98.7078301851 0.547045359168 -22.8887298102 0.410363006674 21.4102186176 0.262485903521 -98.7078301851 0.678803666822 12.927766436 0.549474463452 -22.8897688128 0.410368829903 -158.672652398 0.547045359168 -22.8887298102 0.549474463452 -22.8897688129 0.631539021859 143.905874453 0.00076021534939 150.819815963 0.410363006674 21.4102186176 0.410368829903 -158.672652398 0.00076021534956 150.819815964 0.814370365101 -167.715547356
9.125 0.679387145142 10.135920294 0.262450384582 -102.104856553 0.548825046757 -27.3450128715 0.4102953268 18.7287093147 0.262450384582 -102.104856553 0.677404743498 9.93076142955 0.551258218518 -27.3444914209 0.41031104491 -161.352588268 0.548825046757 -27.3450128715 0.551258218518 -27.344491421 0.628431335438 138.041006542 0.000767393031528 146.592013468 0.4102953268 18.7287093146 0.410311044911 -161.352588268 0.000767393031688 146.592013468 0.81443357166 -170.024282964
9.15 0.678035398868 7.14384476627 0.262425077363 -105.487745209 0.550559675856 -31.7876573804 0.410223875908 16.0540690455 0.262425077363 -105.487745209 0.676033044946 6.94187017025 0.552997187602 -31.785570237 0.410249823158 -164.025676412 0.550559675856 -31.7876573804 0.552997187602 -31.785570237 0.625376474482 132.194271948 0.000774826700139 142.374458566 0.410223875908 16.0540690455 0.410249823158 -164.025676412 0.000774826700281 142.374458566 0.814500392311 -172.328007592
9.175 0.676709065604 4.15968980416 0.262411092748 -108.856882126 0.552251705722 -36.2167829069 0.410148865268 13.3861816216 0.262411092748 -108.856882126 0.674686464076 3.96085078444 0.554693844663 -36.2131273773 0.410185356434 -166.692034032 0.552251705722 -36.2167829069 0.554693844663 -36.2131273773 0.622372047234 126.366009459 0.000782521826987 138.166143399 0.410148865268 13.3861816216 0.410185356434 -166.692034032 0.000782521827106 138.166143399 0.814570622074 -174.626810051
9.2 0.675406018865 1.1832383774 0.262409455703 -112.212674116 0.553903632738 -40.6325270987 0.410070499769 10.7249331875 0.262409455703 -112.212674116 0.673362857622 0.987478532355 0.556350699242 -40.6273029816 0.410117830257 -169.351775834 0.553903632738 -40.6325270987 0.556350699242 -40.6273029816 0.619415331017 120.556465415 0.000790483109327 133.966096198 0.410070499769 10.7249331875 0.410117830257 -169.351775834 0.000790483109421 133.966096198 0.814644062244 -176.920777377
9.225 0.674124108206 -1.78571000221 0.262421102667 -115.555545574 0.555517975443 -45.0350441582 0.40998897818 8.07021216131 0.262421102667 -115.555545574 0.672060059476 -1.97845444855 0.557970281482 -45.0282536886 0.410047424101 -172.005014089 0.555517975443 -45.0350441582 0.557970281482 -45.0282536886 0.616503322199 114.76580143 0.000798714535436 129.77338363 0.40998897818 8.07021216129 0.410047424101 -172.005014089 0.000798714535506 129.77338363 0.814720520191 -179.209994885
9.25 0.672861171415 -4.74733958356 0.262446879642 -118.885935466 0.557097260824 -49.4245034428 0.40990449339 5.42190917459 0.262446879642 -118.885935466 0.670775892924 -4.93713943843 0.559555128405 -49.4161512357 0.409974311617 -174.651858693 0.557097260824 -49.4245034428 0.559555128405 -49.4161512357 0.613632782479 108.994101568 0.00080721944478 125.587112582 0.40990449339 5.42190917457 0.409974311617 -174.651858693 0.000807219444826 125.587112582 0.814799809169 178.505453768
9.275 0.671615045696 -7.70181871135 0.262487540906 -122.204294546 0.558644011811 -53.8010881823 0.409817232638 2.77991701157 0.262487540906 -122.204294546 0.669508181865 -7.88875146203 0.561107771401 -53.7911811742 0.409898660857 -177.292417227 0.558644011811 -53.8010881823 0.561107771401 -53.7911811742 0.610800281373 103.241378918 0.000816000583046 121.406431443 0.409817232638 2.77991701156 0.409898660857 -177.292417227 0.000816000583071 121.406431443 0.814881748126 176.225486529
9.3 0.670383577902 -10.6493001881 0.262543748299 -125.511082797 0.560160735921 -58.1649943063 0.409727377734 0.144130548618 0.262543748299 -125.511082797 0.66825476107 -10.8334496422 0.562630724874 -58.153541695 0.409820634487 -179.926795021 0.560160735921 -58.1649943063 0.562630724874 -58.153541695 0.608002234862 97.5075815796 0.000825060152338 117.230530967 0.409727377734 0.144130548616 0.409820634487 -179.926795021 0.000825060152345 117.230530967 0.814966161507 173.950022891
9.325 0.669164633895 -13.5899216579 0.262616070991 -128.806767102 0.561649915005 -62.5164293739 0.409635105263 -2.48555330622 0.262616070991 -128.806767102 0.667013485557 -13.7713775751 0.564126475983 -62.503442556 0.409740390002 177.444904789 0.561649915005 -62.5164293739 0.564126475983 -62.503442556 0.605234940261 91.7925980326 0.000834399856891 113.058644769 0.409635105263 -2.48555330622 0.409740390002 177.444904789 0.000834399856884 113.058644769 0.815052879081 171.678983842
9.35 0.667956107094 -16.5238060074 0.262704985693 -132.091819109 0.563113996009 -66.8556115983 0.409540586778 -5.10923567311 0.262704985693 -132.091819109 0.665782239151 -16.7026637218 0.565597475421 -66.8411041032 0.409658079934 174.822581201 0.563113996009 -66.8556115983 0.565597475421 -66.8411041032 0.60249460746 86.0962619363 0.000844020944647 108.890049499 0.409540586778 -5.1092356731 0.409658079934 174.822581201 0.000844020944629 108.890049499 0.815141735749 169.412291811
9.375 0.66675592626 -19.4510617793 0.262810877247 -135.366713315 0.564555382705 -71.1827689583 0.409443988983 -7.72701575964 0.262810877247 -135.366713315 0.664558942275 -19.6274218133 0.567046129152 -71.1667563796 0.409573852056 172.206135292 0.564555382705 -71.1827689583 0.567046129152 -71.1667563796 0.599777386708 80.4183563612 0.00085392424508 104.724064745 0.409443988983 -7.72701575963 0.409573852056 172.206135292 0.000853924245056 104.724064745 0.815232571373 167.149870619
9.4 0.665562062591 -22.3717835948 0.262934039534 -138.631925321 0.565976428309 -75.4981383884 0.409345473911 -10.3389909191 0.262934039534 -138.631925321 0.663341559041 -22.5457512638 0.568474791049 -75.4806383115 0.409487849587 169.595470156 0.565976428309 -75.4981383884 0.568474791049 -75.4806383115 0.597079393196 74.7586174966 0.000864110203635 100.560052698 0.409345473911 -10.3389909191 0.409487849587 169.595470156 0.000864110203606 100.560052698 0.8153252306 164.891645427
9.425 0.664372536168 -25.2860525821 0.263074676662 -141.887930274 0.567379428926 -79.8019650407 0.409245199078 -12.9452567077 0.263074676662 -141.887930274 0.662128103692 -25.4577375893 0.569885756345 -79.7829969663 0.409400211389 166.990490852 0.567379428926 -79.8019650407 0.569885756345 -79.7829969663 0.594396728662 69.1167378714 0.000874578913116 96.3974176109 0.409245199079 -12.9452567077 0.409400211389 166.990490852 0.000874578913086 96.3974176111 0.815419562691 162.637542693
9.45 0.66318542181 -28.1939368056 0.263232904377 -145.135201468 0.568766617734 -84.0945016105 0.409143317648 -15.5459069406 0.263232904377 -145.135201468 0.660916646448 -28.3634528283 0.571281255857 -84.0740868745 0.40931107216 164.391104352 0.568766617734 -84.0945016105 0.571281255857 -84.0740868745 0.591725500311 63.4923691292 0.000885330142388 92.2356050766 0.409143317648 -15.5459069406 0.40931107216 164.391104352 0.000885330142359 92.2356050768 0.815515421354 160.387490123
9.475 0.661998854389 -31.0954916956 0.263408751669 -148.374209105 0.57014015987 -88.3760077186 0.409039978568 -18.1410337467 0.263408751669 -148.374209105 0.659705318807 -31.2629559622 0.572663450879 -88.3541694073 0.409220562629 161.797219481 0.57014015987 -88.3760077186 0.572663450879 -88.3541694073 0.589061837306 57.8851244037 0.000896363362656 88.0741011522 0.409039978568 -18.1410337467 0.409220562629 161.797219481 0.000896363362629 88.0741011524 0.815612664581 158.141416627
9.5 0.660811033641 -33.9907604739 0.263602162519 -151.605419182 0.571502147932 -92.646749344 0.408935326712 -20.7307276216 0.263602162519 -151.605419182 0.658492318341 -34.1562933316 0.574034428721 -92.6235122053 0.409128809742 159.20874687 0.571502147932 -92.646749344 0.574034428721 -92.6235122053 0.5864019051 52.2945803383 0.00090767777164 83.9124313495 0.408935326712 -20.7307276216 0.409128809742 159.20874687 0.000907677771617 83.9124313497 0.815711154489 155.899252274
9.525 0.659620228541 -36.8797745736 0.263812997767 -154.829292522 0.572854598035 -96.9069983007 0.408829503007 -23.31507748 0.263812997767 -154.829292522 0.657275913052 -37.0434990476 0.575396198788 -96.8823886506 0.409035936847 156.625598907 0.572854598035 -96.9069983007 0.575396198788 -96.8823886506 0.583741917882 46.7202787945 0.000919272315862 79.7501595084 0.408829503007 -23.31507748 0.409035936847 156.625598907 0.000919272315844 79.7501595086 0.815810757165 153.660928256
9.55 0.658424781257 -39.7625540514 0.264041037061 -158.046283912 0.57419944638 -101.157031753 0.40872264456 -25.8941707053 0.264041037061 -158.046283912 0.65605444531 -39.9245953953 0.576750689188 -101.131077377 0.408942063877 154.047689683 0.57419944638 -101.157031753 0.576750689188 -101.131077377 0.581078149366 41.1617282898 0.000931145711287 75.5868865708 0.40872264456 -25.8941707053 0.408942063877 154.047689683 0.000931145711274 75.5868865709 0.815911342508 151.426376841
9.575 0.657223110757 -42.6391079902 0.264285980869 -161.256841352 0.575538546261 -105.397131762 0.408614884771 -28.4680931989 0.264285980869 -161.256841352 0.65482633543 -42.7995932277 0.578099743767 -105.369861815 0.408847307531 151.474934947 0.575538546261 -105.397131762 0.578099743767 -105.369861815 0.578406942178 35.6184052067 0.000943296462492 71.4222492702 0.408614884771 -28.4680931989 0.408847307531 151.474934947 0.000943296462483 71.4222492702 0.816012784086 149.195531336
9.6 0.656013716085 -45.5094348905 0.264547452516 -164.461405399 0.576873665479 -109.627584867 0.408506353442 -31.0369294271 0.264547452516 -164.461405399 0.653590084928 -45.6684923499 0.579445119557 -109.599029762 0.408751781446 148.907252059 0.576873665479 -109.627584867 0.579445119557 -109.599029762 0.575724716042 30.0897548058 0.000955722880525 67.2559187498 0.408506353442 -31.0369294271 0.408751781446 148.907252059 0.000955722880522 67.2559187499 0.816114958986 146.968326048
9.625 0.65479517936 -48.3735230502 0.264825000238 -167.660408597 0.578206484091 -113.848681683 0.40839717689 -33.6007624667 0.264825000238 -167.660408597 0.652344279495 -48.5312818903 0.580788484571 -113.818872983 0.408655596376 146.344559943 0.578206484091 -113.848681683 0.580788484571 -113.818872983 0.573027974973 24.575192077 0.000968423099602 63.0875991231 0.40839717689 -33.6007624667 0.408655596376 146.344559943 0.000968423099602 63.0875991231 0.816217747673 144.744696251
9.65 0.653566168532 -51.2313509309 0.265118099227 -170.854274985 0.579538592476 -118.060716522 0.408287478039 -36.1596740488 0.265118099227 -170.854274985 0.651087591726 -51.3879406602 0.582131415897 -118.029686825 0.408558860358 143.786779044 0.579538592476 -118.060716522 0.582131415897 -118.029686825 0.570313313675 19.0741024559 0.000981395092727 58.9170259875 0.408287478039 -36.1596740488 0.408558860358 143.786779044 0.000981395092731 58.9170259875 0.816321033847 142.524578144
9.675 0.652325439939 -54.0828875107 0.265426153654 -174.043419678 0.58087148966 -122.263987039 0.40817737652 -38.7137446013 0.265426153654 -174.043419678 0.649818783646 -54.2384374994 0.583475398075 -122.231769855 0.408461678889 141.233831287 0.58087148966 -122.263987039 0.583475398075 -122.231769855 0.567577423274 13.5858424297 0.00099463668635 54.7439649044 0.40817737652 -38.7137446013 0.408461678889 141.233831287 0.000994636686357 54.7439649043 0.816424704309 140.307908821
9.7 0.651071840689 -56.9280926233 0.265748498643 -177.228248507 0.582206581863 -126.458793883 0.408066988763 -41.2630532898 0.265748498643 -177.228248507 0.648536709068 -57.0827316094 0.584821821679 -126.425423514 0.408364155082 138.685640027 0.582206581863 -126.458793883 0.584821821679 -126.425423514 0.564817096589 8.10974005125 0.00100814557411 50.5682098553 0.408066988762 -41.2630532898 0.408364155082 138.685640027 0.00100814557412 50.5682098551 0.816528648828 138.094626234
9.725 0.649804310919 -59.7669172833 0.266084402212 179.590842287 0.58354518125 -130.645440369 0.407956428084 -43.8076780567 0.266084402212 179.590842287 0.647240315821 -59.9207728723 0.586171982117 -130.610951778 0.408266389838 136.142130017 0.58354518125 -130.645440369 0.586171982117 -130.610951778 0.562029233024 2.64509537762 0.00102191932971 46.3895816857 0.407956428084 -43.8076780567 0.408266389838 136.142130017 0.00102191932972 46.3895816856 0.816632760002 135.884669163
9.75 0.648521885948 -62.5993039977 0.266433067133 176.413466303 0.584888504838 -134.824232157 0.407845804771 -46.3476956592 0.266433067133 176.413466303 0.645928647876 -62.7525021575 0.587527078576 -134.788660839 0.408168482007 133.60322736 0.584888504838 -134.824232157 0.587527078576 -134.788660839 0.559210843252 -2.80881915556 0.00103595541904 42.2079265469 0.407845804771 -46.3476956592 0.408168482007 133.60322736 0.00103595541905 42.2079265467 0.816736933139 133.677977182
9.775 0.647223698375 -65.4251870647 0.266793632733 173.239247197 0.586237673533 -138.995476941 0.407735226168 -48.8831817055 0.266793632733 173.239247197 0.644600847409 -65.5778516159 0.588888213118 -138.958858788 0.408070528542 131.068859475 0.586237673533 -138.995476941 0.588888213118 -138.958858788 0.556359053762 -8.25275841576 0.0010502512114 38.0231143447 0.407735226168 -48.8831817055 0.408070528542 131.068859475 0.00105025121141 38.0231143445 0.816841066123 131.474490628
9.8 0.645908980132 -68.244492861 0.267165176614 170.067818849 0.587593711289 -143.15948415 0.40762479675 -51.4142106899 0.267165176614 170.067818849 0.643256156832 -68.3967449627 0.590256389877 -143.121855317 0.407972624665 128.538955054 0.587593711289 -143.15948415 0.590256389877 -143.121855317 0.553471111393 -13.6875043064 0.00106480399011 33.8350372067 0.40762479675 -51.4142106899 0.407972624665 128.538955054 0.00106480399012 33.8350372065 0.816945059294 129.274150575
9.825 0.644577064541 -71.0571401174 0.267546716287 166.898825503 0.588957544345 -147.31656466 0.407514618205 -53.9408560262 0.267546716287 166.898825503 0.641893920814 -71.2090977505 0.591632514346 -147.277961416 0.407874864014 126.013444025 0.588957544345 -147.31656466 0.591632514346 -147.277961416 0.550544387937 -19.1138655485 0.00107961096226 29.6436079754 0.407514618205 -53.9408560262 0.407874864014 126.013444025 0.00107961096227 29.6436079753 0.817048815322 127.076898799
9.85 0.64322738839 -73.8630401865 0.267937210718 163.731921877 0.590330000529 -151.467030499 0.407404789509 -56.4631900803 0.267937210718 163.731921877 0.640513588334 -74.0148176336 0.59301739274 -151.427489096 0.407777338802 123.492257517 0.590330000529 -151.467030499 0.59301739274 -151.427489096 0.547576384889 -24.5326775122 0.00109466926782 25.4487587369 0.407404789509 -56.4631900803 0.407777338802 123.492257517 0.00109466926783 25.4487587367 0.817152239092 124.882677752
9.875 0.641859494057 -76.6620973022 0.268335561779 160.566773246 0.591711808619 -155.611194579 0.407295407 -58.9812842011 0.268335561779 160.566773246 0.639114714777 -76.8138046265 0.594411731402 -155.5707511 0.407680139965 120.975327818 0.591711808619 -155.611194579 0.594411731402 -155.5707511 0.544564738424 -29.9448020993 0.00110997598803 21.2504393926 0.407295407 -58.9812842011 0.407680139965 120.975327818 0.00110997598804 21.2504393925 0.817255237582 122.691430537
9.9 0.640473031712 -79.4542088347 0.268740615609 157.403055497 0.593103597731 -159.749370424 0.40718656445 -61.4952087504 0.268740615609 157.403055497 0.637696964104 -79.6059513574 0.595816136244 -159.708060636 0.40758335731 118.462588342 0.593103597731 -159.749370424 0.595816136244 -159.708060636 0.541507224665 -35.3511276819 0.00112552815312 17.0486162826 0.40718656445 -61.4952087504 0.40758335731 118.462588342 0.00112552815312 17.0486162825 0.817357719751 120.503100878
9.925 0.6390677616 -82.239265543 0.269151163871 154.240455175 0.594505896731 -163.881871902 0.40707835314 -64.0050331319 0.269151163871 154.240455175 0.636260111116 -82.3911433204 0.597231112219 -163.83973111 0.407487079664 115.953973593 0.594505896731 -163.881871902 0.597231112219 -163.83973111 0.53840176531 -40.7525691009 0.00114132274943 12.8432708651 0.40707835314 -64.0050331319 0.407487079664 115.953973593 0.00114132274943 12.8432708651 0.81745959642 118.317633096
9.95 0.637643556452 -85.0171518269 0.269565944919 151.078669503 0.595919133656 -168.009012974 0.406970861927 -66.5108258188 0.269565944919 151.078669503 0.634804043839 -85.1692591292 0.598657062793 -167.966075871 0.407391395015 113.449419126 0.595919133656 -168.009012974 0.598657062793 -167.966075871 0.535246433685 -46.1500677321 0.00115735672594 8.6343984614 0.406970861927 -66.5108258188 0.407391395015 113.449419126 0.00115735672594 8.63439846137 0.817560780162 116.13497208
9.975 0.636200404008 -87.7877459833 0.269983644864 147.917406392 0.597343635129 -172.131107444 0.406864177321 -69.0126543804 0.269983644864 147.917406392 0.633328766023 -87.9401707744 0.60009428942 -172.087407957 0.407296390654 110.948861515 0.597343635129 -172.131107444 0.60009428942 -172.087407957 0.532039461265 -51.5445916226 0.00117362700028 4.42200706731 0.406864177321 -69.0126543804 0.407296390654 110.948861515 0.00117362700028 4.42200706731 0.817661185193 113.955063267
10 0.634738409695 -90.5509204688 0.270402898547 144.75638444 0.598779625773 -176.248468715 0.406758383552 -71.5105855085 0.270402898547 144.75638444 0.631834399802 -90.703743889 0.601542991014 -176.204039857 0.407202153314 108.452238315 0.598779625773 -176.248468715 0.601542991014 -176.204039857 0.528779244748 -56.9371357069 0.00119013046426 0.206116239004 0.406758383552 -71.5105855085 0.407202153314 108.452238315 0.00119013046425 0.206116239028 0.81776072726 111.777852615
10.025 0.633257799448 -93.3065421726 0.270822290417 141.595332917 0.600227227599 179.638590443 0.40665356264 -74.0046850416 0.270822290417 141.595332917 0.630321188494 -93.4598380258 0.603003263395 179.683716728 0.407108769305 105.959488029 0.600227227599 179.638590443 0.603003263395 179.683716728 0.525464353715 -62.3287221054 0.00120686398906 -4.01324394601 0.40665356264 -74.0046850416 0.407108769305 105.959488029 0.00120686398906 -4.01324394597 0.817859323532 109.603286582
10.05 0.631758922691 -96.0544727041 0.271240355325 138.433991752 0.601686459374 175.529758119 0.406549794471 -76.4950179897 0.271240355325 138.433991752 0.628789499568 -96.2083069494 0.604475098727 175.57555111 0.407016324652 103.47055007 0.601686459374 175.529758119 0.604475098727 175.57555111 0.522093538956 -67.7204005105 0.00122382443016 -8.23603384934 0.406549794471 -76.4950179897 0.407016324652 103.47055007 0.00122382443015 -8.23603384928 0.817956892496 107.431312097
10.075 0.630242255487 -98.7945686995 0.271655579224 135.272111504 0.603157235972 171.424723485 0.406447156863 -78.9816485577 0.271655579224 135.272111504 0.627239827778 -98.9489989495 0.605958384917 171.471153835 0.406924905219 100.985364731 0.603157235972 171.424723485 0.605958384917 171.471153835 0.518665741509 -73.1132486641 0.001241008632 -12.4622051526 0.406447156863 -78.9816485577 0.406924905219 100.985364731 0.00124100863199 -12.4622051526 0.81805335385 105.261876547
10.1 0.628708403842 -101.526682151 0.2720663998 132.109453345 0.604639367678 167.323177002 0.406345725643 -81.4646401677 0.2720663998 132.109453345 0.625672798456 -101.681757177 0.607452905001 167.370216892 0.40683459684 98.5038731444 0.604639367678 167.323177002 0.607452905001 167.370216892 0.515180102481 -78.5083729264 0.00125841343271 -16.6917016586 0.406345725643 -81.4646401677 0.40683459684 98.5038731444 0.00125841343271 -16.6917016586 0.8181486284 103.094927748
10.125 0.627158107176 -104.250660764 0.272471207015 128.945789027 0.606132559479 163.224810631 0.406245574719 -83.9440554818 0.272471207015 128.945789027 0.624089170973 -104.406420014 0.608958336487 163.272433924 0.406745485444 96.0260172502 0.606132559479 163.224810631 0.608958336487 163.272433924 0.511635973724 -83.9069089366 0.00127603566886 -20.9244600127 0.406245574719 -83.9440554818 0.406745485444 96.0260172502 0.00127603566885 -20.9244600126 0.818242637954 100.930413924
10.15 0.625592241947 -106.966348351 0.272868343596 125.780900866 0.607636410312 159.129318024 0.406146776154 -86.4199564234 0.272868343596 125.780900866 0.622489842353 -107.12282147 0.610474250681 159.177500418 0.406657657175 93.5517397614 0.607636410312 159.129318024 0.610474250681 159.177500418 0.508032929415 -89.3100223615 0.00129387218038 -25.160410347 0.406146776154 -86.4199564234 0.406657657175 93.5517397614 0.00129387218037 -25.1604103469 0.818335305222 98.7682836919
10.175 0.624011825409 -109.673585255 0.273256105452 122.614581726 0.609150412287 155.036394722 0.406049400242 -88.8924041984 0.273256105452 122.614581726 0.620875851028 -109.830791627 0.612000111975 155.085113897 0.406571198513 91.0809841277 0.609150412287 155.036394722 0.612000111975 155.085113897 0.50437077863 -94.718909726 0.00131191981597 -29.3994768486 0.406049400242 -88.8924041984 0.406571198513 91.0809841277 0.00131191981597 -29.3994768486 0.818426553715 96.6084860338
10.2 0.622418019508 -112.372208831 0.27363274205 119.446635004 0.610673949883 150.945738332 0.405953515588 -91.361459316 0.27363274205 119.446635004 0.619248380728 -112.53015713 0.613535277116 150.994974109 0.406486196385 88.6136945017 0.610673949883 150.945738332 0.613535277116 150.994974109 0.500649578978 -100.134799317 0.00133017543896 -33.6415782559 0.405953515588 -91.361459316 0.406486196385 88.6136945017 0.00133017543895 -33.6415782559 0.818516307643 94.4509702823
10.225 0.620812134874 -115.062053961 0.273996456736 116.27687464 0.61220629912 146.857048711 0.405859189183 -93.8271816093 0.273996456736 116.27687464 0.617608764474 -115.220741717 0.615078994448 146.906783193 0.406402738276 86.1498157031 0.61220629912 146.857048711 0.615078994448 146.906783193 0.496869651363 -105.558952148 0.00134863593389 -37.8866282858 0.405859189184 -93.8271816093 0.406402738276 86.1498157031 0.00134863593389 -37.8866282857 0.818604491815 92.2956860986
10.25 0.619195634906 -117.742953639 0.274345407039 113.105125124 0.613746626705 142.770028134 0.40576648649 -96.2896302552 0.274345407039 113.105125124 0.615958488654 -117.902366826 0.616630403146 142.820245863 0.406320912344 83.6892931838 0.613746626705 142.770028134 0.616630403146 142.820245863 0.493031595965 -110.992662961 0.00136729821403 -42.1345359972 0.40576648649 -96.2896302552 0.406320912344 83.6892931838 0.00136729821403 -42.1345359972 0.818691031543 90.1425834543
10.275 0.617570139902 -120.414739611 0.274677704938 109.931221531 0.615293989181 138.684381463 0.405675471522 -98.7488637945 0.274677704938 109.931221531 0.614299197159 -120.574852249 0.618188532424 138.735069562 0.406240807514 81.232072993 0.615293989181 138.684381463 0.618188532424 138.735069562 0.489136309504 -116.437261258 0.00138615922988 -46.3852060955 0.405675471522 -98.7488637945 0.406240807514 81.232072993 0.00138615922988 -46.3852060954 0.81877585254 87.9916126119
10.3 0.615937431212 -123.077243079 0.274991417133 106.755009571 0.616847332054 134.59981631 0.405586206934 -101.204940152 0.274991417133 106.755009571 0.61263269553 -123.238016864 0.619752300761 134.650964631 0.406162513588 78.7781017419 0.616847332054 134.59981631 0.619752300761 134.650964631 0.485185003866 -121.894112316 0.00140521597902 -50.638539182 0.405586206934 -101.204940152 0.406162513588 78.7781017419 0.00140521597901 -50.638539182 0.818858880826 85.8427241072
10.325 0.614299455371 -125.73029549 0.275284565312 103.576345656 0.618405488938 130.516043192 0.405498754105 -103.657916654 0.275284565312 103.576345656 0.610960955088 -125.891679443 0.621320515112 130.567644461 0.406086121336 76.3273265682 0.618405488938 130.516043192 0.621320515112 130.567644461 0.48117922617 -127.364618164 0.00142446551736 -54.8944319567 0.405498754105 -103.657916654 0.406086121336 76.3273265682 0.00142446551736 -54.8944319567 0.818940042625 83.6958687305
10.35 0.612658328162 -128.373729394 0.275555126437 100.395096999 0.619967180707 126.43277569 0.405413173232 -106.107850054 0.275555126437 100.395096999 0.609286116997 -128.53565954 0.622891870158 126.484825647 0.406011722592 73.879695101 0.619967180707 126.43277569 0.622891870158 126.484825647 0.477120880327 -132.850218483 0.0014439049721 -59.1527773773 0.405413173232 -106.107850054 0.406011722592 73.879695101 0.0014439049721 -59.1527773773 0.819019264278 81.5509975094
10.375 0.611016338572 -131.007379395 0.275801033063 97.2111417352 0.621531014678 122.349730596 0.405329523424 -108.554796545 0.275801033063 97.2111417352 0.607610496207 -131.169778472 0.624464947569 122.402228138 0.405939410343 71.4351554256 0.621531014678 122.349730596 0.624464947569 122.402228138 0.473012250165 -138.352391366 0.00146353155646 -63.413464782 0.405329523424 -108.554796545 0.405939410343 71.4351554256 0.00146353155646 -63.4134647821 0.819096472136 79.4080616911
10.4 0.60937595256 -133.631083189 0.2760201737 94.0243690766 0.623095483839 118.26662806 0.405247862796 -110.998811783 0.2760201737 94.0243690766 0.605936585218 -133.793860388 0.626038215317 118.319575382 0.405869278814 68.9936560475 0.623095483839 118.26662806 0.626038215317 118.319575382 0.468856024156 -143.872653903 0.00148334258662 -67.6763799826 0.405247862796 -110.998811783 0.405869278814 68.9936560475 0.00148334258662 -67.6763799826 0.819171592472 77.2670127252
10.425 0.607739816605 -136.244682708 0.276210393234 90.8346794972 0.624658966123 114.183191742 0.405168248567 -113.439950911 0.276210393234 90.8346794972 0.6042670576 -136.407733445 0.627610027056 114.236594469 0.405801423556 66.5551458581 0.624658966123 114.183191742 0.627610027056 114.236594469 0.464655321767 -149.412562499 0.00150333550087 -71.9414053318 0.405168248567 -113.439950911 0.405801423556 66.5551458581 0.00150333550087 -71.9414053318 0.819244551379 75.1278022469
10.45 0.606110760933 -138.848025353 0.276369493434 87.6419849564 0.626219723768 110.099148945 0.405090737166 -115.878268573 0.276369493434 87.6419849564 0.602604771208 -139.011231083 0.629178621563 110.153016272 0.405735941517 64.1195740983 0.626219723768 110.099148945 0.629178621563 110.153016272 0.460413721464 -154.973712871 0.00152350788131 -76.2084197737 0.405090737166 -115.878268573 0.405735941517 64.1195740983 0.00152350788131 -76.2084197738 0.819315274681 72.9903820603
10.475 0.604491802372 -141.440965347 0.276495233537 84.4462091606 0.627775902762 106.014230762 0.405015384333 -118.313818937 0.276495233537 84.4462091606 0.600952771 -141.604193416 0.630742122285 106.068575584 0.405672931126 61.6868903241 0.627775902762 106.014230762 0.630742122285 106.068575584 0.456135290323 -160.557739617 0.00154385747836 -80.4772988801 0.405015384333 -118.313818937 0.405672931126 61.6868903241 0.00154385747836 -80.4772988801 0.819383687829 70.8547041216
10.5 0.602886146738 -144.02336519 0.276585330952 81.2472878664 0.629325532398 101.928172208 0.404942245231 -120.746655722 0.276585330952 81.2472878664 0.599314291379 -144.186468732 0.632298536998 101.983011252 0.405612492362 59.2570443712 0.629325532398 101.928172208 0.632298536998 101.983011252 0.451824615205 -166.166315259 0.0015643822383 -84.7479148806 0.404942245231 -120.746655722 0.405612492362 59.2570443712 0.0015643822383 -84.7479148806 0.819449715814 68.7207205233
10.525 0.60129719067 -146.59509723 0.276637462076 78.0451692277 0.630866524965 97.8407123519 0.404871374549 -123.176832212 0.276637462076 78.0451692277 0.597692757977 -146.757915111 0.633845757596 97.8960663082 0.405554726826 56.8299863195 0.630866524965 97.8407123519 0.633845757596 97.8960663082 0.447486835399 -171.801148653 0.0015850803341 -89.020136692 0.404871374549 -123.176832212 0.405554726826 56.8299863195 0.00158508033411 -89.020136692 0.819513283065 66.5883834779
10.55 0.599728522814 -149.156045349 0.27664926325 74.8398141902 0.632396675595 93.7515944448 0.404802826627 -125.604401284 0.27664926325 74.8398141902 0.59609178877 -149.318402158 0.635381560043 93.8074880916 0.405499737809 54.4056664592 0.632396675595 93.7515944448 0.635381560043 93.8074880916 0.443127676564 -177.46398261 0.00160595019992 -93.2938299508 0.404802826627 -125.604401284 0.405499737809 54.4056664592 0.00160595019992 -93.2938299508 0.819574313353 64.4576453019
10.575 0.598183924265 -151.706106766 0.276618331863 71.6311969346 0.633913662275 89.6605660381 0.404736655559 -128.029415431 0.276618331863 71.6311969346 0.594515194434 -151.867812857 0.636903604499 89.7170283683 0.40544763036 51.9840352553 0.633913662275 89.6605660381 0.636903604499 89.7170283683 0.438753485788 176.843409399 0.00162699056952 -97.5688570567 0.404736655559 -128.029415431 0.40544763036 51.9840352553 0.00162699056952 -97.5688570568 0.819632729698 62.3284584
10.6 0.59666736815 -154.245193942 0.276542227607 68.4193053711 0.635415046074 85.5673790951 0.404672915324 -130.451926786 0.276542227607 68.4193053711 0.59296697783 -154.406045541 0.638409435654 85.62444344 0.405398511347 49.5650433135 0.635415046074 85.5673790951 0.638409435654 85.62444344 0.434371267437 171.119227626 0.00164820051902 -101.845077231 0.404672915324 -130.451926786 0.405398511347 49.5650433135 0.00164820051902 -101.845077231 0.819688454267 60.2007752495
10.625 0.595183018252 -156.773236614 0.276418473912 65.2041416886 0.63689827158 81.47179009 0.404611659897 -132.871987148 0.276418473912 65.2041416886 0.591451332502 -156.933015966 0.63989648328 81.5294942418 0.405352489528 47.148641346 0.63689827158 81.47179009 0.63989648328 81.5294942418 0.429988719455 165.361651714 0.0016695795143 -106.122346596 0.404611659897 -132.871987148 0.405352489528 47.148641346 0.0016695795143 -106.122346596 0.81974140828 58.0745483846
10.65 0.593735226567 -159.290183909 0.276244559538 61.9857229596 0.638360667589 77.3735600941 0.404552943378 -135.289648011 0.276244559538 61.9857229596 0.589972640089 -159.448659502 0.641362063035 77.4319464269 0.405309675607 44.7347801377 0.638360667589 77.3735600941 0.641362063035 77.4319464269 0.425614269613 159.568847826 0.00169112746365 -110.400518283 0.404552943378 -135.289648011 0.405309675607 44.7347801377 0.00169112746365 -110.400518283 0.819791511905 55.9497303812
10.675 0.592328529664 -161.796006575 0.276017940354 58.7640818036 0.639799448057 73.2724548423 0.40449682011 -137.704960588 0.276017940354 58.7640818036 0.588535466517 -161.952933413 0.642803377539 73.3315704326 0.405270182306 42.3234105123 0.639799448057 73.2724548423 0.642803377539 73.3315704326 0.421257111138 153.738977464 0.00171284477593 -114.67944257 0.40449682011 -137.704960588 0.405270182306 42.3234105123 0.00171284477593 -114.679442569 0.819838684165 53.8262738409
10.7 0.590967643765 -164.290699281 0.275736041283 55.5392671129 0.641211713335 69.1682447794 0.40444334481 -140.117975846 0.275736041283 55.5392671129 0.587144556875 -164.445819226 0.64421751773 69.2281415253 0.405234124424 39.9144832993 0.641211713335 69.1682447794 0.64421751773 69.2281415253 0.416927236987 147.870208195 0.00173473242495 -118.958967064 0.40444334481 -140.117975846 0.405234124424 39.9144832993 0.00173473242495 -118.958967064 0.819882842828 51.7041313761
10.725 0.589657458409 -166.774282994 0.275396258419 52.3113448418 0.642594451718 65.0607050775 0.404392572689 -142.528744532 0.275396258419 52.3113448418 0.585804828864 -166.927325169 0.645601464535 65.1214398183 0.40520161891 37.5079493012 0.642594451718 65.0607050775 0.645601464535 65.1214398183 0.412635471916 141.960726509 0.00175679202059 -123.238936931 0.404392572689 -142.528744532 0.40520161891 37.5079493012 0.00175679202059 -123.238936931 0.819923904311 49.5832555944
10.75 0.588403028625 -169.246807404 0.274995961298 49.0803988649 0.643944541294 60.9496156218 0.404344559579 -144.937317212 0.274995961298 49.0803988649 0.5845213647 -169.39748866 0.646952090852 61.0112502573 0.405172784934 35.1037592608 0.643944541294 60.9496156218 0.646952090852 61.0112502573 0.40839350132 136.008753039 0.00177902588731 -127.519195178 0.404344559579 -144.937317212 0.405172784934 35.1037592608 0.00177902588731 -127.519195177 0.819961783568 47.4635990833
10.775 0.587209565509 -171.708353387 0.274532495308 45.8465319064 0.645258752136 56.8347609567 0.404299362053 -147.343744301 0.274532495308 45.8465319064 0.583299401407 -171.85637883 0.648266163868 56.8973625679 0.40514774396 32.7018638291 0.645258752136 56.8347609567 0.648266163868 56.8973625679 0.404213895661 130.012560345 0.00180143715077 -131.799582999 0.404299362053 -147.343744301 0.40514774396 32.7018638291 0.00180143715077 -131.799582999 0.819996393987 45.3451143945
10.8 0.586082425139 -174.159035467 0.274003184222 42.6098665486 0.64653374881 52.7159301856 0.404257037551 -149.748076105 0.274003184222 42.6098665486 0.582144319406 -174.304099052 0.649540347699 52.7795711569 0.405126619833 30.3022135337 0.64653374881 52.7159301856 0.649540347699 52.7795711569 0.400110129136 123.97049346 0.00182402983337 -136.079940211 0.404257037551 -149.748076105 0.405126619833 30.3022135337 0.00182402983336 -136.07994021 0.820027647279 43.2277540289
10.825 0.585027095763 -176.599004263 0.273405332805 39.3705463231 0.647766093221 48.5929168166 0.404217644492 -152.150362856 0.273405332805 39.3705463231 0.581061629335 -176.740789441 0.650771206374 48.6576749599 0.405109538862 27.9047587474 0.647766093221 48.5929168166 0.650771206374 48.6576749599 0.396096591053 117.880993317 0.00184680895949 -140.360105754 0.404217644492 -152.150362856 0.405109538862 27.9047587474 0.00184680895948 -140.360105753 0.820055453361 41.1114704209
10.85 0.584049183238 -179.028448885 0.272736229485 36.1287368959 0.648952247762 44.4655185448 0.404181242391 -154.550654756 0.272736229485 36.1287368959 0.580056957097 -179.166629307 0.65195520712 44.5314772275 0.405096629926 25.5094496574 0.648952247762 44.4655185448 0.65195520712 44.5314772275 0.392188588241 111.742623141 0.00186978067156 -144.639918315 0.404181242391 -154.550654756 0.405096629926 25.5094496574 0.00186978067155 -144.639918314 0.820079720246 38.9962159224
10.875 0.583154394704 178.552400761 0.271993149015 32.8846273542 0.650088578771 40.3335369624 0.404147891963 -156.94900202 0.271993149015 32.8846273542 0.579136027087 178.418160489 0.653088723958 40.4007852395 0.405088024579 23.1162362349 0.650088578771 40.3335369624 0.653088723958 40.4007852395 0.388402336659 105.554097769 0.00189295235779 -148.919217052 0.404147891963 -156.94900202 0.405088024579 23.1162362349 0.00189295235777 -148.919217051 0.820100353918 36.8819427877
10.9 0.582348520531 176.14327178 0.271173355103 29.6384316116 0.651171360245 36.1967771854 0.404117655223 -159.345454927 0.271173355103 29.6384316115 0.578304643673 176.013315303 0.654168041555 36.2654099379 0.405083857177 20.7250682047 0.651171360245 36.1967771854 0.654168041555 36.2654099379 0.384754940296 99.3143157731 0.00191633279278 -153.197842458 0.404117655223 -159.345454927 0.405083857177 20.7250682047 0.00191633279276 -153.197842457 0.820117258211 34.7686031576
10.925 0.581637414599 173.743846264 0.270274102917 26.3903899448 0.652196777778 32.0550473879 0.404090595578 -161.740063863 0.270274102917 26.3903899448 0.577568670947 173.618524641 0.655189359311 32.1251654672 0.405084265012 18.3358950156 0.652196777778 32.0550473879 0.655189359311 32.1251654672 0.381264355382 93.0223940546 0.00193993229233 -157.475637371 0.404090595578 -161.740063863 0.405084265012 18.3358950156 0.0019399322923 -157.47563737 0.820130334681 32.656149043
10.95 0.581026973016 171.353759461 0.269292641429 23.1407706873 0.653160932657 27.9081582289 0.404066777904 -164.132879381 0.269292641429 23.1407706873 0.576934010904 171.233430306 0.6561487956 27.9798686113 0.405089388475 15.9486658108 0.653160932657 27.9081582289 0.6561487956 27.9798686113 0.377949337984 86.6777044529 0.00196376288367 -161.752448165 0.404066777904 -164.132879381 0.405089388475 15.9486658108 0.00196376288363 -161.752448163 0.820139482472 30.544532309
10.975 0.580523111432 168.972598182 0.268226215511 19.8898721027 0.654059846058 23.7559221635 0.404046268612 -166.523952251 0.268226215511 19.8898721027 0.576406580154 168.857624784 0.65704239211 23.8293381147 0.405099371228 13.5633293988 0.654059846058 23.7559221635 0.65704239211 23.8293381147 0.374829373165 80.2799116428 0.0019878384927 -166.028126123 0.404046268612 -166.523952251 0.405099371228 13.5633293988 0.00198783849266 -166.028126121 0.820144598175 28.4337046588
11 0.580131741151 166.599899478 0.267072067695 16.6380244746 0.654889463238 19.5981526223 0.404029135701 -168.913333522 0.267072067695 16.6380244746 0.57599228541 166.490649921 0.657866118197 19.673393875 0.405114360412 11.1798342245 0.654889463238 19.5981526223 0.657866118197 19.673393875 0.371924584162 73.8290113891 0.00201217514984 -170.302529044 0.404029135701 -168.913333522 0.405114360412 11.1798342245 0.0020121751498 -170.302529042 0.820145575689 26.3236176169
11.025 0.579858744275 164.235149631 0.265827439535 13.3855924518 0.655645657626 15.4346630477 0.404015448787 -171.301074587 0.265827439535 13.3855924518 0.575696997973 164.131995918 0.658615875122 15.5118559944 0.405134506877 8.79812833984 0.655645657626 15.4346630477 0.658615875122 15.5118559944 0.369255620418 67.3253679603 0.00203679121631 -174.575523092 0.404015448787 -171.301074587 0.405134506877 8.79812833983 0.00203679121627 -174.575523089 0.820142306065 24.2142225126
11.05 0.579709948196 161.877783476 0.264489572477 10.1329777021 0.656324234681 11.2652657731 0.40400527912 -173.687227245 0.264489572477 10.1329777021 0.575526527525 161.781100679 0.659287500078 11.3445436768 0.405159965441 6.41815937547 0.656324234681 11.2652657731 0.659287500078 11.3445436768 0.366843523861 60.7697492586 0.00206170763282 -178.846984923 0.40400527912 -173.687227245 0.405159965441 6.41815937546 0.00206170763278 -178.846984921 0.820134677352 22.1054704626
11.075 0.579691099764 159.527184084 0.263055708152 6.88062193674 0.656920935377 7.08977073067 0.403998699566 -176.071843771 0.263055708152 6.88062193673 0.575486595572 159.437349531 0.65987676984 7.17127395707 0.405190895195 4.03987451153 0.656920935377 7.08977073067 0.65987676984 7.17127395707 0.364709573542 54.1633580054 0.00208694819302 176.883195863 0.403998699566 -176.071843771 0.405190895195 4.03987451153 0.00208694819297 176.883195866 0.820122574427 19.9973123545
11.1 0.579807839504 157.18268282 0.261523088022 3.62901038364 0.657431439141 2.90798397483 0.403995784576 -178.454976995 0.261523088022 3.62901038364 0.575582808917 157.100075337 0.660379403882 2.99186024822 0.405227459839 1.66322044878 0.657431439141 2.90798397482 0.660379403882 2.99186024823 0.362875109632 47.5078571512 0.00211253984406 172.615113931 0.403995784576 -178.454976995 0.405227459839 1.66322044877 0.00211253984402 172.615113934 0.820105878826 17.8896988286
11.125 0.580065676313 154.843559781 0.259888952321 0.378675805095 0.65785136606 -1.28029399312 0.403996610115 179.163319627 0.259888952321 0.378675805093 0.575820633582 154.768559008 0.660791066765 -1.19388930518 0.405269828073 -0.711856620798 0.65785136606 -1.28029399312 0.660791066765 -1.19388930518 0.361361338785 40.805387597 0.00213851301732 168.348845015 0.403996610115 179.163319627 0.405269828073 -0.711856620805 0.00213851301729 168.348845017 0.820084468553 15.7825802605
11.15 0.58046996305 152.5090446 0.258150538224 -2.86979682415 0.658176278147 -5.47527011217 0.404001253561 176.782991929 0.258150538224 -2.86979682415 0.576205369608 152.442030402 0.661107369607 -5.38617368224 0.405318174038 -3.08541104365 0.658176278147 -5.47527011218 0.661107369607 -5.38617368224 0.360189123972 34.0585763452 0.00216490199236 164.084442288 0.404001253561 176.782991929 0.405318174038 -3.08541104366 0.00216490199234 164.084442289 0.820058217895 13.675906743
11.175 0.58102587346 150.178317609 0.256305077247 -6.11576483556 0.658401679431 -9.67716087404 0.404009793568 174.40398495 0.256305077247 -6.11576483556 0.576742127186 150.119669599 0.661323870382 -9.5852010611 0.405372677816 -5.4574977349 0.658401679431 -9.67716087404 0.661323870382 -9.5852010611 0.359378763049 27.2705333699 0.00219174529799 159.821932238 0.404009793568 174.40398495 0.405372677816 -5.45749773491 0.00219174529799 159.821932238 0.820026997212 11.5696280677
11.2 0.581738380868 147.850511327 0.25434979187 -9.35852140906 0.658523014614 -13.886194673 0.404022309884 172.026242843 0.25434979187 -9.35852140906 0.577435804542 147.800608513 0.661436072817 -13.791191127 0.405433525999 -7.82817220924 0.658523014614 -13.886194673 0.661436072817 -13.791191127 0.358949761361 20.4448358254 0.00221908615463 155.56131 0.404022309884 172.026242843 0.405433525999 -7.82817220923 0.00221908615464 155.561309999 0.819990672725 9.46369370628
11.225 0.582612239027 145.524712209 0.252281891456 -12.5972879273 0.658535666033 -18.1026144048 0.404038883129 169.649708785 0.252281891456 -12.5972879273 0.578291067993 145.483932806 0.661439423606 -18.0043776237 0.405500912334 -10.1974906127 0.658535666033 -18.1026144048 0.661439423606 -18.0043776237 0.358920604597 13.5854987034 0.00224697296306 151.302534072 0.404038883129 169.649708785 0.405500912334 -10.1974906127 0.00224697296309 151.302534069 0.819949106286 7.35805279147
11.25 0.58365196548 143.199962623 0.250098567602 -15.8312048849 0.658434948619 -22.3266803256 0.404059594517 167.274324881 0.250098567602 -15.8312048849 0.579312334528 143.168684023 0.661329307654 -22.2250111594 0.405575038454 -12.5655097552 0.658434948619 -22.3266803256 0.661329307654 -22.2250111594 0.359308538777 6.69693168516 0.0022754598453 147.045520344 0.404059594517 167.274324881 0.405575038454 -12.5655097552 0.00227545984535 147.04552034 0.819902155136 5.25265409778
11.275 0.584861827718 140.875262953 0.247796989108 -19.0593210386 0.658216102553 -26.5586731796 0.404084525529 164.90003206 0.247796989108 -19.0593210386 0.580503757207 140.853861901 0.661101041053 -26.4533622741 0.405656114704 -14.932287145 0.658216102553 -26.5586731796 0.661101041053 -26.4533622741 0.36012936448 -0.216117317673 0.0023046072445 142.79013537 0.404084525529 164.90003206 0.405656114704 -14.932287145 0.00230460724458 142.790135363 0.819849671654 3.14744602176
11.3 0.586245832293 138.549573769 0.245374296914 -22.2805804186 0.657874283288 -30.7988976036 0.404113757518 162.526769973 0.245374296914 -22.2805804186 0.581869213571 138.538426737 0.660749861466 -30.6897247778 0.405744361074 -17.2978810231 0.657874283288 -30.7988976036 0.660749861466 -30.6897247778 0.361397252292 -7.14863064055 0.00233448259187 138.53618876 0.404113757518 162.526769973 0.405744361074 -17.2978810231 0.00233448259197 138.536188751 0.819791503079 1.04237656197
11.325 0.587807716981 136.221817941 0.24282759945 -25.4938067341 0.657404548601 -35.0476858146 0.404147371261 160.154476888 0.24282759945 -25.4938067341 0.583412297148 136.221301739 0.660270915579 -34.9344193641 0.405840008257 -19.6623504006 0.657404548601 -35.0476858146 0.660270915579 -34.9344193641 0.363124585778 -14.0953992813 0.00236516104999 134.283424612 0.404147371261 160.154476888 0.405840008257 -19.6623504006 0.00236516105012 134.283424601 0.819727491229 -1.06260670132
11.35 0.589550945889 133.890882606 0.24015396906 -28.6976846093 0.656801842332 -39.3054015841 0.404185446425 157.783089574 0.24015396906 -28.6976846093 0.585136311996 133.901375244 0.659659243305 -39.187797502 0.405943298839 -22.0257550969 0.656801842332 -39.305401584 0.659659243305 -39.187797502 0.365321837161 -21.051108483 0.00239672634386 130.031511831 0.404185446425 157.783089574 0.405943298839 -22.0257550969 0.00239672634401 130.031511818 0.819657472197 -3.1675566269
11.375 0.591478707283 131.555620886 0.237350440373 -31.8907369586 0.656060974456 -43.5724445014 0.404228060974 155.412543196 0.237350440373 -31.8907369586 0.587044270067 131.577502693 0.65890975838 -43.4502456086 0.406054488644 -24.3881557795 0.656060974456 -43.5724445014 0.65890975838 -43.4502456086 0.367997479329 -28.0104271864 0.00242927169272 125.780033188 0.404228060973 155.412543196 0.406054488644 -24.3881557794 0.00242927169289 125.780033172 0.819581276021 -5.27252653358
11.4 0.593593913702 129.214853216 0.234414011819 -35.0712976594 0.655176597142 -47.8492545246 0.404275290478 153.042771194 0.234414011819 -35.0712976594 0.589138890995 129.248508248 0.658017225013 -47.7221895006 0.40617384825 -26.7496140062 0.655176597142 -47.8492545246 0.658017225013 -47.7221895007 0.37115793593 -34.9680977574 0.00246290085839 121.528472934 0.404275290478 153.042771193 0.40617384825 -26.7496140061 0.00246290085856 121.528472917 0.81949872635 -7.37757022153
11.425 0.59589920373 126.867368203 0.231341651852 -38.2374784978 0.65414317646 -52.136316815 0.404327207349 150.673705166 0.231341651852 -38.2374784978 0.591422603723 126.913185951 0.656976230276 -52.0040991201 0.406301664694 -29.1101922688 0.65414317646 -52.136316815 0.656976230276 -52.0040991201 0.374807569275 -41.9190223498 0.00249772932855 117.276202753 0.404327207348 150.673705165 0.406301664695 -29.1101922688 0.00249772932871 117.276202736 0.819409640076 -9.48274199392
11.45 0.598396944593 124.511922891 0.22813031196 -41.387129134 0.65295495941 -56.4341668493 0.404383879967 148.305274752 0.22813031196 -41.387129134 0.593897549154 124.570300294 0.655781151897 -56.2964935269 0.406438243404 -31.4699540391 0.65295495941 -56.4341668493 0.655781151897 -56.2964935269 0.378948703691 -48.8583424935 0.00253388565707 113.022465776 0.404383879966 148.305274752 0.406438243404 -31.469954039 0.0025338856572 113.022465761 0.819313826951 -11.5880966788
11.475 0.601089234491 122.147242338 0.224776949171 -44.5177885649 0.651605935967 -60.7433957961 0.404445371721 145.937407517 0.224776949171 -44.5177885649 0.596565582811 122.218586129 0.654426121172 -60.5999461476 0.406583910355 -33.8289638158 0.651605935967 -60.7433957961 0.654426121172 -60.5999461476 0.383581680103 -55.7815089559 0.00257151298716 108.766358344 0.404445371721 145.937407517 0.406583910355 -33.8289638157 0.00257151298724 108.766358335 0.819211089176 -13.6936896514
11.5 0.603977903347 119.772018416 0.221278561573 -47.6266262313 0.650089795884 -65.0646561445 0.404511739934 143.570028823 0.221278561573 -47.6266262313 0.599428276248 119.856747809 0.652904980751 -64.9150902629 0.406739014519 -36.1872871741 0.650089795884 -65.0646561445 0.652904980751 -64.9150902629 0.388704936004 -62.6843395733 0.00261077078826 104.506809121 0.404511739934 143.570028823 0.406739014519 -36.1872871741 0.00261077078826 104.506809121 0.819101220973 -15.7995768563
