! Generated from PyAEDT SolutionData; AEDT ExportNetworkData workaround
# GHz S MA R 50
9 0.680165072073 29.0744663587 0.269419922881 -81.8218730502 0.54309873086 -2.09643290061 0.412106962359 31.4992930391 0.269419922881 -81.8218730502 0.680165137888 28.3874174774 0.546345782564 -2.21389961044 0.407792319975 -148.44509136 0.54309873086 -2.09643290061 0.546345782564 -2.21389961044 0.637610410658 170.266767788 0.00173742137567 65.0954022717 0.412106962359 31.4992930391 0.407792319975 -148.44509136 0.00173742137567 65.0954022717 0.814782337015 -163.715349956
9.025 0.678423496432 26.0433726286 0.269564068723 -85.3203068134 0.545312875366 -6.61603887147 0.411957484718 28.7768664055 0.269564068722 -85.3203068133 0.678393789315 25.3563241846 0.548560688485 -6.73505623288 0.407672095171 -151.169320601 0.545312875365 -6.61603887155 0.548560688485 -6.7350562328 0.633819783307 164.344230427 0.00172348894559 60.7601835044 0.411957484718 28.7768664057 0.407672095171 -151.169320601 0.00172348894616 60.7601834922 0.814918115213 -166.080124813
9.05 0.676715067789 23.021690924 0.26971473971 -88.802982203 0.547470876651 -11.1216650071 0.411805373751 26.0620829446 0.26971473971 -88.8029822028 0.676655629235 22.3346250602 0.550719646423 -11.2422221818 0.407549105595 -153.885973735 0.54747087665 -11.1216650072 0.550719646424 -11.2422221817 0.630082905339 158.437823708 0.0017093281712 56.4438091336 0.411805373751 26.0620829448 0.407549105595 -153.885973735 0.00170932817209 56.4438091133 0.815056535737 -168.438983583
9.075 0.67503810026 20.0091053674 0.269873268155 -92.2701730644 0.549574812731 -15.6133712972 0.411650829421 23.3548114332 0.269873268154 -92.2701730641 0.674948950745 19.3219961935 0.552824753808 -15.735458739 0.407423544861 -156.595179181 0.54957481273 -15.6133712974 0.552824753809 -15.7354587389 0.62639981838 152.548255386 0.00169496225055 52.1465655902 0.411650829421 23.3548114335 0.40742354486 -156.595179181 0.00169496225159 52.1465655651 0.815197397583 -170.79202819
9.1 0.673390792087 17.0053176871 0.270040947446 -95.7221844115 0.551626873001 -20.0912363762 0.411494044882 20.6549236237 0.270040947445 -95.7221844113 0.673271928922 16.3181313748 0.554878220219 -20.2148460075 0.407295600934 -159.297062691 0.551626872999 -20.0912363763 0.554878220221 -20.2148460074 0.622769936703 146.676125376 0.00168041301921 47.8687183694 0.411494044882 20.654923624 0.407295600934 -159.297062691 0.00168041302027 47.8687183424 0.815340506166 -173.139358333
9.125 0.67177124488 14.0100471827 0.270219022856 -99.1593489268 0.553629337975 -24.5553563817 0.41133520672 17.9622941445 0.270219022856 -99.1593489265 0.671622640379 13.3227420759 0.55688234686 -24.6804817455 0.407165456288 -161.991747414 0.553629337974 -24.5553563818 0.556882346861 -24.6804817453 0.619192113829 140.821933692 0.00166570108408 43.6105161821 0.41133520672 17.9622941447 0.407165456287 -161.991747414 0.00166570108507 43.6105161553 0.815485673156 -175.481071554
9.15 0.670177481361 11.0230306247 0.270408683532 -102.582023647 0.555584560321 -29.0058438702 0.411174495199 15.2768004048 0.270408683531 -102.582023647 0.669999081318 10.335557365 0.558839507336 -29.1324802581 0.407033288041 -164.679353967 0.55558456032 -29.0058438703 0.558839507337 -29.1324802579 0.615664707202 134.986088047 0.00165084595519 39.3721944749 0.411174495199 15.276800405 0.407033288041 -164.679353967 0.00165084595605 39.37219445 0.8156327163 -177.817263305
9.175 0.668607461735 8.04402209601 0.270611055608 -105.990586842 0.557494947199 -33.4428267859 0.41101208449 12.5983225028 0.270611055608 -105.990586842 0.668399184163 7.35632376079 0.560752129772 -33.5709713463 0.406899268104 -167.360000506 0.557494947199 -33.442826786 0.560752129773 -33.5709713462 0.612185640085 129.168911025 0.00163586617264 35.1539783587 0.41101208449 12.598322503 0.406899268104 -167.360000506 0.00163586617335 35.153978337 0.815781459257 179.851972986
9.2 0.667059098754 5.07279278492 0.270827196389 -109.385435085 0.559362943911 -37.8664474826 0.410848142905 9.92674313674 0.270827196389 -109.385435085 0.66682083288 4.38480503801 0.562622680254 -37.9960993103 0.406763563314 -170.033802788 0.55936294391 -37.8664474827 0.562622680255 -37.9960993102 0.608752460033 123.370646776 0.00162077942639 30.9560849909 0.410848142905 9.92674313686 0.406763563314 -170.033802788 0.00162077942694 30.9560849731 0.815931731427 177.52654585
9.225 0.665530271578 2.10913073554 0.271058089512 -112.766980515 0.56119101883 -42.2768617953 0.410682833124 7.26194751973 0.271058089511 -112.766980515 0.66526187707 1.42078198864 0.564453647579 -42.4080220046 0.406626335562 -172.700874246 0.56119101883 -42.2768617954 0.56445364758 -42.4080220045 0.605362393494 117.591467212 0.0016056026674 26.7787254578 0.410682833124 7.26194751981 0.406626335562 -172.700874246 0.0016056026678 26.7787254441 0.816083367784 175.206365718
9.25 0.66401883851 -0.847159437088 0.271304641018 -116.135648292 0.562981649588 -46.6742381611 0.41051631241 4.60382329724 0.271304641018 -116.135648292 0.663720144917 -1.5359478525 0.566247529283 -46.8069099445 0.406487741926 -175.361326049 0.562981649588 -46.6742381612 0.566247529284 -46.8069099445 0.602012396267 111.831477677 0.00159035220882 22.6221062089 0.41051631241 4.60382329729 0.406487741926 -175.361326049 0.00159035220908 22.6221061995 0.81623620871 172.891344858
9.275 0.662522648702 -3.79625686137 0.271567676267 -119.491874235 0.56473731047 -51.0587567847 0.410348732827 1.95226046777 0.271567676266 -119.491874235 0.662193455082 -4.48557051271 0.568006818894 -51.192945459 0.406347934792 -178.015267173 0.564737310469 -51.0587567847 0.568006818894 -51.192945459 0.598699199695 106.090722089 0.00157504381679 18.4864300943 0.410348732827 1.9522604678 0.406347934792 -178.015267173 0.00157504381692 18.486430089 0.816390099831 170.581397319
9.3 0.661039552879 -6.73832474776 0.271847937581 -122.836102639 0.566460460961 -55.4306088478 0.410180241444 -0.692848693626 0.271847937581 -122.836102639 0.660679627608 -7.42825591112 0.569733994364 -55.566321889 0.406207061972 179.337195543 0.566460460961 -55.4306088478 0.569733994364 -55.566321889 0.59541935258 100.369187571 0.00155969279043 14.3718970538 0.410180241444 -0.692848693617 0.406207061972 179.337195543 0.00155969279047 14.3718970522 0.816544891858 168.27643887
9.325 0.659567413184 -9.67351074676 0.272146082586 -126.168784267 0.568153535403 -59.7899957594 0.410010980532 -3.33160970912 0.272146082586 -126.168784267 0.659176493923 -10.3641582083 0.571431507617 -59.9272428281 0.406065266827 176.695957325 0.568153535403 -59.7899957594 0.571431507617 -59.9272428281 0.592169258916 94.6668085863 0.0015443140313 10.2787045066 0.410010980532 -3.33160970913 0.406065266827 176.695957325 0.00154431403127 10.2787045081 0.816700440426 165.976386949
9.35 0.658104112196 -12.6019473218 0.27246268313 -129.490374504 0.569818933672 -64.1371284439 0.409841087758 -5.96412596915 0.27246268313 -129.490374504 0.657681906004 -13.2934161716 0.57310177515 -64.2759214019 0.405922688375 174.060915413 0.569818933672 -64.1371284439 0.57310177515 -64.2759214019 0.588945211612 88.9834706002 0.00152892210254 6.20704748521 0.409841087758 -5.96412596917 0.405922688375 174.060915413 0.00152892210245 6.20704748915 0.816856605945 163.681160605
9.375 0.656647561187 -15.5237521333 0.272798224736 -132.801331665 0.571459012838 -68.4722266651 0.409670696371 -8.5904988009 0.272798224736 -132.801331666 0.656193744767 -16.2161535512 0.574747169617 -68.6125795852 0.405779461407 171.431968995 0.571459012838 -68.4722266651 0.574747169617 -68.6125795852 0.585743422409 83.3190133078 0.00151353127842 2.15711855546 0.409670696371 -8.59049880093 0.405779461407 171.431968995 0.0015135312783 2.15711856123 0.817013253441 161.390680451
9.4 0.655195707685 -18.4390284301 0.273153106513 -136.102115457 0.573076079715 -72.7955183827 0.409499935377 -11.2108275344 0.273153106513 -136.102115457 0.654709927748 -19.1324794651 0.576370012326 -72.9374475523 0.405635716595 168.809019154 0.573076079715 -72.7955183827 0.576370012326 -72.9374475523 0.582560048279 77.6732334584 0.00149815558503 -1.87089244254 0.409499935377 -11.2108275344 0.405635716595 168.809019154 0.0014981555849 -1.8708924356 0.817170252414 159.104868606
9.425 0.653746542388 -21.3478654456 0.273527641451 -139.393185567 0.57467238425 -77.1072391403 0.409328929712 -13.8252095662 0.273527641451 -139.393185567 0.653228416128 -22.0424887878 0.577972566585 -77.2507630595 0.405491580597 166.191968811 0.57467238425 -77.1072391403 0.577972566585 -77.2507630595 0.579391214564 72.045887318 0.00148280883296 -5.87679880032 0.409328929712 -13.8252095663 0.405491580597 166.191968811 0.00148280883283 -5.87679879282 0.817327476689 156.823648653
9.45 0.652298105506 -24.2503387951 0.27392205706 -142.675000391 0.576250113676 -81.4076314812 0.409157800399 -16.4337404209 0.27392205706 -142.675000391 0.651747221166 -24.9462625415 0.579557031821 -81.5527708561 0.405347176167 163.580722672 0.576250113676 -81.4076314811 0.579557031821 -81.5527708561 0.576233035182 66.4366928057 0.00146750464302 -9.8604174681 0.409157800399 -16.4337404209 0.405347176167 163.580722672 0.00146750464289 -9.8604174606 0.817484804275 154.546945586
9.475 0.650848492552 -27.1465108725 0.274336496277 -145.948015876 0.577811387361 -85.6969443897 0.408986664713 -19.03651381 0.274336496277 -145.948015876 0.650264410081 -27.8438682858 0.581125538409 -85.8437221229 0.405202622256 160.975187176 0.577811387361 -85.6969443897 0.581125538408 -85.8437221229 0.573081630177 60.845331344 0.00145225646579 -13.8215696819 0.408986664713 -19.03651381 0.405202622256 160.975187176 0.00145225646568 -13.8215696749 0.817642117228 152.274685768
9.5 0.649395859659 -30.0364312438 0.274771018614 -149.212684469 0.579358252303 -89.975432758 0.408815636321 -21.6336216898 0.274771018614 -149.212684469 0.648778111446 -30.735360505 0.582680143145 -90.1238739342 0.405058034117 158.375270447 0.579358252303 -89.975432758 0.582680143145 -90.1238739342 0.56993314094 55.2714494602 0.00143707759621 -17.7600816751 0.408815636321 -21.6336216898 0.405058034117 158.375270447 0.00143707759612 -17.7600816689 0.817799301517 150.00679688
9.525 0.647938428452 -32.9201370354 0.275225601478 -152.469454173 0.580892679183 -94.2433568735 0.408644825428 -24.2251543157 0.275225601478 -152.469454173 0.647286520126 -33.6207809904 0.584222825305 -94.3934887435 0.404913523405 155.780882243 0.580892679183 -94.2433568735 0.584222825305 -94.3934887435 0.566783743363 49.714660171 0.00142198118391 -21.6757854634 0.408644825428 -24.2251543157 0.404913523405 155.780882243 0.00142198118384 -21.6757854582 0.81795624689 147.743207884
9.55 0.646474490521 -35.7976533165 0.27570014165 -155.7187677 0.582416558954 -98.5009819275 0.408474338912 -26.8112002961 0.27570014165 -155.7187677 0.645787901816 -36.5001592153 0.585755483218 -98.6528338893 0.404769198279 153.191933911 0.582416558954 -98.5009819275 0.585755483218 -98.6528338893 0.563629659227 44.1745441858 0.0014069802403 -25.5685196967 0.408474338912 -26.8112002961 0.404769198279 153.191933911 0.00140698024025 -25.5685196928 0.818112846747 145.483848976
9.575 0.645002411546 -38.6689934727 0.276194456863 -158.9610617 0.583931699876 -102.748577542 0.408304280452 -29.3918466436 0.276194456863 -158.9610617 0.644280597217 -39.3735127033 0.587279931316 -102.90218112 0.404625163504 150.608338344 0.583931699876 -102.748577542 0.587279931316 -102.90218112 0.560467166062 38.6506509536 0.00139208764305 -29.4381305772 0.408304280452 -29.3918466436 0.404625163504 150.608338344 0.00139208764302 -29.4381305747 0.818268998016 143.228651548
9.6 0.643520635104 -41.5341595714 0.276708287464 -162.196766075 0.585439824978 -106.986417316 0.408134750651 -31.9671788244 0.276708287464 -162.196766075 0.642763025894 -42.2408473863 0.588797897593 -107.141806136 0.404481520551 148.030009936 0.585439824978 -106.986417316 0.588797897593 -107.141806136 0.557292605727 33.1424995809 0.00137731613879 -33.2844728433 0.408134750651 -31.9671788244 0.404481520551 148.030009936 0.00137731613878 -33.2844728421 0.818424601029 140.977548145
9.625 0.642027686197 -44.3931427167 0.277241298127 -165.426303367 0.586942569871 -111.214778381 0.407965847151 -34.5372808062 0.277241298127 -165.426303367 0.641233689845 -45.1021579537 0.590311021439 -111.37198815 0.404338367693 145.456864539 0.586942569871 -111.214778381 0.590311021439 -111.37198815 0.554102391935 27.6495796408 0.00136267834443 -37.1074108257 0.407965847151 -34.5372808062 0.404338367693 145.456864539 0.00136267834443 -37.1074108257 0.818579559406 138.730472429
9.65 0.640522174545 -47.2459233951 0.277793079594 -168.650088202 0.588441480894 -115.433940984 0.407797664747 -37.1022351049 0.277793079594 -168.650088202 0.639691176833 -47.9574281902 0.591820851793 -115.593009459 0.404195800112 142.888819429 0.588441480894 -115.433940984 0.591820851793 -115.593009459 0.550893016907 22.1713518908 0.00134818674766 -40.906819582 0.407797664747 -37.1022351049 0.404195800112 142.888819429 0.00134818674767 -40.9068195831 0.818733779935 136.48735914
9.675 0.639002797669 -50.0924718097 0.278363150424 -171.868526805 0.589938013536 -119.644188072 0.407630295487 -39.6621228287 0.278363150424 -171.868526805 0.638134163503 -50.8066313041 0.593328845582 -119.805155034 0.404053909994 140.325793261 0.589938013536 -119.644188072 0.593328845582 -119.805155034 0.547661057344 16.7072489143 0.00133385370691 -44.6825861188 0.407630295487 -39.6621228287 0.404053909994 140.325793261 0.00133385370692 -44.6825861208 0.818887172463 134.248144058
9.7 0.637468343803 -52.932748204 0.278950958736 -175.082016561 0.591433531105 -123.845804892 0.407463828778 -42.2170237216 0.278950958736 -175.082016561 0.636561418328 -53.6497302438 0.594836366408 -124.00871212 0.40391278663 137.767706034 0.591433531105 -123.845804892 0.594836366408 -124.00871212 0.544403179874 11.2566756944 0.00131969145098 -48.4346107113 0.407463828778 -42.2170237215 0.40391278663 137.767706034 0.00131969145099 -48.4346107139 0.819039649784 132.012763973
9.725 0.635917694663 -55.7667031767 0.27955588393 -178.290945624 0.592929303618 -128.039078614 0.407298351478 -44.7670162048 0.27955588393 -178.290945624 0.634971804401 -56.4866780049 0.596344683452 -128.20396985 0.403772516517 135.214479057 0.592929303618 -128.039078614 0.596344683452 -128.20396985 0.541116146106 5.81901012899 0.00130571207848 -52.1628083295 0.407298351478 -44.7670162048 0.403772516517 135.214479057 0.0013057120785 -52.1628083325 0.819191127528 129.781156643
9.75 0.634349828106 -58.5942779851 0.280177238369 178.50430742 0.594426506863 -132.224297951 0.407133947985 -47.3121774174 0.280177238369 178.50430742 0.633364282129 -59.3174179272 0.597854970557 -132.391218869 0.403633183459 132.666034914 0.594426506863 -132.224297951 0.597854970557 -132.391218869 0.537796817432 0.393603490471 0.00129192755708 -55.8671101811 0.407133947985 -47.3121774174 0.403633183459 132.666034914 0.00129192755709 -55.8671101843 0.819341524061 127.553260768
9.775 0.632763820703 -61.4154048413 0.280814269031 175.303373862 0.595926221635 -136.401752797 0.40697070033 -49.8525832548 0.280814269031 175.303373862 0.631737911825 -62.1418839822 0.599368305482 -136.570750974 0.403494868668 130.122297425 0.595926221635 -136.401752797 0.599368305482 -136.570750974 0.534442159667 -5.02021916856 0.0012783497224 -59.5474653788 0.40697070033 -49.8525832548 0.403494868668 130.122297425 0.00127834972241 -59.547465382 0.819490760375 125.329015953
9.8 0.631158850254 -64.2300071997 0.281466159103 172.105895136 0.597429433098 -140.571733879 0.406808688251 -52.3883084065 0.281466159103 172.105895136 0.630091856255 -64.9600010542 0.600885669284 -140.742858758 0.403357650864 127.583191621 0.597429433098 -140.571733879 0.600885669284 -140.742858758 0.531049247622 -10.4231586638 0.00126499027656 -63.2038427362 0.406808688251 -52.3883084065 0.403357650864 127.583191621 0.00126499027658 -63.2038427392 0.819638759991 123.108362677
9.825 0.629534198269 -67.0380000391 0.282132029521 168.911523049 0.598937030272 -144.734532413 0.406647989278 -54.9194263924 0.282132029521 168.911523049 0.628425383141 -67.7716852134 0.602407945817 -144.907835269 0.403221606379 125.048643708 0.598937030272 -144.734532413 0.602407945817 -144.907835269 0.527615269716 -15.8159413848 0.00125186078605 -66.836232697 0.406647989278 -54.9194263924 0.403221606379 125.048643708 0.00125186078606 -66.8362326995 0.81978544886 120.891242263
9.85 0.627889252437 -69.8392901397 0.282810940465 165.719919991 0.600449805613 -148.890439773 0.406488678806 -57.446009598 0.282810940465 165.719919991 0.626737867666 -70.5768439861 0.603935921342 -149.065973676 0.403086809257 122.518581035 0.600449805613 -148.890439773 0.603935921342 -149.065973676 0.524137532655 -21.1993190632 0.00123897267859 -70.4446493944 0.406488678806 -57.446009598 0.403086809257 122.518581035 0.0012389726786 -70.4446493965 0.819930755259 118.677596849
9.875 0.626223509104 -72.6337763575 0.283501892784 162.530759112 0.601968454686 -153.039747171 0.40633083017 -59.9681293083 0.283501892784 162.530759112 0.625028794974 -73.3753766206 0.605470284204 -153.217566948 0.402953331359 119.992932068 0.601968454686 -153.039747171 0.605470284204 -153.217566948 0.520613466291 -26.5740686064 0.0012263372389 -74.0291328373 0.40633083017 -59.9681293083 0.402953331359 119.992932068 0.00122633723891 -74.0291328388 0.820074609704 116.467369359
9.9 0.624536575778 -75.4213498994 0.284203829365 159.343724473 0.603493575905 -157.18274534 0.406174514711 -62.4858557404 0.284203829365 159.343724473 0.623297762709 -76.1671743546 0.607011624604 -157.362907541 0.402821242461 117.471626356 0.603493575905 -157.18274534 0.607011624604 -157.362907541 0.51704062867 -31.9409920076 0.00121396560289 -77.5897512107 0.406174514711 -62.4858557404 0.402821242461 117.471626356 0.00121396560289 -77.5897512116 0.820216944846 114.260503472
9.925 0.622828173672 -78.2018945991 0.284915636456 156.158511182 0.605025670344 -161.319724235 0.406019801845 -64.9992580752 0.284915636456 156.158511182 0.621544483602 -78.9521206836 0.608560434416 -161.502287088 0.402690610364 114.954594506 0.605025670344 -161.319724235 0.608560434416 -161.502287088 0.513416711354 -37.3009163352 0.00120186874993 -81.1266032766 0.406019801845 -64.9992580752 0.402690610364 114.954594506 0.00120186874993 -81.1266032769 0.820357695385 112.056943599
9.95 0.62109814031 -80.9752871997 0.285636144915 152.974825508 0.606565141595 -165.450972736 0.40586675913 -67.5084044887 0.285636144915 152.974825508 0.619768788103 -81.7300916353 0.610117107071 -165.635996112 0.402561500991 112.44176815 0.606565141595 -165.450972736 0.610117107071 -165.635996112 0.509739545043 -42.6546938124 0.00119005749315 -84.6398208533 0.40586675913 -67.5084044887 0.402561500991 112.44176815 0.00119005749315 -84.6398208531 0.820496797976 109.856634853
9.975 0.619346432186 -83.7413976433 0.286364131426 149.792384977 0.608112295682 -169.576778359 0.405715452329 -70.0133621805 0.286364131426 149.792384977 0.617970627095 -84.5009560527 0.611681937485 -169.76432373 0.402433978497 109.933079923 0.608112295682 -169.576778359 0.611681937485 -169.76432373 0.506007105544 -48.0032019927 0.00117854246715 -88.1295713461 0.405715452329 -70.0133621805 0.402433978497 109.933079923 0.00117854246715 -88.1295713453 0.820634191133 107.659523024
10 0.617573127506 -86.5000893734 0.287098319654 146.610918455 0.60966734102 -173.697426983 0.405565945469 -72.5141974037 0.287098319654 146.610918455 0.616150074683 -87.2645758888 0.613255122036 -173.88755738 0.402308105365 107.42846343 0.60966734102 -173.697426983 0.613255122035 -173.88755738 0.50221752014 -53.3473440404 0.0011673341132 -91.5960602959 0.405565945469 -72.5141974037 0.402308105365 107.42846343 0.0011673341132 -91.5960602948 0.82076981515 105.465554555
10.025 0.615778429005 -89.2512196522 0.287837381361 143.430166224 0.611230388411 -177.813202574 0.405418300906 -75.0109754917 0.287837381361 143.430166224 0.614307331058 -90.0208065178 0.61483675858 -178.005982546 0.402183942515 104.927853222 0.611230388411 -177.813202574 0.61483675858 -178.005982546 0.498369074381 -58.688049122 0.00115644266151 -95.039533908 0.405418300906 -75.0109754917 0.402183942515 104.927853222 0.00115644266151 -95.0395339066 0.820903611998 103.274676516
10.05 0.613962666838 -91.9946398974 0.288579937485 140.249880033 0.612801451089 178.075613076 0.405272579382 -77.5037608857 0.288579937485 140.249880033 0.612442725456 -92.7694970659 0.616426846516 177.880117505 0.402061549408 102.431184766 0.612801451089 178.075613076 0.616426846516 177.880117505 0.494460219359 -64.0262729156 0.00114587811068 -98.4602815148 0.405272579382 -77.5037608858 0.402061549408 102.431184766 0.00114587811068 -98.4602815132 0.821035525252 101.086836581
10.075 0.61212630155 -94.7301960431 0.289324559186 137.069823163 0.614380444799 173.968740607 0.405128840087 -79.9926171606 0.289324559186 137.069823163 0.610556719188 -95.5104907667 0.618025286883 173.770461978 0.401940984145 99.9383944211 0.6143804448 173.968740607 0.618025286883 173.770461978 0.490489579496 -69.3629982436 0.00113565020405 -101.858637925 0.405128840087 -79.9926171606 0.401940984145 99.9383944211 0.00113565020405 -101.858637923 0.821165499988 98.9019830019
10.1 0.610269927122 -97.4577289285 0.290069768864 133.889770464 0.615967187928 169.865903339 0.404987140713 -82.4776070499 0.290069768864 133.889770464 0.608649908757 -98.2436253465 0.619631882507 169.664772801 0.401822303575 97.4494194115 0.615967187928 169.865903339 0.619631882507 169.664772801 0.486455960902 -74.6992358343 0.00112576840318 -105.234985603 0.404987140713 -82.4776070499 0.401822303575 97.4494194115 0.00112576840318 -105.234985602 0.821293482711 96.7200645917
10.125 0.608394274063 -100.17707472 0.290814041166 130.709508402 0.617561401669 165.766827515 0.404847537518 -84.9587924708 0.290814041166 130.709508402 0.606723029032 -100.968733443 0.621246338196 165.562774869 0.401705563393 94.9641977975 0.617561401669 165.766827515 0.621246338196 165.562774869 0.482358360347 -80.0360252136 0.00111624185841 -108.589756628 0.404847537518 -84.9587924708 0.401705563393 94.9641977975 0.00111624185842 -108.589756627 0.821419421257 94.5410306964
10.15 0.606500212566 -102.888065373 0.291555803977 127.528835099 0.619162710246 161.671242542 0.404710085382 -87.4362345473 0.291555803977 127.528835099 0.604776956482 -103.685643061 0.622868260983 161.464196279 0.401590818248 92.482668451 0.619162710246 161.671242542 0.622868260983 161.464196279 0.478195974898 -85.3744357314 0.00110707937686 -111.92343436 0.404710085382 -87.4362345473 0.401590818248 92.482668451 0.00110707937686 -111.923434359 0.821543264712 92.3648311769
10.175 0.604588755681 -105.59052913 0.292293439415 124.347560374 0.620770641189 157.578881216 0.404574837867 -89.9099936341 0.292293439415 124.347560374 0.602812712443 -106.394178082 0.624497160422 157.368768562 0.401478121839 90.0047710278 0.620770641189 157.578881216 0.624497160422 157.368768562 0.473968212282 -90.7155677206 0.00109828938789 -115.236554769 0.404574837867 -89.9099936341 0.401478121839 90.0047710278 0.0010982893879 -115.236554768 0.821664963329 90.1914163863
10.2 0.602661062499 -108.284291079 0.293025284829 121.165505784 0.622384625667 153.489479956 0.404441847275 -92.3801293383 0.293025284829 121.165505784 0.600831466398 -109.09415881 0.626132448955 153.276226909 0.401367527019 87.5304459416 0.622384625667 153.489479956 0.626132448955 153.276226909 0.469674702035 -96.0605537877 0.00108987990673 -118.529707358 0.404441847275 -92.3801293383 0.401367527019 87.5304459416 0.00108987990674 -118.529707358 0.821784468434 88.0207371506
10.225 0.600718441317 -110.969173757 0.293749633821 117.982504675 0.624003998895 149.402779021 0.404311164713 -94.846700542 0.293749633821 117.982504675 0.598834539243 -111.785402585 0.627773442335 149.18631039 0.401259085897 85.0596343369 0.624003998895 149.402779021 0.627773442335 149.18631039 0.465315307494 -101.410560233 0.00108185849633 -121.803535619 0.404311164713 -94.846700542 0.401259085897 85.0596343369 0.00108185849633 -121.803535619 0.821901732352 85.8527447479
10.25 0.598762352751 -113.644997815 0.294464737296 114.798402228 0.625628000609 145.318522726 0.404182840149 -97.3097654232 0.294464737296 114.798402228 0.596823406507 -114.467724452 0.629419360145 145.098762171 0.401152849933 82.592278062 0.625628000609 145.318522726 0.629419360145 145.098762171 0.460890138703 -106.766788587 0.00107423222818 -125.058736982 0.404182840149 -97.3097654232 0.401152849933 82.592278062 0.00107423222818 -125.058736983 0.822016708313 83.6873908892
10.275 0.596794412759 -116.311582749 0.295168804549 111.613055527 0.627255775633 141.236459658 0.404056922479 -99.769381477 0.295168804549 111.613055527 0.594799701492 -117.140937905 0.631069326383 141.013329728 0.40104887004 80.1283196423 0.627255775633 141.236459658 0.631069326383 141.013329728 0.456399566307 -112.130477269 0.00106700764262 -128.296062192 0.404056922479 -99.769381477 0.40104887004 80.1283196423 0.00106700764262 -128.296062193 0.82212935037 81.5246276994
10.3 0.594816395534 -118.968747703 0.295860004404 108.426333624 0.628886374536 137.156342885 0.403933459591 -102.225605536 0.295860004404 108.426333624 0.592765218279 -119.804855696 0.632722370163 136.929765046 0.40094719668 77.6677022528 0.628886374536 137.156342885 0.632722370163 136.929765046 0.45184423649 -117.502903328 0.00106019070912 -131.516314087 0.403933459591 -102.225605536 0.40094719668 77.6677022528 0.00106019070911 -131.516314088 0.822239613315 79.3644076987
10.325 0.592830236221 -121.616312348 0.296536466426 105.238117626 0.630518754398 133.077930157 0.403812498429 -104.678493791 0.296536466426 105.238117626 0.590721914573 -122.459290726 0.634377426512 132.847824831 0.400847879962 75.210369691 0.630518754398 133.077930157 0.634377426512 132.847824831 0.447225087046 -122.885384285 0.00105378678734 -134.720345737 0.403812498429 -104.678493791 0.400847879962 75.210369691 0.00105378678734 -134.720345737 0.822347452595 77.2066837843
10.35 0.590838033408 -124.254097843 0.297196282196 102.048300788 0.632151779692 129.00098411 0.403694085062 -107.12810181 0.297196282196 102.048300788 0.588671914312 -125.104057031 0.636033337291 128.767270701 0.400750969735 72.756266349 0.632151779692 129.00098411 0.636033337291 128.767270701 0.442543364643 -128.279280017 0.00104780058958 -137.909057926 0.403694085062 -107.12810181 0.400750969735 72.756266349 0.00104780058957 -137.909057927 0.82245282422 75.051409213
10.375 0.588842051323 -126.881927876 0.297837506687 98.8567886306 0.633784223294 124.925272462 0.403578264755 -109.574484557 0.297837506687 98.8567886306 0.586617509996 -127.738970841 0.63768885225 124.687869387 0.400656515683 70.3053371858 0.633784223294 124.925272462 0.63768885225 124.687869387 0.437800643351 -133.685994684 0.00104223614525 -141.08339597 0.403578264756 -109.574484557 0.400656515683 70.3053371858 0.00104223614525 -141.083395971 0.822555684685 72.8985375837
10.4 0.586844721689 -129.499629812 0.298458159743 95.6634990627 0.635414767645 120.850568209 0.40346508204 -112.017696415 0.298458159743 95.6634990627 0.584561164667 -130.363851751 0.639342630232 120.609392922 0.400564567418 67.8575276993 0.635414767645 120.850568209 0.639342630232 120.609392922 0.4329988445 -139.106978654 0.00103709676821 -144.244345863 0.40346508204 -112.017696415 0.400564567418 67.8575276993 0.0010370967682 -144.244345864 0.822655990883 70.7480228205
10.425 0.584848645157 -132.107035916 0.29905622767 92.4683625356 0.637042006063 116.776649814 0.403354580789 -114.4577912 0.29905622767 92.4683625356 0.582505513472 -132.978523985 0.640993240531 116.531618823 0.400475174573 65.4127838975 0.637042006063 116.776649814 0.640993240531 116.531618823 0.428140257922 -144.543730378 0.00103238502747 -147.39292978 0.403354580789 -114.4577912 0.400475174573 65.4127838975 0.00103238502747 -147.392929781 0.822753700013 68.5998191564
10.45 0.582856592253 -134.703984693 0.299629664965 89.2713222096 0.63866444423 112.703301392 0.403246804295 -116.894822184 0.299629664965 89.2713222096 0.580453364726 -135.58281776 0.642639164432 112.454330283 0.400388386892 62.9710522705 0.63866444423 112.703301392 0.642639164432 112.454330283 0.423227564626 -149.997798173 0.00102810272215 -150.530200965 0.403246804295 -116.894822184 0.400388386892 62.9710522705 0.00102810272215 -150.530200965 0.822848769499 66.4538811167
10.475 0.580871503749 -137.290322317 0.300176396184 86.0723341454 0.640280501871 108.630312891 0.403141795345 -119.328842114 0.300176396184 86.0723341455 0.578407700414 -138.176570763 0.644278796943 108.377316339 0.400304254314 60.5322797607 0.640280501871 108.630312891 0.644278796943 108.377316339 0.418263860945 -155.470781852 0.00102425086108 -153.657238034 0.403141795345 -119.328842114 0.400304254314 60.5322797607 0.00102425086107 -153.657238034 0.822941156903 64.3101635038
10.5 0.578896490395 -139.865904166 0.300694317983 82.8713675182 0.641888514632 104.557480269 0.40303959631 -121.759903228 0.300694317983 82.8713675182 0.576371676026 -140.759629738 0.645910448733 104.30037205 0.400222827071 58.0964137344 0.641888514632 104.557480269 0.645910448733 104.30037205 0.413252684157 -160.964334109 0.00102082964781 -156.775138767 0.40303959631 -121.759903228 0.400222827071 58.0964137344 0.00102082964781 -156.775138768 0.823030819833 62.1686213811
10.525 0.576934831902 -142.430596465 0.30118130131 79.6684048547 0.643486736188 100.484605666 0.402940249225 -124.188057279 0.30118130131 79.6684048547 0.574348619646 -143.331852173 0.647532348292 100.223298662 0.400144155768 55.6634019513 0.643486736188 100.484605666 0.647532348292 100.223298662 0.408198039593 -166.480161589 0.00101783847156 -159.885013448 0.402940249225 -124.188057279 0.400144155768 55.6634019513 0.00101783847155 -159.885013448 0.823117715857 60.0292100585
10.55 0.574989975114 -144.984278016 0.301635193807 76.463442297 0.645073340578 96.4114975649 0.402843795876 -126.613355549 0.301635193807 76.463442297 0.572342030212 -145.893108103 0.64914264434 96.1459037641 0.400068291468 53.2331925352 0.645073340578 96.4114975649 0.64914264434 96.1459037641 0.40310442917 -172.020025524 0.00101527590441 -162.987977822 0.402843795876 -126.613355549 0.400068291468 53.2331925352 0.00101527590441 -162.987977822 0.823201802415 57.8918850772
10.575 0.573065531249 -147.526842049 0.302053822387 73.2564898898 0.646646424799 92.3379709487 0.402750277894 -129.035848873 0.302053822387 73.2564898898 0.570355574833 -148.443282015 0.650739408486 92.0680014424 0.399995285785 50.805733943 0.646646424799 92.3379709487 0.650739408486 92.0680014424 0.397976881301 -177.585741798 0.00101313970548 -166.085145779 0.402750277894 -129.035848873 0.399995285785 50.805733943 0.00101313970548 -166.085145779 0.823283036724 55.756602195
10.6 0.571165272139 -150.05819814 0.302434996032 70.0475718959 0.648204011678 88.2638474474 0.402659736849 -131.455587659 0.302434996032 70.0475718959 0.568393085086 -150.982274857 0.652320638169 87.9894124199 0.39992519096 48.3809749345 0.648204011678 88.2638474474 0.652320638169 87.9894124199 0.392820982049 176.820819691 0.00101142683206 -169.177621836 0.402659736849 -131.455587659 0.39992519096 48.3809749345 0.00101142683206 -169.177621836 0.823361375691 53.6233173726
10.625 0.569293125371 -152.578274241 0.302776508803 66.836727137 0.649744053015 84.1889554743 0.402572214345 -133.872621903 0.302776508803 66.836727137 0.566458552178 -153.51000614 0.653884259882 83.9099641875 0.39985805995 45.9588645408 0.649744053015 84.1889554743 0.653884259882 83.9099641875 0.387642907355 171.197736576 0.00101013345836 -172.266493524 0.402572214345 -133.872621903 0.39985805995 45.9588645408 0.00101013345836 -172.266493524 0.823436775819 51.4919867593
10.65 0.567453168226 -155.087018767 0.303076143067 63.6240093619 0.651264433044 80.1131303505 0.402487752122 -136.287001219 0.303076143067 63.6240093619 0.564556120895 -156.02641612 0.655428132712 79.8294911218 0.399793946513 43.5393520328 0.651264433044 80.1131303505 0.655428132712 79.8294911218 0.382449456093 165.54303666 0.00100925500187 -175.352823783 0.402487752122 -136.287001219 0.399793946513 43.5393520328 0.00100925500187 -175.352823782 0.823509193112 49.3625666793
10.675 0.565649620344 -157.584402765 0.303331672961 60.4094876423 0.6527629722 76.0362144156 0.402406392159 -138.69877485 0.303331672961 60.4094876423 0.562690082239 -158.531468064 0.656950052193 75.7478345888 0.399732905287 41.1223868891 0.6527629722 76.0362144156 0.656950052193 75.7478345888 0.377248083649 159.854701908 0.00100878615756 -178.43764346 0.402406392159 -138.69877485 0.399732905287 41.1223868891 0.00100878615756 -178.43764346 0.823578582979 47.2350136183
10.7 0.563886835026 -160.070422124 0.303540868076 57.1932467958 0.654237431224 71.9580571219 0.40232817678 -141.107991697 0.303540868076 57.1932467958 0.560864864655 -161.025150567 0.658447754502 71.6648430315 0.399674991878 38.7079187631 0.654237431224 71.9580571219 0.658447754502 71.6648430315 0.372046935574 154.130674059 0.00100872094012 178.478055985 0.40232817678 -141.107991697 0.399674991878 38.7079187631 0.00100872094012 178.478055985 0.823644900139 45.1092842103
10.725 0.562169289092 -162.54509982 0.303701497374 53.9753878371 0.655685515602 67.8785151113 0.402253148767 -143.514700342 0.303701497374 53.9753878371 0.559085023792 -163.50747991 0.659918920993 67.5803720379 0.399620262943 36.2958974501 0.655685515602 67.8785151113 0.659918920993 67.5803720379 0.366854880812 148.368862179 0.00100905273419 175.393329485 0.402253148767 -143.514700342 0.399620262943 36.2958974501 0.00100905273419 175.393329485 0.823708098517 42.9853352244
10.75 0.560501571241 -165.008488184 0.303811333328 50.7560284582 0.657104880364 63.7974522713 0.402181351472 -145.918949064 0.303811333328 50.7560284582 0.5573552307 -165.978502445 0.661361183097 63.4942843892 0.399568776277 33.886272853 0.657104880364 63.7974522713 0.661361183097 63.4942843892 0.361681543799 142.567152497 0.00100977435264 172.30728498 0.402181351472 -145.918949064 0.399568776277 33.886272853 0.00100977435264 172.30728498 0.823768131149 40.8631235522
10.775 0.558888368847 -167.460671154 0.303868156283 47.535303537 0.658493135235 59.7147397676 0.402112828931 -148.320785872 0.303868156283 47.535303537 0.555680258425 -168.438296977 0.662772127578 59.4064500833 0.3995205909 31.4789949482 0.658493135235 59.7147397676 0.662772127578 59.4064500833 0.356537334642 136.723420913 0.00101087810291 169.219089564 0.402112828931 -148.320785872 0.3995205909 31.4789949482 0.00101087810291 169.219089564 0.823824950071 38.7426061954
10.8 0.557334453159 -169.901766492 0.303869759021 44.313365678 0.659847850155 55.6302560521 0.402047625988 -150.720258523 0.303869759021 44.313365678 0.554064966948 -170.886977104 0.664149302167 55.3167463321 0.399475767146 29.0740137499 0.659847850155 55.6302560521 0.664149302167 55.3167463321 0.351433476344 130.835548597 0.00101235586127 166.127975108 0.402047625988 -150.720258523 0.399475767146 29.0740137499 0.00101235586126 166.127975108 0.823878506216 36.6237402526
10.825 0.555844662878 -172.33192794 0.30381395152 41.0903857837 0.661166561159 51.5438868412 0.401985788417 -153.117414553 0.30381395152 41.0903857837 0.552514286443 -173.324693519 0.665490221561 51.2250575303 0.399434366754 26.6712792744 0.661166561159 51.5438868412 0.665490221561 51.2250575303 0.346382027888 124.901441103 0.00101419915494 163.03324327 0.401985788417 -153.117414553 0.399434366754 26.6712792744 0.00101419915493 163.033243269 0.823928749306 34.5064829079
10.85 0.554423886113 -174.751347286 0.303698565898 37.8665536628 0.66244677663 47.4555250632 0.401927363049 -155.512301301 0.303698565898 37.8665536628 0.551033198852 -175.751636202 0.666792373793 47.1312751904 0.399396452966 24.2707415028 0.66244677663 47.4555250632 0.666792373793 47.1312751904 0.341395901754 118.919051446 0.00101639925192 159.934269866 0.401927363049 -155.512301301 0.399396452966 24.2707415028 0.00101639925191 159.934269866 0.823975627734 32.3907914183
10.875 0.553077040732 -177.1602563 0.303521461512 34.6420786745 0.663685983899 43.3650707708 0.401872397899 -157.904965936 0.303521461512 34.6420786745 0.549626717791 -178.1680365 0.668053226972 43.0352978438 0.39936209062 21.8723503429 0.663685983899 43.3650707708 0.668053226972 43.0352978438 0.336488874191 112.886407557 0.00101894725832 156.830508556 0.401872397899 -157.904965936 0.39936209062 21.8723503429 0.00101894725832 156.830508556 0.82401908845 30.2766231019
10.9 0.55180905315 -179.558928506 0.303280530198 31.4171904173 0.6648816562 39.2724310171 0.401820942301 -160.295455489 0.303280530198 31.4171904173 0.548299866825 179.425830965 0.669270236368 38.9370309024 0.399331346258 19.4760555907 0.6648816562 39.2724310171 0.669270236368 38.9370309024 0.331675586348 106.801644495 0.00102183422307 153.721493801 0.401820942301 -160.295455489 0.399331346258 19.4760555907 0.00102183422307 153.721493802 0.82405907684 28.1639353262
10.925 0.550624835629 178.05231924 0.302973701634 28.1921394647 0.666031259962 35.1775196895 0.401773047042 -162.683816884 0.302973701634 28.1921394647 0.54705765619 177.029646579 0.670440851842 34.8363864788 0.399304288234 17.0818068891 0.666031259962 35.1775196895 0.670440851842 34.8363864788 0.326971534099 100.663041717 0.0010250512496 150.606843092 0.401773047042 -162.683816884 0.399304288234 17.0818068891 0.00102505124961 150.606843093 0.824095536603 26.0526854959
10.95 0.549529262184 175.673125402 0.302598948795 24.9671981573 0.667132262404 31.0802573008 0.401728764503 -165.070096963 0.302598948795 24.9671981573 0.545905058056 174.643044263 0.671562525601 30.733283162 0.399280986824 14.6895536871 0.667132262404 31.0802573008 0.671562525601 30.733283162 0.322393044195 94.4690655339 0.00102858961443 147.486258433 0.401728764503 -165.070096963 0.399280986824 14.6895536871 0.00102858961445 147.486258433 0.824128409617 23.9428310421
10.975 0.548527143226 173.303082688 0.302154293492 21.7426614582 0.668182139433 26.9805707341 0.401688148796 -167.454342526 0.302154293492 21.7426614582 0.54484698046 172.265610266 0.67263272024 26.6276457448 0.399261514354 12.2992451963 0.668182139433 26.9805707341 0.672632720239 26.6276457448 0.317957234169 88.2184167478 0.00103244089219 144.359527077 0.401688148796 -167.454342526 0.399261514354 12.2992451963 0.00103244089222 144.359527077 0.824157635806 21.8343294101
11 0.547623199083 170.941737276 0.301637811971 18.5188478846 0.669178383794 22.8783929373 0.401651255912 -169.836600363 0.301637811971 18.5188478846 0.543888240061 169.896882281 0.673648917056 22.5194049008 0.399245945325 9.91083034575 0.669178383794 22.8783929373 0.673648917056 22.5194049008 0.31368195335 81.9100831374 0.00103659708675 141.226521536 0.401651255912 -169.836600364 0.399245945325 9.91083034575 0.0010365970868 141.226521536 0.824183152999 19.7271380487
11.025 0.546822032606 168.588588372 0.301047640566 15.2961005273 0.670118513449 18.7736625664 0.401618143864 -172.21691729 0.301047640566 15.2961005273 0.543033533921 167.536348887 0.674608624593 18.4084968081 0.399234356554 7.52425773567 0.670118513449 18.7736625664 0.674608624593 18.4084968081 0.309585702302 75.5433961687 0.00104105076825 138.087198874 0.401618143864 -172.21691729 0.399234356554 7.52425773567 0.00104105076832 138.087198874 0.824204896784 17.6212143983
11.05 0.546128101043 166.243088127 0.300381981403 12.0747881729 0.671000080136 14.6663235737 0.401588872835 -174.595340182 0.300381981403 12.0747881729 0.542287410508 165.183449384 0.675509387373 14.2948627161 0.399226827321 5.1394755885 0.671000080136 14.6663235737 0.675509387373 14.2948627161 0.305687528193 69.1180908689 0.00104579521542 134.941599316 0.401588872835 -174.595340182 0.399226827321 5.13947558851 0.0010457952155 134.941599316 0.824222800352 15.5165158801
11.075 0.545545687437 163.904641941 0.299639108164 8.85530654884 0.671820678072 10.55632474 0.401563505332 -176.971916018 0.299639108164 8.85530654881 0.541654240172 162.837574008 0.67634879477 10.1784484555 0.399223439537 2.75643169795 0.671820678072 10.5563247401 0.67634879477 10.1784484555 0.302006893927 62.6343673358 0.00105082456294 131.789844213 0.401563505332 -176.971916018 0.399223439537 2.75643169796 0.00105082456304 131.789844213 0.824236794336 13.4129998849
11.1 0.545078871778 161.572609168 0.298817371939 5.63807970898 0.67257795274 6.44361914812 0.401542106334 -179.346691918 0.298817371939 5.63807970896 0.541138185355 160.49806457 0.677124489979 6.05920388721 0.399224277911 0.375073375428 0.67257795274 6.44361914813 0.677124489979 6.0592038872 0.298563519472 56.0929518263 0.00105613395346 128.632133394 0.401542106334 -179.346691918 0.399224277911 0.375073375439 0.00105613395357 128.632133393 0.824246806644 11.3106237622
11.125 0.544731502203 159.246304234 0.297915207202 2.42356158479 0.673269609704 2.32816359661 0.401524743452 178.280284813 0.297915207202 2.42356158477 0.540743170803 158.164215528 0.677834179016 1.93708229 0.399229430144 -2.00465260621 0.673269609704 2.32816359661 0.677834179016 1.93708228999 0.295377194663 49.4951548381 0.00106171969379 125.468741969 0.401524743452 178.280284813 0.399229430144 -2.0046526062 0.0010617196939 125.468741968 0.824252762279 9.20934480916
11.15 0.544507166499 156.924998167 0.296931137981 -0.787762273445 0.673893423398 -1.79008204663 0.401511487075 175.908966646 0.296931137981 -0.78776227346 0.540472854076 155.835275476 0.678475639689 -2.18796031377 0.399238987134 -4.38280007202 0.673893423398 -1.79008204662 0.678475639688 -2.18796031378 0.29246756392 42.8429231031 0.00106757941503 122.300016629 0.401511487075 175.908966646 0.399238987134 -4.38280007201 0.00106757941513 122.300016627 0.824254583156 7.10912025968
11.175 0.544409164202 154.60792054 0.295863784323 -3.99537273728 0.674447245819 -5.91115555208 0.401502410539 173.539305777 0.295863784323 -3.99537273728 0.540330596634 153.510449074 0.679046730476 -6.31596589592 0.399253043202 -6.75942350772 0.674447245819 -5.91115555208 0.679046730476 -6.31596589593 0.289853884759 36.1388820234 0.00107371223637 119.126371503 0.401502410539 173.539305777 0.399253043202 -6.75942350771 0.00107371223645 119.1263715 0.824252187899 5.00990727382
11.2 0.544440479568 152.294261813 0.294711869163 -7.19871489346 0.67492901505 -10.0350930969 0.401497590274 171.171254083 0.294711869163 -7.19871489345 0.540319435787 151.18889938 0.679545399243 -10.4469752226 0.399271696335 -9.13457812611 0.67492901505 -10.0350930969 0.679545399243 -10.4469752226 0.287554763615 29.3863648746 0.00108011893234 115.94828365 0.401497590274 171.171254083 0.399271696335 -9.1345781261 0.00108011893238 115.948283647 0.824245491642 2.91166292705
11.225 0.544603755675 149.983176049 0.293474225772 -10.3971955596 0.675336763557 -14.1619300929 0.401497105968 168.804763073 0.293474225772 -10.3971955596 0.54044205777 148.869750572 0.679969691716 -14.5810287162 0.399295048457 -11.5083199377 0.675336763557 -14.1619300929 0.679969691716 -14.5810287162 0.28558787435 22.58942515 0.00108680210354 112.766288241 0.401497105968 168.804763073 0.399295048457 -11.5083199377 0.00108680210353 112.766288237 0.824234405804 0.814344199712
11.25 0.544901269903 147.673783969 0.292149805989 -13.5901804921 0.675668626169 -18.2917020733 0.401501040727 166.439783837 0.292149805989 -13.5901804921 0.540700772198 146.552091027 0.680317759657 -18.7181673781 0.399323205719 -13.8807058256 0.675668626169 -18.2917020733 0.680317759657 -18.7181673781 0.283969666621 15.7528287977 0.00109376635096 109.580973522 0.401501040727 166.439783837 0.399323205719 -13.8807058256 0.00109376635088 109.580973518 0.824218837864 -1.28209203346
11.275 0.545334911006 145.365176319 0.290737689473 -16.7769912582 0.675922847679 -22.4244456343 0.40150948123 164.076266992 0.290737689473 -16.7769912581 0.541097488089 144.234976711 0.680587868638 -22.858433769 0.399356278823 -16.2517936257 0.675922847679 -22.4244456343 0.680587868638 -22.858433769 0.282715072973 8.8820238467 0.00110101845433 106.39297562 0.40150948123 164.076266992 0.399356278823 -16.2517936257 0.00110101845416 106.392975615 0.824198691113 -3.37768901365
11.3 0.545906157952 143.05641749 0.289237094293 -19.9569017473 0.67609778999 -26.5601994312 0.40152251789 161.714162629 0.289237094293 -19.9569017472 0.541633691646 141.917434831 0.680778405363 -27.0018730442 0.399394383372 -18.6216422123 0.676097789989 -26.5601994312 0.680778405364 -27.0018730442 0.281837224834 1.98308602874 0.00110856755504 103.20297329 0.40152251789 161.714162629 0.399394383372 -18.6216422124 0.00110856755477 103.202973285 0.824173864402 -5.47249010815
11.325 0.54661606066 140.746549348 0.287647389182 -23.1291343042 0.676191938722 -30.6990052219 0.401540245014 159.353420259 0.287647389182 -23.129134304 0.542310425902 139.598467698 0.680887884456 -31.1485340408 0.399437640254 -20.9903115891 0.676191938722 -30.6990052219 0.680887884456 -31.1485340408 0.281347188364 -4.93735956617 0.00111642534462 100.011682672 0.401540245014 159.353420259 0.399437640253 -20.9903115892 0.00111642534424 100.011682667 0.824144251869 -7.56653882037
11.35 0.547465222726 138.434595205 0.285968107875 -26.2928554762 0.676203909231 -34.8409089557 0.401562760958 156.99398875 0.285968107875 -26.2928554759 0.543128272291 137.277056727 0.680914954624 -35.2984704101 0.399486176065 -23.3578629876 0.676203909231 -34.8409089557 0.680914954625 -35.2984704101 0.281253731132 -11.8722391296 0.00112460626019 96.8198521525 0.401562760958 156.99398875 0.399486176065 -23.3578629877 0.00112460625971 96.8198521478 0.824109742652 -9.65987879975
11.375 0.548453786151 136.119563882 0.284198965957 -29.4471713806 0.676132451946 -38.9859619004 0.401590168285 154.63581627 0.284198965958 -29.4471713803 0.544087334143 134.95216653 0.680858404165 -39.4517417916 0.399540123575 -25.724358972 0.676132451945 -38.9859619004 0.680858404166 -39.4517417916 0.281563129808 -18.8141497146 0.00113312768852 93.6282574103 0.401590168285 154.63581627 0.399540123574 -25.724358972 0.00113312768794 93.6282574063 0.82407022059 -11.7525538513
11.4 0.549581418039 133.800453789 0.282339880722 -32.5911227205 0.675976456982 -43.1342218016 0.401622573919 152.278850228 0.282339880723 -32.5911227202 0.545187222037 132.622749008 0.680717165711 -43.6084150209 0.399599622228 -28.0898635522 0.675976456981 -43.1342218016 0.680717165712 -43.6084150209 0.282279027441 -25.7554928626 0.001142010181 90.4376967352 0.401622573919 152.278850228 0.399599622228 -28.0898635523 0.00114201018035 90.4376967322 0.824025563899 -13.8446079453
11.425 0.550847299176 131.476256971 0.280390994532 -35.7236795008 0.675734957967 -47.2857540671 0.401660089297 149.923037203 0.280390994532 -35.7236795005 0.546427040865 130.287747401 0.680490320184 -47.7685653638 0.399664818707 -30.4544423058 0.675734957966 -47.2857540671 0.680490320185 -47.7685653638 0.283402346492 -32.6886161801 0.00115127768239 87.2489867016 0.401660089297 149.923037203 0.399664818706 -30.4544423059 0.00115127768172 87.2489866997 0.82397564484 -15.9360852258
11.45 0.552250114314 129.14596305 0.278352702207 -38.8437355327 0.675407135021 -51.4406329677 0.401702830521 147.568322886 0.278352702208 -38.8437355325 0.547805378404 127.946100219 0.680177099897 -51.9322777696 0.399735867535 -32.8181625084 0.67540713502 -51.4406329677 0.680177099897 -51.9322777696 0.284931260863 -39.6059560629 0.00116095777669 84.0629582838 0.401702830521 147.568322886 0.399735867535 -32.8181625084 0.0011609577761 84.0629582829 0.823920329359 -18.0270300202
11.475 0.553788043953 126.808563011 0.276225682935 -41.9501028582 0.674992316859 -55.5989428454 0.401750918506 145.214652008 0.276225682936 -41.950102858 0.549320295116 125.596745004 0.679776890748 -56.0996481324 0.399812931754 -35.1810932752 0.674992316858 -55.5989428454 0.679776890748 -56.0996481324 0.286861226954 -46.500174654 0.00117108195448 80.8804534917 0.401750918506 145.214652008 0.399812931754 -35.1810932753 0.0011710819541 80.8804534916 0.823859476715 -20.1174868474
11.5 0.555458757338 124.463052786 0.27401093712 -45.0415062775 0.674489981983 -59.7607793198 0.401804479119 142.861968273 0.27401093712 -45.0415062775 0.550969314843 123.23862186 0.679289233495 -60.2707845519 0.399896183649 -37.5433057136 0.674489981983 -59.7607793198 0.679289233495 -60.2707845519 0.28918507064 -53.3642846216 0.00118168590652 77.7023226107 0.401804479119 142.861968273 0.399896183649 -37.5433057136 0.00118168590652 77.7023226105 0.823792939082 -22.2075004257
