! Touchstone file exported from HFSS 2025.2.4
!        File:           C:/Users/chaoy/Documents/single_magictee_v1_l2_800/single_magictee_v1.aedt
!        Generated:      08:56:07 AM Sep 19, 2026
!        Design:         SingleMagicT_v1
!        Project:        single_magictee_v1
!
! Variables:
!        f_adapt = 10.2GHz
!        ridge_g1 = 7.672mm
!        ridge_g2 = 4.984mm
!        ridge_l1 = 9.872mm
!        ridge_l2 = 8mm
!        ridge_w = 4.572mm
!        wg_a = 22.86mm
!        wg_b = 10.16mm
!
!Data is not renormalized
# GHz S MA
! Terminal data exported
! Port[1] = P1_CollinearMinusX
! Port[2] = P2_CollinearPlusX
! Port[3] = P3_HArm_Ridged
! Port[4] = P4_EArm
9                              0.230963628815463 -13.2105985129031 0.784407722056447 -168.639877298382 0.545964899920119 116.970584724086 0.182435346898085 71.6610270079627 
                               0.784407722056445 -168.639877298382 0.232355890301325 -12.818605502354 0.545539691133988 117.080073073963 0.181938756778013 71.8552795257538 
                               0.545964899920118 116.970584724086 0.545539691133989 117.080073073963 0.480004570824561 -136.404950856739 0.417018447361956 129.590233806206 
                               0.182435346898086 71.6610270079627 0.181938756778013 71.8552795257541 0.417018447361957 129.590233806206 0.871614162083241 -120.131177332627 
9.025                          0.229794492528119 -16.2858636877893 0.785595774956129 -171.663447314503 0.544894768632546 113.908761054909 0.18205014117888 68.3420481242206 
                               0.785595774956131 -171.663447314503 0.231186187933103 -15.8934319639473 0.544468200581315 114.018126184755 0.181562762041799 68.5334600228071 
                               0.544894768632544 113.90876105491  0.544468200581313 114.018126184755 0.481493885025879 -139.507169365077 0.41812419110535 126.574486474027 
                               0.182050141178879 68.3420481242206 0.181562762041799 68.5334600228069 0.418124191105353 126.574486474027 0.871257596988642 -123.359020504136 
9.05                           0.228623670192055 -19.3507150543216 0.786779441417894 -174.677362947896 0.543818556747531 110.851838807772 0.181661198222284 65.0280476931821 
                               0.786779441417899 -174.677362947896 0.230016188087261 -18.9578190628765 0.543390192380687 110.961033283656 0.181182972064402 65.2165546836102 
                               0.543818556747529 110.851838807773 0.543390192380683 110.961033283656 0.482964469270921 -142.610789251903 0.419244759416642 123.564168030631 
                               0.181661198222281 65.0280476931821 0.181182972064403 65.2165546836098 0.419244759416647 123.564168030631 0.870887918043722 -126.57592313967 
9.075                          0.227451047733436 -22.4054392901222 0.787959881589416 -177.681805660099 0.542736185549097 107.799679699905 0.181268677737755 61.7189504879652 
                               0.787959881589424 -177.681805660099 0.228845756222172 -22.0120443713147 0.542305574621267 107.908656689635 0.180799543120736 61.9044920273113 
                               0.542736185549094 107.799679699905 0.542305574621262 107.908656689634 0.484418285490718 -145.715797234669 0.42038025256215 120.55915468195  
                               0.181268677737752 61.7189504879652 0.180799543120736 61.9044920273107 0.420380252562155 120.55915468195  0.870506250213578 -129.782086473914 
9.1                            0.226276418197731 -25.4503116032939 0.789138163748026 179.323041877486 0.541647482512367 104.75215025695  0.180872702686919 58.4146791590902 
                               0.789138163748034 179.323041877486 0.227674675864481 -25.0563722546897 0.54121416107286 104.860863681721 0.1804125951649  58.5971983028487 
                               0.541647482512363 104.75215025695  0.541214161072854 104.86086368172  0.485857228971103 -148.822179398273 0.421530720391065 117.559320642431 
                               0.180872702686915 58.4146791590902 0.180412595164901 58.597198302848  0.421530720391071 117.559320642431 0.870113548948108 -132.977712321172 
9.125                          0.225099495705219 -28.4855952869857 0.790315270601005 176.336996354159 0.540552193376768 101.709122039734 0.180473363406184 55.1151550559655 
                               0.790315270601013 176.336996354159 0.226502661565478 -28.0910537130773 0.540115683422009 101.817526723911 0.180022215913685 55.2945983252258 
                               0.540552193376764 101.709122039734 0.540115683422003 101.81752672391  0.487283126916238 -151.929920363042 0.422696167001999 114.564538907787 
                               0.18047336340618 55.1151550559654 0.180022215913686 55.2945983252252 0.422696167002005 114.564538907787 0.869710617962281 -136.163002262152 
9.15                           0.223919928392989 -31.5115414487323 0.791492105327589 173.359874328032 0.539449993475786 98.6704718053526 0.180070721589967 51.8202989547524 
                               0.791492105327597 173.359874328032 0.225329370816484 -31.1163263675435 0.539009802759287 98.7785236233077 0.179628464797113 51.9966162183774 
                               0.539449993475783 98.670471805353  0.53900980275928 98.7785236233072 0.488697737431509 -155.039002523547 0.423876555287607 111.574681960432 
                               0.180070721589963 51.8202989547524 0.179628464797114 51.9966162183768 0.423876555287613 111.574681960432 0.869298126072787 -139.338156945554 
9.175                          0.222737310355077 -34.5283888921045 0.792669497333456 170.391492675945 0.538340498318047 95.6360816096162 0.179664814112835 48.5300316972188 
                               0.792669497333462 170.391492675945 0.224154414952195 -34.1324145700977 0.537896120311704 95.7437376286449 0.179231376754001 48.7031760690086 
                               0.538340498318044 95.6360816096166 0.537896120311698 95.7437376286445 0.490102748873226 -158.149405359603 0.425071811339007 108.589622409574 
                               0.179664814112833 48.5300316972187 0.179231376754001 48.7031760690081 0.425071811339013 108.589622409574 0.868876623030864 -142.503375495451 
9.2                            0.221551192601105 -37.5363641297862 0.793848207695088 167.431668989413 0.537223273421219 92.6058388575478 0.179255656672704 45.2442747454275 
                               0.793848207695094 167.431668989413 0.222977369077216 -37.1395296176709 0.536774187421053 92.7130574759944 0.178830965854224 45.4142024960505 
                               0.537223273421216 92.6058388575481 0.536774187421048 92.7130574759941 0.491499779514487 -161.261104820187 0.426281828694644 105.609233568132 
                               0.179255656672702 45.2442747454275 0.178830965854224 45.4142024960501 0.426281828694649 105.609233568132 0.86844655430949 -145.658855015609 
9.225                          0.220361093060727 -40.535681508735 0.795028934277422 164.480221920744 0.536097843406129 89.5796363082718 0.178843247240659 41.9629506572762 
                               0.795028934277426 164.480221920744 0.221797781055881 -40.1378700522126 0.535643514774941 89.686377388091  0.178427228732838 42.1296211405635 
                               0.536097843406126 89.579636308272  0.535643514774937 89.6863773880908 0.492890377478944 -164.374072780478 0.427506472420894 102.633389968816 
                               0.178843247240657 41.9629506572761 0.178427228732838 42.1296211405633 0.427506472420899 102.633389968816 0.868008274819445 -148.804790182122 
9.25                           0.219166505666679 -43.5265434295678 0.796212316513586 161.536971483374 0.534963700363547 86.5573720402549 0.178427569306237 38.6859834880137 
                               0.796212316513588 161.536971483374 0.220615179609041 -43.1276220305975 0.53450358090248 86.6635970333389 0.178020147824387 38.8493590810554 
                               0.534963700363544 86.557372040255  0.534503580902476 86.6635970333388 0.494276020896956 -167.488276571725 0.428745583014158 99.6619678218355 
                               0.178427569306237 38.6859834880137 0.178020147824388 38.8493590810554 0.428745583014162 99.6619678218354 0.867562061543052 -151.94137291599 
9.275                          0.217966908553544 -46.5091406437553 0.79739893984041 158.601739310329 0.533820311510536 83.5389493824939 0.178008594909925 35.4132991229184 
                               0.797398939840411 158.601739310329 0.219429081564109 -46.1089597495624 0.533353839951091 83.6446214501915 0.17760969438869 35.5733451792573 
                               0.533820311510533 83.5389493824939 0.533353839951089 83.6446214501915 0.495658118241554 -170.603678583151 0.429998980116403 96.694845416839  
                               0.178008594909925 35.4132991229183 0.177609694388691 35.5733451792575 0.429998980116407 96.694845416839  0.86710812508695 -155.068792127624 
9.3                            0.216761771412658 -49.4836526135765 0.798589339787718 155.674348874599 0.532667126157014 80.5242768168764 0.177586287457336 32.1448255463353 
                               0.798589339787718 155.674348874599 0.218238998306441 -49.0820459123301 0.53219372876478 80.6293609422242 0.177195831322072 32.3015103614369 
                               0.532667126157012 80.5242768168763 0.532193728764778 80.6293609422243 0.497038008804886 -173.720235934721 0.431266466038129 93.7319034717364 
                               0.177586287457337 32.1448255463352 0.177195831322073 32.3015103614372 0.431266466038132 93.7319034717363 0.86664662016611 -158.187233525581 
9.325                          0.215550562046069 -52.4502479211122 0.799784005723236 152.754625675033 0.531503582006469 77.5132678565658 0.177160604312041 28.8804930522391 
                               0.799784005723235 152.754625675033 0.217044441481255 -52.0470322249587 0.531022673287546 77.6177309488455 0.176778515750499 29.033787840315  
                               0.531503582006468 77.5132678565656 0.531022673287545 77.6177309488456 0.498416963279107 -176.837900219162 0.432547829084571 90.7730254311572 
                               0.177160604312042 28.8804930522391 0.176778515750499 29.0337878403154 0.432547829084574 90.7730254311571 0.866177655040691 -161.296879482228 
9.35                           0.214332752164307 -55.4090847138152 0.800983384258349 149.842397391198 0.530329110817455 74.5058409048984 0.176731499166226 25.6202344014254 
                               0.800983384258346 149.842397391198 0.215844927995819 -55.0040599117505 0.529840094318446 74.6096518962196 0.176357701403328 25.7701132826073 
                               0.530329110817454 74.5058409048982 0.529840094318446 74.6096518962197 0.499796184409168 -179.95661731131 0.43384284668265 87.8180977173256 
                               0.176731499166228 25.6202344014254 0.176357701403329 25.7701132826079 0.433842846682652 87.8180977173255 0.8657012999353  -164.397908949432 
9.375                          0.213107822473996 -58.3603111754133 0.802187882322868 146.937494010498 0.529143143454838 71.5019190989119 0.176298924190445 22.3639849303289 
                               0.802187882322864 146.937494010498 0.214639984371772 -57.9532602402953 0.528645412647187 71.6050490326059 0.17593334076845 22.5104249271286 
                               0.529143143454838 71.5019190989117 0.528645412647187 71.6050490326061 0.501176807688383 176.923672757498 0.435151288307668 84.8670099361655 
                               0.176298924190447 22.3639849303289 0.175933340768451 22.5104249271293 0.43515128830767 84.8670099361654 0.865217594477018 -167.490497417764 
9.4                            0.211875267102104 -61.3040660120633 0.803397869919548 144.039747930613 0.527945114361614 68.501430141268  0.175862831965549 19.1116826163429 
                               0.803397869919544 144.039747930613 0.21342915049713 -60.8947550478997 0.527438053601098 68.603852251958  0.175505387031444 19.2546636582852 
                               0.527945114361613 68.5014301412677 0.5274380536011  68.6038522519582 0.502559902071213 173.803035862518 0.436472918210187 81.9196550414649 
                               0.175862831965552 19.111682616343  0.175505387031445 19.254663658286  0.436472918210189 81.9196550414648 0.864726554194135 -170.574816913153 
9.425                          0.21063459740405 -64.2404789448023 0.804613682571254 141.148994040189 0.526734465483617 65.5043061239743 0.17542317720157 15.8632681043513 
                               0.804613682571249 141.148994040189 0.212211982826899 -63.8286572622752 0.52621745103589 65.6059959092597 0.175073795803079 16.0027730396402 
                               0.526734465483617 65.504306123974  0.526217451035892 65.6059959092599 0.503946470681142 170.68154378901  0.437807497944784 78.9759294599228 
                               0.175423177201573 15.8632681043513 0.17507379580308 16.0027730396411 0.437807497944786 78.9759294599228 0.864228176122174 -173.651036025324 
9.45                           0.209385345202876 -67.1696712004215 0.805835623475556 138.265069780481 0.525510649680614 62.5104833469648 0.174979918249782 12.6186846990086 
                               0.805835623475551 138.265069780481 0.210988057080335 -66.7550714104222 0.524983050803838 62.6114186307287 0.174638526640983 12.7546993120711 
                               0.525510649680614 62.5104833469645 0.524983050803841 62.6114186307289 0.505337451494956 167.559274178994 0.439154788703553 76.0357331798893 
                               0.174979918249786 12.6186846990088 0.174638526640984 12.754699312072  0.439154788703555 76.0357331798894 0.863722443567423 -176.719319962775 
9.475                          0.208127065506429 -70.0917559939353 0.807063965383053 135.387815190478 0.524273133658035 59.5199021342535 0.174533018415507 9.37787832709876 
                               0.807063965383048 135.387815190478 0.209756970481669 -69.6740941106667 0.523734313733905 59.6200631216649 0.174199544372644 9.51039136084866 
                               0.524273133658036 59.5199021342532 0.523734313733908 59.6200631216651 0.506733717988074 164.436310424582 0.440514553458316 73.0989698065781 
                               0.17453301841551 9.37787832709894 0.174199544372646 9.51039136084958 0.440514553458317 73.0989698065781 0.863209330081061 -179.779830629504 
9.5                            0.206859338748879 -73.0068389968291 0.808298952216992 132.51707293786  0.523021400454157 56.5325066500446 0.174082447080365 6.14079747408067 
                               0.808298952216988 132.517072937861 0.208518343589767 -72.5858145437726 0.522470718158859 56.6318759743844 0.173756820228091 6.26980065576094 
                               0.523021400454158 56.5325066500444 0.522470718158862 56.6318759743846 0.508136079728813 161.312741511294 0.441886558916471 70.1655465864912 
                               0.174082447080369 6.14079747408088 0.173756820228093 6.26980065576188 0.441886558916472 70.1655465864912 0.862688802698968 177.167273280946 
9.525                          0.205581772602064 -75.9150187862448 0.809540800452752 129.652688337934 0.521754951517704 53.5482447168592 0.173628180643662 2.90739309869485 
                               0.809540800452748 129.652688337934 0.207271821760525 -75.4903148999713 0.52119176202474 53.6468074783485 0.173310332791617 3.03288116817742 
                               0.521754951517706 53.5482447168589 0.521191762024744 53.6468074783486 0.509545282912581 158.188661814893 0.443270577296339 67.2353744037455 
                               0.173628180643665 2.90739309869512 0.17331033279162 3.03288116817834 0.44327057729634 67.2353744037455 0.862160824503731 174.121836178093 
9.55                           0.204294003400997 -78.8163872712078 0.810789700276494 126.794509362525 0.520473308410801 50.5670676374201 0.173170203293434 -0.322381470750604 
                               0.810789700276491 126.794509362525 0.20601707628404 -78.3876707996245 0.519896964617955 50.6648114342748 0.172860068782774 -0.200410731291538 
                               0.520473308410803 50.5670676374199 0.519896964617959 50.6648114342748 0.510962010829978 155.064170855399 0.444666387928686 64.3083677509254 
                               0.173170203293438 -0.322381470750283 0.172860068782776 -0.200410731290647 0.444666387928687 64.3083677509254 0.861625356566052 171.083705457385 
9.575                          0.202995697226549 -81.7110300929057 0.812045816542862 123.942386640617 0.519176014171839 47.5889300217383 0.172708507618366 -3.54857065505708 
                               0.812045816542859 123.942386640618 0.20475380523657 -81.2779516860625 0.518585867945017 47.6858449737083 0.172406023677594 -3.43011639113814 
                               0.51917601417184 47.5889300217381 0.518585867945021 47.6858449737084 0.512386884265545 151.939373011999 0.44607377869187 61.384444677017  
                               0.172708507618369 -3.5485706550567 0.172406023677597 -3.43011639113732 0.446073778691871 61.384444677017  0.861082359322914 168.052731376535 
9.6                            0.20168655068667 -84.599026996905 0.813309289551896 121.096173452373 0.517862634372258 44.6137896205497 0.17224309507232 -6.77121675468983 
                               0.813309289551893 121.096173452373 0.203481734085178 -84.161221189912 0.517258037799381 44.7098683852342 0.171948202181571 -6.65627501016525 
                               0.51786263437226 44.6137896205496 0.517258037799385 44.7098683852341 0.513820461826618 148.814377202669 0.447492547288743 58.4635267148977 
                               0.172243095072323 -6.77121675468944 0.171948202181573 -6.6562750101645 0.447492547288745 58.4635267148977 0.86053179344954 165.028766928167 
9.625                          0.200366291435736 -87.4804521760267 0.814580235665542 118.255725717966 0.516532757900406 41.641607165977  0.171773976303634 -9.99036008940427 
                               0.81458023566554 118.255725717966 0.202200616080658 -87.0375374649635 0.515913064549016 41.7368449482246 0.171486618566335 -9.87892377869282 
                               0.516532757900408 41.641607165977  0.51591306454902 41.7368449482245 0.51526324020411 145.689296532296 0.448922502374074 55.5455387907657 
                               0.171773976303636 -9.9903600894038 0.171486618566337 -9.87892377869215 0.448922502374075 55.5455387907657 0.859973620281297 162.011667711241 
9.65                           0.199034678469566 -90.355374583403 0.815858747784067 115.420901982534 0.515185997504601 38.6723462200251 0.171301171361575 -13.2060391444197 
                               0.815858747784065 115.420901982534 0.20091023247189 -89.9069534962987 0.514550563677341 38.7667407747478 0.171021296882308 -13.0980980271726 
                               0.515185997504603 38.672346220025  0.514550563677344 38.7667407747477 0.516715654369379 142.56424791314  0.450363464541789 52.6304091177959 
                               0.171301171361577 -13.2060391444192 0.171021296882311 -13.0980980271721 0.450363464541791 52.6304091177959 0.859407801840471 159.001291803421 
9.675                          0.197691502231439 -93.2238582159859 0.817144895702571 112.591563398377 0.513821990126276 35.7059730312773 0.170824709792505 -16.4182907208979 
                               0.81714489570257 112.591563398377 0.199610392572309 -92.7695173820255 0.513170176108915 35.7995246600121 0.170552271059743 -16.3138313798961 
                               0.513821990126278 35.7059730312773 0.513170176108918 35.7995246600119 0.518178077713344 139.439351661424 0.451815267181847 49.7180690762103 
                               0.170824709792507 -16.4182907208973 0.170552271059745 -16.3138313798956 0.451815267181849 49.7180690762103 0.85883430052121 155.997499636171 
9.7                            0.196336584562073 -96.0859623694999 0.81843872636745 109.767573705381 0.512440397052666 32.7424563999218 0.170344630638278 -19.6271500887722 
                               0.818438726367449 109.767573705381 0.198300933706471 -95.625272590544 0.51177156834983 32.8351679414752 0.170079584910598 -19.5261559117668 
                               0.512440397052669 32.7424563999219 0.511771568349833 32.835167941475  0.51965082213587 136.314731073785 0.453277757216945 46.8084530818319 
                               0.17034463063828 -19.6271500887717 0.170079584910601 -19.5261559117664 0.453277757216947 46.8084530818319 0.858253078483939 153.000153874108 
9.725                          0.194969778523972 -98.9417418664844 0.819740264052247 106.948799210507 0.511040903916884 29.7817675510337 0.169860982349297 -22.8326511402448 
                               0.819740264052248 106.948799210507 0.196981721062097 -98.4742581957744 0.510354432471168 29.8736443665403 0.169603292043652 -22.7351023063749 
                               0.511040903916887 29.7817675510338 0.51035443247117 29.8736443665401 0.521134138095092 133.190511987259 0.45475079572961 43.9014984450838 
                               0.169860982349299 -22.8326511402442 0.169603292043655 -22.7351023063747 0.454750795729612 43.9014984450837 0.857664096808328 150.009119299815 
9.75                           0.193590968127921 -101.79124725969 0.821049510471787 104.135108767046 0.509623220571489 26.8238800158383 0.169373822624426 -26.0348265425455 
                               0.821049510471788 104.135108767046 0.195652647470193 -101.316509093245 0.508918485962093 26.9149299685524 0.169123455704994 -25.9407000138895 
                               0.509623220571492 26.8238800158385 0.508918485962095 26.9149299685521 0.522628214627696 130.066822326365 0.456234258490517 40.9971452222696 
                               0.169373822624427 -26.0348265425449 0.169123455704997 -25.9407000138893 0.45623425849052 40.9971452222695 0.857067314451331 147.024262705071 
9.775                          0.192200067986607 -104.634525013649 0.822366444852803 101.326373754204 0.5081870808598  23.8687695205124 0.168883218189598 -29.2337078888118 
                               0.822366444852804 101.326373754204 0.194313633133124 -104.152056200335 0.507463471477297 23.959002950632  0.168640148555804 -29.1429774075434 
                               0.508187080859803 23.8687695205126 0.507463471477298 23.9590029506317 0.524133179352408 126.94379164072  0.457728036399035 38.0953360608476 
                               0.168883218189599 -29.2337078888112 0.168640148555807 -29.1429774075433 0.457728036399038 38.0953360608476 0.856462687054128 144.045452789188 
9.8                            0.190797022917561 -107.471617667746 0.823691023978561 98.5224680574719 0.506732242307185 20.9164138819224 0.168389244526564 -32.4293258461993 
                               0.823691023978562 98.5224680574718 0.19296462531779 -106.980926644308 0.505989156501464 21.0058435767255 0.168153452398855 -32.341961937741 
                               0.506732242307188 20.9164138819227 0.505989156501465 21.0058435767251 0.525649098469848 123.821550636478 0.459232035847145 35.1960160402834 
                               0.168389244526565 -32.4293258461986 0.168153452398858 -32.341961937741 0.459232035847148 35.1960160402833 0.85585016563884 141.07256006493  
9.825                          0.189381807514696 -110.302563984547 0.825023182224103 95.7232680501069 0.505258485752541 17.9667929095698 0.167891985562648 -35.6217103005746 
                               0.825023182224105 95.7232680501068 0.191605598028315 -109.803143942058 0.504495332951352 18.0554340691122 0.16766345786472 -35.53768028306  
                               0.505258485752544 17.9667929095701 0.504495332951352 18.0554340691118 0.527175976772635 120.700230704732 0.460746179017911 32.2991325099325 
                               0.167891985562648 -35.621710300574 0.167663457864722 -35.53768028306  0.460746179017914 32.2991325099325 0.855229695232837 138.105456772261 
9.85                           0.187954425704861 -113.127399087556 0.826362831597846 92.9286525759447 0.503765614938001 15.0198883129001 0.167391533331831 -38.810890497371 
                               0.826362831597848 92.9286525759446 0.190236551670066 -112.618728175705 0.502981816733913 15.1077585114935 0.167170264068064 -38.7301584976453 
                               0.503765614938004 15.0198883129003 0.502981816733913 15.1077585114932 0.528713757680104 117.579963449792 0.462270404129622 29.4046349252757 
                               0.167391533331831 -38.8108904973703 0.167170264068067 -38.7301584976454 0.462270404129625 29.4046349252756 0.854601213455287 135.14401679999  
9.875                          0.186514910302958 -115.946154592841 0.827709861804266 90.1385029336682 0.50225345607278 12.0756836130424 0.166887987616764 -41.9968951783933 
                               0.827709861804268 90.1385029336682 0.188857512714192 -115.427696168354 0.501448447276662 12.1628027566959 0.166673978243765 -41.9194221547097 
                               0.502253456072783 12.0756836130427 0.501448447276662 12.1628027566956 0.530262323312273 114.460880220104 0.463804665636632 26.51247468369   
                               0.166887987616764 -41.9968951783926 0.166673978243768 -41.9194221547098 0.463804665636635 26.5124746836899 0.85396464909729 132.188115615212 
9.9                            0.185063322576323 -118.758858739276 0.829064140341341 87.3527028625564 0.500721857384862 9.13416405798171 0.166381455580597 -45.1797527145533 
                               0.829064140341343 87.3527028625563 0.1874685333695  -118.230061664407 0.49989508704428 9.22055433795025 0.166174715371848 -45.105496486042 
                               0.500721857384864 9.13416405798198 0.49989508704428 9.22055433794993 0.531821494617668 111.343111644291 0.465348934397676 23.6226049608112 
                               0.166381455580596 -45.1797527145526 0.166174715371851 -45.1054964860421 0.465348934397679 23.6226049608111 0.853319920723647 129.237630200291 
9.925                          0.183599751826391 -121.565536522316 0.83042551264533 84.5711385296534 0.499170688672043 6.19531654011296 0.165872051396717 -48.3594912346903 
                               0.830425512645332 84.5711385296533 0.186069691266085 -121.0258355189  0.498321621053208 6.28100238265828 0.165672597799508 -48.2884065176124 
                               0.499170688672045 6.19531654011323 0.498321621053208 6.28100238265798 0.533391031569495 108.22678717464  0.466903197822188 20.7349805484032 
                               0.165872051396716 -48.3594912346896 0.16567259779951 -48.2884065176126 0.46690319782219 20.7349805484031 0.852666935320923 126.292438996981 
9.95                           0.18212431499299 -124.36620983633 0.83179380229427 81.7936985182201 0.497599840861715 3.25912951510844 0.165359895883664 -51.5361387507837 
                               0.831793802294271 81.79369851822   0.18466108915304 -123.815025900285 0.496727956393791 3.34413752753379 0.165167754867618 -51.4681772015105 
                               0.497599840861718 3.25912951510868 0.496727956393791 3.3441375275335  0.534970633444134 105.112034640033 0.468467460004748 17.8495576945231 
                               0.165359895883663 -51.536138750783 0.16516775486762 -51.4681772015107 0.468467460004751 17.849557694523  0.85200558701315 123.352421857216 
9.975                          0.180637156284163 -127.160897630626 0.833168811280384 79.0202738172556 0.496009225586656 0.325592921020407 0.164845116151627 -54.7097232799949 
                               0.833168811280386 79.0202738172554 0.183242854610535 -126.597638511054 0.495114021767376 0.409951833999173 0.164660322548313 -54.6448335445933 
                               0.496009225586658 0.325592921020657 0.495114021767375 0.409951833998907 0.536559939195396 101.998979810145 0.470041741857348 14.9662939466385 
                               0.164845116151626 -54.7097232799942 0.164660322548315 -54.6448335445934 0.47004174185735 14.9662939466384 0.851335755863114 120.417459999953 
10                             0.179138446832103 -129.949616084262 0.834550320360333 76.2507578118136 0.494398774782027 -2.60530190344046 0.164327845266053 -57.8802729640908 
                               0.834550320360335 76.2507578118135 0.181815139774794 -129.373676830445 0.493479767043683 -2.5215612972654 0.164150443099347 -57.818400734337 
                               0.494398774782029 -2.60530190344024 0.493479767043682 -2.52156129726565 0.538158527937048 98.8877459724222 0.471626081248596 12.0851479982261 
                               0.164327845266052 -57.8802729640901 0.164150443099349 -57.8184007343371 0.471626081248598 12.0851479982259 0.850657306773943 117.487435973415 
10.025                         0.177628384373654 -132.732378804696 0.835938089490919 73.4850462737799 0.492768440306896 -5.53356230247636 0.163808221932997 -61.0478161868868 
                               0.835938089490921 73.4850462737798 0.180378121072905 -132.143142383336 0.491825162841793 -5.4504072136867 0.163638264740042 -60.9889042624771 
                               0.492768440306897 -5.53356230247618 0.491825162841792 -5.45040721368692 0.53976591954515 95.7784535231172 0.473220533158421 9.20607953925889 
                               0.163808221932996 -61.0478161868861 0.163638264740043 -60.9889042624771 0.473220533158423 9.20607953925871 0.849970088502441 114.562233622016 
10.05                          0.176107192951971 -135.509197055202 0.837331858356582 70.7230373527284 0.491118193591672 -8.45919438959127 0.163286390209966 -64.2123816904112 
                               0.837331858356584 70.7230373527283 0.178931998963034 -134.906035039214 0.490150200136184 -8.37659010108583 0.163123941352745 -64.1563700470934 
                               0.491118193591674 -8.45919438959113 0.490150200136184 -8.37659010108604 0.541381575390457 92.6712195733979 0.474825169856085 6.32904911087274 
                               0.163286390209965 -64.2123816904105 0.163123941352746 -64.1563700470934 0.474825169856087 6.32904911087255 0.849273932792487 111.641738057192 
10.075                         0.174575122634232 -138.280080015828 0.838731346993615 67.9646315664295 0.489448025311201 -11.3822031376982 0.16276249924512 -67.3739986905467 
                               0.838731346993615 67.9646315664294 0.177476997674515 -137.662353344841 0.48845488988752 -11.3001130778268 0.162607632212862 -67.3208245538511 
                               0.489448025311202 -11.3822031376981 0.48845488988752 -11.300113077827 0.543004899209783 89.5661575712761 0.476440081108581 3.45401796438323 
                               0.162762499245119 -67.3739986905459 0.162607632212864 -67.320824553851 0.476440081108582 3.45401796438304 0.84856865363377 108.72583563138  
10.1                           0.173032449238945 -141.045035082399 0.840136256514699 65.209731790548  0.487757945081621 -14.3025924737526 0.16223670304681 -70.5326969929173 
                               0.840136256514699 65.2097317905479 0.176013364941372 -140.412094893999 0.486739262696257 -14.2209782936699 0.162089501749615 -70.4822949171328 
                               0.487757945081622 -14.3025924737525 0.486739262696257 -14.2209782936701 0.54463523812358 86.4633769398644 0.47806537442566 0.580947924724304 
                               0.162236703046809 -70.5326969929165 0.162089501749616 -70.4822949171326 0.47806537442566 0.580947924724117 0.847854046648236 105.814413914327 
10.125                         0.171479474065211 -143.804068207859 0.841546269935937 62.4582432470422 0.486047981177688 -17.2203653786196 0.161709160284625 -73.6885071097995 
                               0.841546269935938 62.4582432470421 0.174541371722215 -143.155256737315 0.485003368475691 -17.1391870340688 0.16156971933886 -73.640809061809 
                               0.486047981177689 -17.2203653786195 0.485003368475691 -17.1391870340689 0.546271883805317 83.3629827322154 0.47970117534681 -2.29019874172657 
                               0.161709160284624 -73.6885071097988 0.161569719338861 -73.6408090618088 0.47970117534681 -2.29019874172675 0.847129888603812 102.907361670972 
10.15                          0.169916523615489 -146.557184289868 0.842961053107172 59.7100734907497 0.484318180265982 -20.1355239927634 0.161180034122274 -76.8414603788148 
                               0.842961053107172 59.7100734907496 0.173061311899047 -145.891835834899 0.483247276139769 -20.0547398305295 0.161048459128492 -76.7963958263808 
                               0.484318180265983 -20.1355239927634 0.483247276139769 -20.0547398305296 0.547914073806292 80.2650753027685 0.481347627774564 -5.15945945506391 
                               0.161180034122274 -76.8414603788141 0.161048459128492 -76.7963958263805 0.481347627774564 -5.1594594550641 0.846395937052348 100.004568840128 
10.175                         0.168343949302823 -149.304387608277 0.84438025574496 56.9651323936349 0.482568607148331 -23.0480697282213 0.160649492081879 -79.9915890841239 
                               0.844380255744961 56.9651323936348 0.171573501947372 -148.621829554117 0.481471073299867 -22.9676365775152 0.160525899896137 -79.9490850881971 
                               0.482568607148332 -23.0480697282213 0.481471073299867 -22.9676365775152 0.54956099303756 77.1697499952068 0.48300489435749 -8.02687144572393 
                               0.160649492081879 -79.9915890841232 0.160525899896137 -79.9490850881967 0.483004894357489 -8.02687144572414 0.845651930086257 97.1059265132431 
10.2                           0.166762127133193 -152.045682315674 0.845803512566162 54.2233321261642 0.48079934450884 -25.958003387181 0.160117705938518 -83.1389265807898 
                               0.845803512566163 54.2233321261641 0.17007828057006 -151.345236214472 0.479674865963816 -25.8778766562383 0.160002224938162 -83.0989078914015 
                               0.480799344508841 -25.958003387181 0.479674865963816 -25.8778766562383 0.551211775408464 74.0770968463222 0.484673156925142 -10.8924718746018 
                               0.160117705938518 -83.138926580789 0.160002224938162 -83.098907891401 0.484673156925142 -10.892471874602 0.844897586206021 94.2113269125741 
10.225                         0.165171457353676 -154.781072983826 0.847230444518701 51.4845871352723 0.479010492657212 -28.8653252873373 0.159584851643197 -86.283507422901 
                               0.847230444518702 51.4845871352722 0.168576008287753 -154.062055681194 0.477858778229711 -28.7854590655266 0.159477621988281 -86.2458965781959 
                               0.479010492657212 -28.8653252873374 0.477858778229712 -28.7854590655266 0.552865505619098 70.9872003053024 0.48635261697616 -13.7562979497781 
                               0.159584851643197 -86.2835074229002 0.159477621988281 -86.2458965781952 0.486352616976159 -13.7562979497783 0.844132604288611 91.3206633681476 
10.25                          0.163572364057346 -157.510565208389 0.84866066010463 48.7488141183919 0.477202169260454 -31.7700353940455 0.159051109271772 -89.4253674959628 
                               0.84866066010463 48.7488141183919 0.1670670669791  -156.772290008739 0.476022951966497 -31.6903825597917 0.158952283163458 -89.390084923927 
                               0.477202169260455 -31.7700353940456 0.476022951966497 -31.6903825597917 0.554521221101643 67.900138967682  0.48804349621951 -16.618387040281 
                               0.159051109271772 -89.4253674959619 0.158952283163458 -89.3900849239263 0.488043496219508 -16.6183870402812 0.843356663644974 88.4338302929767 
10.275                         0.161965294736386 -160.234166273859 0.850093756789281 46.0159319930303 0.475374509054755 -34.67213345913  0.158516662996826 -92.5645441539565 
                               0.850093756789282 46.0159319930303 0.165551859364819 -159.475944135061 0.474167546472945 -34.5926457939624 0.158426404934177 -92.5315082764066 
                               0.475374509054756 -34.6721334591302 0.474167546472945 -34.5926457939623 0.556177914103203 64.8159853230601 0.489746037167721 -19.4787767873591 
                               0.158516662996826 -92.5645441539557 0.158426404934177 -92.5315082764058 0.489746037167719 -19.4787767873593 0.842569424152973 85.5507231560653 
10.3                           0.160350719775667 -162.951885880262 0.851529322488898 43.2858618613936 0.473527663529089 -37.5716191660474 0.157981701078961 -95.7010763613594 
                               0.851529322488899 43.2858618613936 0.16403080843049 -162.173026627124 0.472292738106509 -37.4922474750775 0.15790018811569 -95.6702036997662 
                               0.47352766352909 -37.5716191660475 0.472292738106509 -37.4922474750775 0.557834533900291 61.7348055155631 0.491460503779725 -22.3375052137873 
                               0.157981701078961 -95.7010763613585 0.15790018811569 -95.6702036997654 0.491460503779723 -22.3375052137874 0.841770526450712 82.6712384528323 
10.325                         0.158729131880042 -165.663736932695 0.852966937127814 40.5585269695888 0.471661800572142 -40.4684922809331 0.157446415873543 -98.8350048402846 
                               0.852966937127817 40.5585269695888 0.162504356784011 -164.863550477817 0.470398719873541 -40.3891865200635 0.157373837876339 -98.8062101230298 
                               0.471661800572144 -40.4684922809333 0.470398719873541 -40.3891865200635 0.559489989132702 58.6566591159342 0.493187182149687 -25.1946108317606 
                               0.157446415873543 -98.8350048402837 0.157373837876339 -98.8062101230289 0.493187182149685 -25.1946108317607 0.840959592173813 79.7952736726834 
10.35                          0.157101045429831 -168.369736394377 0.854406174254963 37.8338526609628 0.469777104074348 -43.3627528089035 0.156911003848569 -101.966372222772 
                               0.854406174254965 37.8338526609627 0.16097296594483 -167.547533954101 0.468485700972556 -43.283462219051 0.156847563758711 -101.939568493456 
                               0.46977710407435 -43.3627528089037 0.468485700972556 -43.283462219051 0.561143150242023 55.5815989040666 0.494926381236972 -28.0501327499557 
                               0.15691100384857 -101.966372222771 0.15684756375871 -101.939568493456 0.494926381236969 -28.0501327499558 0.840136224219196 76.9227272635634 
10.375                         0.155466995760353 -171.069906203507 0.855846602708226 35.1117663231734 0.467873773477132 -46.2544011548217 0.156375665608998 -105.095223208114 
                               0.855846602708228 35.1117663231734 0.159437115563359 -170.225001495936 0.466553906282635 -46.1750744034234 0.156321579709011 -105.070321934573 
                               0.467873773477134 -46.2544011548219 0.466553906282635 -46.1750744034234 0.562792851997617 52.5096706607472 0.496678433631129 -30.904110780357 
                               0.156375665608999 -105.095223208113 0.15632157970901 -105.070321934572 0.496678433631126 -30.9041107803571 0.839300007017018 74.0534985934339 
10.4                           0.153827538362908 -173.76427425382 0.857287788313946 32.3921973286372 0.465952023262029 -49.1434382875786 0.155840605922643 -108.221604724956 
                               0.85728778831395 32.3921973286372 0.157897302570332 -172.895984665309 0.464603575789566 -49.0640236176228 0.155796104109813 -108.198515908667 
                               0.465952023262031 -49.1434382875788 0.464603575789566 -49.0640236176227 0.564437896090478 49.4409129673704 0.498443696344533 -33.7565855454486 
                               0.155840605922644 -108.221604724955 0.155796104109813 -108.198515908666 0.49844369634453 -33.7565855454487 0.838450506791832 71.1874879087418 
10.425                         0.152183248006271 -176.452875438447 0.858729295607786 29.6750769680398 0.464012082372959 -52.0298659067924 0.155306033742553 -111.345566097759 
                               0.85872929560779 29.6750769680398 0.156354040257284 -175.560523144461 0.462634963943036 -51.9503112935868 0.15527135981112 -111.324198383377 
                               0.464012082372961 -52.0298659067926 0.462634963943035 -51.9503112935868 0.566077053773067 46.3753570123902 0.500222551624059 -36.6075985863729 
                               0.155306033742554 -111.345566097758 0.155271359811119 -111.324198383377 0.500222551624056 -36.6075985863729 0.837587271793616 68.3245962900594 
10.45                          0.150534717779515 -179.135752756355 0.860170689562012 26.9603383766566 0.462054193565773 -54.913686610684 0.154772162220676 -114.467159217047 
                               0.860170689562017 26.9603383766566 0.154807857290794 -178.218665782263 0.460648338939023 -54.8339399265417 0.154747574154529 -114.447420001854 
                               0.462054193565775 -54.9136866106841 0.460648338939022 -54.8339399265416 0.567709068520927 43.3130264033233 0.502015407771941 -39.457192472642 
                               0.154772162220677 -114.467159217046 0.154747574154529 -114.447420001854 0.502015407771938 -39.4571924726421 0.836709832479185 65.4647256052099 
10.475                         0.14888255805878 178.187041519573 0.861611537303318 24.2479164532844 0.460078612680085 -57.7949040637562 0.15423920870753 -117.586438712732 
                               0.861611537303324 24.2479164532844 0.153259296664555 179.129528312405 0.458643981922462 -57.7149132507371 0.154224978985244 -117.568234255824 
                               0.460078612680087 -57.7949040637564 0.458643981922461 -57.714913250737 0.569332658689791 40.2539369831846 0.503822699964737 -42.3054109139721 
                               0.154239208707531 -117.586438712731 0.154224978985243 -117.568234255823 0.503822699964734 -42.3054109139721 0.835817701624582 62.6077784603101 
10.5                           0.147227395402451 175.515444613968 0.863051409804367 21.5377477716532 0.458085607829439 -60.6735231627788 0.153707394732616 -120.703462129621 
                               0.863051409804374 21.5377477716533 0.151708914594786 176.483988631492 0.456622186106364 -60.5932364135833 0.153703810646594 -120.686697660745 
                               0.458085607829441 -60.6735231627789 0.456622186106363 -60.5932364135832 0.570946520139849 37.1980966503338 0.505644891058129 -45.1522988747756 
                               0.153707394732617 -120.703462129621 0.153703810646593 -120.686697660744 0.505644891058126 -45.1522988747756 0.834910374349348 59.7536581493008 
10.525                         0.145569871381015 172.849381961166 0.864489883531388 18.829770484254  0.456075458506992 -63.5495501994696 0.153176945960347 -123.818290104096 
                               0.864489883531396 18.829770484254  0.150157279365875 173.844632084026 0.454583255804684 -63.4689161465343 0.153184309951815 -123.802869932088 
                               0.456075458506995 -63.5495501994697 0.454583255804682 -63.4689161465342 0.572549328797028 34.1455051808388 0.507482472364096 -47.9979026918148 
                               0.153176945960348 -123.818290104096 0.153184309951814 -123.802869932088 0.507482472364093 -47.9979026918147 0.833987328034141 56.9022686026547 
10.55                          0.143910641349664 170.188765859514 0.865926542029458 16.1239242185901 0.454048454605064 -66.4229930181685 0.152648092116352 -126.930986540776 
                               0.865926542029466 16.1239242185901 0.148604970134427 171.211361768921 0.452527505377483 -66.34196093096  0.152666722127866 -126.916814161639 
                               0.454048454605067 -66.4229930181686 0.452527505377481 -66.3419609309599 0.574139743119461 31.0961540526106 0.509335964385885 -50.8422701954699 
                               0.152648092116353 -126.930986540775 0.152666722127865 -126.916814161639 0.509335964385882 -50.8422701954699 0.833048022113988 54.0535143360896 
10.575                         0.142250373173434 167.53349406914  0.86736097742646 13.4201499659367 0.452004895348173 -69.2938611667127 0.152121066879178 -130.04161878785 
                               0.867360977426469 13.4201499659367 0.147052575701166 168.584065705367 0.450455258088222 -69.2123811571639 0.152151296726208 -130.028596992586 
                               0.452004895348175 -69.2938611667127 0.45045525808822 -69.2123811571638 0.575716406435906 28.0500262707391 0.51120591749507 -53.685450835027 
                               0.152121066879179 -130.041618787849 0.152151296726207 -130.028596992586 0.511205917495068 -53.6854508350269 0.832091897730437 51.2073004002311 
10.6                           0.140589745916293 164.883448354452 0.868792791836191 10.7183899627701 0.449945088140474 -72.1621660386552 0.151596107732569 -133.150257809638 
                               0.8687927918362  10.7183899627701 0.145500693261212 165.962615521643 0.448366844874313 -72.0801892746299 0.151638287495617 -133.138288792014 
                               0.449945088140477 -72.1621660386551 0.448366844874311 -72.0801892746298 0.577277949121641 25.0070961936606 0.513092912533932 -56.5274958083258 
                               0.15159610773257 -133.150257809638 0.151638287495615 -133.138288792015 0.51309291253393 -56.5274958083257 0.831118377227196 48.3635323323028 
10.625                         0.13892944850712 162.238492972559 0.870221598640711 8.01858756511267 0.447869347329818 -75.0279210049146 0.151073455773739 -136.25697835479 
                               0.870221598640719 8.01858756511265 0.143949927144301 163.346865102968 0.446262603033445 -74.9453999315275 0.151127952212298 -136.24596381933 
                               0.447869347329821 -75.0279210049144 0.446262603033442 -74.9453999315273 0.578822990576431 21.96732936001   0.514997561325343 -59.368458196045 
                               0.151073455773739 -136.256978354791 0.151127952212297 -136.245963819331 0.514997561325342 -59.3684581960449 0.830126863475281 45.5221161110357 
10.65                          0.137270178396908 159.598473108578 0.871647023631728 5.32068711611935 0.445777992891973 -77.8911415329084 0.150553355473281 -139.361859118426 
                               0.871647023631737 5.3206871161193  0.142400887557393 160.736649198707 0.444142874829516 -77.8080301014637 0.150620552462811 -139.351700388991 
                               0.445777992891976 -77.8911415329082 0.444142874829513 -77.8080301014635 0.580350140968514 18.930682316248  0.516920507071386 -62.2083931008269 
                               0.150553355473281 -139.361859118427 0.15062055246281 -139.351700388993 0.516920507071385 -62.2083931008267 0.829116739015479 42.6829581161054 
10.675                         0.135612640222761 156.963213258557 0.873068705990708 2.62463380732019 0.44367134903988 -80.7518452911996 0.150036054382656 -142.464982896424 
                               0.873068705990717 2.62463380732012 0.140854189342853 158.131781988906 0.442008006023363 -80.6680991954509 0.150116353375526 -142.455581025854 
                               0.443671349039883 -80.7518452911993 0.442008006023361 -80.6680991954508 0.581858002708157 15.8971024454205 0.518862424620933 -65.0473577913636 
                               0.150036054382656 -142.464982896425 0.150116353375525 -142.455581025856 0.518862424620933 -65.0473577913633 0.828087365007772 39.8459650935194 
10.7                           0.133957544495388 154.332515560454 0.874486299087329 -0.0696264659838764 0.441549742764085 -83.6100522376861 0.149521802785466 -145.566436729938 
                               0.874486299087337 -0.0696264659839382 0.139310450766068 155.532055609735 0.439858344334775 -83.5256291570534 0.149615623296642 -145.557692611313 
                               0.441549742764087 -83.6100522376857 0.439858344334772 -83.5256291570532 0.583345171614363 12.8665277976783 0.520824020585553 -67.8854118514863 
                               0.149521802785465 -145.566436729939 0.14961562329664 -145.557692611316 0.520824020585553 -67.885411851486 0.827038079979627 37.0110441284712 
10.725                         0.132305606327698 151.706158073238 0.87589947107608 -2.76214725458412 0.439413502311742 -86.4657846893727 0.149010853289047 -148.666312038164 
                               0.875899471076087 -2.7621472545842 0.137770292346829 152.937238636979 0.437694237843548 -86.3806445386856 0.149118633407054 -148.658126518365 
                               0.439413502311744 -86.4657846893724 0.437694237843545 -86.3806445386853 0.584810237738556 9.83888692348424 0.522806033282207 -70.7226173342017 
                               0.149010853289047 -148.666312038166 0.149118633407052 -148.658126518368 0.522806033282207 -70.7226173342013 0.825968198367312 34.1781026272839 
10.75                          0.130657544222965 149.083893003795 0.877307905271037 -5.45298170981594 0.437262955612791 -89.3190673718007 0.148503460353247 -151.764704737281 
                               0.877307905271043 -5.45298170981604 0.136234335749209 150.347074526223 0.435516033338557 -89.2331725570717 0.148625657276659 -151.756978733623 
                               0.437262955612793 -89.3190673718003 0.435516033338554 -89.2331725570714 0.58625178580982 6.81409871073309 0.5248092324804  -73.5590389205321 
                               0.148503460353246 -151.764704737284 0.148625657276657 -151.756978733626 0.524809232480401 -73.5590389205316 0.824877008847005 31.347048310142  
10.775                         0.129014078941615 146.46544488087  0.878711300279236 -8.14218274183747 0.435098428663025 -92.1699274462509 0.147999879753544 -154.861715343427 
                               0.87871130027924 -8.14218274183757 0.134703202744984 147.761280007888 0.433324074624966 -92.0832431259143 0.148136970353006 -154.854349964267 
                               0.435098428663026 -92.1699274462504 0.433324074624964 -92.0832431259138 0.587668395267276 3.79207222733308 0.526834418930629 -76.3947440829087 
                               0.147999879753543 -154.86171534343 0.148136970353003 -154.854349964271 0.526834418930631 -76.3947440829082 0.823763772455184 28.5177892163937 
10.8                           0.127375932466295 143.850508674844 0.880109369873642 -10.8298031808933 0.432920243874835 -95.0183945129086 0.147500367976044 -157.957449057528 
                               0.880109369873645 -10.8298031808934 0.13317751426577 145.179543434679 0.431118700800736 -94.9308888638918 0.147652849381457 -157.950345727852 
                               0.432920243874835 -95.018394512908 0.431118700800734 -94.9308888638912 0.589058639846679 0.772706571116992 0.528882423650229 -79.2298032527685 
                               0.147500367976042 -157.957449057532 0.147652849381453 -157.950345727856 0.528882423650232 -79.2298032527679 0.822627720500701 25.6902337242678 
10.825                         0.125743827085225 141.238747861651 0.881501842587358 -13.5158959406334 0.430728718407383 -97.8645005882524 0.147005181542194 -161.052015829747 
                               0.881501842587358 -13.5158959406335 0.131657889559241 142.601523078474 0.428900244514603 -97.7761450761801 0.147173571754385 -161.045076422855 
                               0.430728718407383 -97.8645005882518 0.428900244514601 -97.7761450761795 0.59042108669017 -2.24410927071218 0.530954106942003 -82.0642899918927 
                               0.147005181542192 -161.052015829752 0.147173571754381 -161.045076422861 0.530954106942005 -82.0642899918919 0.821468052274032 22.8642905869035 
10.85                          0.124118484614222 138.629792428675 0.882888461011546 -16.2005141824771 0.428524162488833 -100.70828005503 0.146514576261394 -164.145530401272 
                               0.882888461011543 -16.2005141824772 0.130144945464782 140.026845373085 0.426669030218559 -100.619049707792 0.146699414787188 -164.138657377824 
                               0.428524162488831 -100.708280055029 0.426669030218558 -100.619049707791 0.591754294950429 -5.25849655005956 0.533050357120282 -84.8982811669102 
                               0.146514576261392 -164.145530401278 0.146699414787183 -164.138657377829 0.533050357120285 -84.8982811669094 0.820283932562441 20.0398689866331 
10.875                         0.122500625778013 136.023236820029 0.884268980780512 -18.8837114799332 0.426306877744028 -103.549769583292 0.14602880641002 -167.238112321165 
                               0.884268980780506 -18.8837114799332 0.128639295824016 137.455103098702 0.424425372428652 -103.459643267139 0.146230654919211 -167.231208876941 
                               0.426306877744024 -103.549769583291 0.424425372428652 -103.459643267139 0.593056813863225 -8.27058687145969 0.535172088918449 -87.7318571262763 
                               0.146028806410018 -167.238112321172 0.146230654919206 -167.231208876947 0.535172088918453 -87.7318571262753 0.81907448898316 17.21687860948   
10.9                           0.120890969771677 133.418637818196 0.885643169228464 -21.5655419817068 0.424077155541711 -106.389008021092 0.145548123835698 -170.329885935955 
                               0.885643169228454 -21.5655419817068 0.127141551041623 134.885853503285 0.422169574008579 -106.297968718355 0.14576756683796 -170.32285615984 
                               0.424077155541706 -106.389008021091 0.42216957400858 -106.297968718354 0.594327180265563 -11.2805222874114 0.537320241551234 -90.5651018789049 
                               0.145548123835696 -170.329885935963 0.145767566837955 -170.322856159847 0.537320241551238 -90.5651018789038 0.817838809150239 14.3952297418539 
10.925                         0.119290234023306 130.815512358643 0.887010803703693 -24.2460605723563 0.421835275375898 -109.226036253582 0.145072776985988 -173.42098034967 
                               0.887010803703679 -24.2460605723563 0.125652317811935 132.318616355535 0.419901924491124 -109.134071341045 0.145310422525265 -173.413729393465 
                               0.421835275375892 -109.226036253582 0.419901924491126 -109.134071341044 0.595563915540288 -14.2884553719601 0.539495776404518 -93.3981032735139 
                               0.145072776985986 -173.420980349679 0.145310422525259 -173.413729393472 0.539495776404521 -93.3981032735126 0.81657593769431 11.5748333914069 
10.95                          0.117699134179212 128.213335273791 0.888371669527291 -26.9253230291855 0.41958150329649 -112.060897029421 0.144603009860958 -176.511529351987 
                               0.888371669527272 -26.9253230291855 0.12417219902686 129.752871923577 0.417622698452926 -111.967998556304 0.144859490224327 -176.503963613795 
                               0.419581503296482 -112.060897029421 0.417622698452929 -111.967998556303 0.596765521972231 -17.294549268614 0.541699674324717 -96.2309531776018 
                               0.144603009860956 -176.511529351997 0.144859490224321 -176.503963613804 0.541699674324721 -96.2309531776004 0.815284873158261 8.75560143400646 
10.975                         0.116118384333314 125.611536962528 0.889725557584975 -29.6033861739969 0.417316090404508 -114.893634753543 0.144139060889454 -179.601671312214 
                               0.889725557584951 -29.6033861739968 0.122701793880873 127.188058872919 0.415332153958371 -114.799799718008 0.14441503332687 -179.593698635258 
                               0.417316090404498 -114.893634753542 0.415332153958376 -114.799799718007 0.597930478505602 -20.2989777083462 0.543932932479258 -99.0637476548388 
                               0.144139060889452 -179.601671312226 0.144415033326863 -179.593698635267 0.543932932479262 -99.0637476548373 0.81396456479561 5.93744678872688 
11                             0.114548697522815 123.009500981478 0.891072261542226 -32.2803080182654 0.415039271427575 -117.724295245551 0.143681161729187 177.308450963203 
                               0.891072261542197 -32.2803080182652 0.12124169818906 124.623572076832 0.413030531088638 -117.629525868548 0.143977309179869 177.316921074357 
                               0.415039271427564 -117.72429524555 0.413030531088645 -117.629525868547 0.599057235897607 -23.3019249931002 0.546196560759015 -101.896587139506 
                               0.143681161729185 177.30845096319  0.143977309179861 177.316921074348 0.546196560759019 -101.896587139504 0.812613909302246 3.12028362270739 
11.025                         0.112990786512815 120.406561554417 0.892411574674637 -34.9561479002342 0.412751263391322 -120.552925463185 0.143229535991092 174.2186904119   
                               0.892411574674602 -34.956147900234 0.119792504934636 122.058760331903 0.410718050571981 -120.45722945841 0.143546567811637 174.227746555615 
                               0.412751263391309 -120.552925463184 0.410718050571989 -120.457229458408 0.600144211269004 -26.3035859398899 0.548491577693083 -104.729576606463 
                               0.14322953599109 174.218690411886 0.143546567811629 174.227746555606 0.548491577693086 -104.729576606461 0.811231747516076 0.304027587640833 
11.05                          0.111445364893274 117.802000996662 0.893743286307245 -37.6309666123841 0.410452264402372 -123.379573190494 0.142784397888764 171.128895937781 
                               0.893743286307203 -37.6309666123838 0.118354805062919 119.492923971192 0.408394912531312 -123.282964029176 0.143123050577299 171.138624557937 
                               0.410452264402356 -123.379573190493 0.408394912531322 -123.282964029175 0.601189782058693 -29.3041657802709 0.55081900584566 -107.562825734964 
                               0.142784397888762 171.128895937766 0.14312305057729 171.138624557927 0.550819005845663 -107.562825734962 0.80981686112306 -2.51140391045107 
11.075                         0.109913148512761 115.195047051967 0.895067177858568 -40.3048265176727 0.408142452558396 -126.204286690614 0.14234595081412 168.038912676395 
                               0.89506717785852 -40.3048265176723 0.116929188539548 116.925312367317 0.406061295364989 -126.106783859775 0.14270698872403 168.049397780983 
                               0.408142452558378 -126.204286690613 0.406061295365001 -126.106783859773 0.602192279396401 -32.3038800096535 0.553179866664372 -110.396449064469 
                               0.142345950814118 168.038912676378 0.14270698872402 168.049397780972 0.553179866664375 -110.396449064467 0.808367969411963 -5.32609140662391 
11.1                           0.108394857274618 112.584870140562 0.896383018487165 -42.9777916529035 0.405821985000457 -129.027114323231 0.141914385840847 164.948582305654 
                               0.896383018487111 -42.977791652903 0.115516245691726 114.355121317722 0.403717354776417 -128.928743576002 0.142298601876722 164.959905159023 
                               0.405821985000437 -129.02711432323 0.403717354776431 -128.928743576   0.603149980915149 -35.302954180639 0.555575174748865 -113.230566140412 
                               0.141914385840845 164.948582305636 0.142298601876712 164.959905159011 0.555575174748867 -113.230566140409 0.80688372612402 -8.1401130362253 
11.125                         0.106891217322746 109.970580518485 0.89769056034072 -45.6499278175383 0.403490997122419 -131.848104127083 0.141489880157601 161.857743404058 
                               0.89769056034066 -45.6499278175377 0.114116568852561 111.781490304595 0.401363222967672 -131.748897723628 0.141898096445133 161.869982190349 
                               0.403490997122397 -131.848104127082 0.401363222967689 -131.748897723626 0.604061103033477 -38.301623634289 0.558005931508183 -116.065301647701 
                               0.141489880157599 161.857743404039 0.141898096445123 161.869982190338 0.558005931508185 -116.065301647699 0.805362716447415 -10.9535441567226 
11.15                          0.105402963646109 107.351225350408 0.898989533410002 -48.3213026462377 0.401149601951705 -134.667303368091 0.141072595433398 158.766231858492 
                               0.898989533409936 -48.321302646237 0.112730754330147 109.203499622325 0.398999008011833 -134.567300305614 0.141505663953951 158.779461313779 
                               0.401149601951681 -134.66730336809 0.398999008011851 -134.567300305612 0.604923792746462 -41.3001331629888 0.560473118175118 -118.900785529519 
                               0.141072595433396 158.766231858472 0.141505663953939 158.779461313767 0.560473118175119 -118.900785529516 0.803803454210084 -13.7664569311582 
11.175                         0.10393084313324 104.72578570086  0.900279639992478 -50.9919856633824 0.39879788971498 -137.484758053976 0.140662676118161 155.67388132367  
                               0.900279639992406 -50.9919856633816 0.111359404724921 106.620167366062 0.396624793418004 -137.384004284255 0.141121479297678 155.688172334256 
                               0.398797889714954 -137.484758053975 0.396624793418024 -137.384004284254 0.605736118974306 -44.2987365983423 0.562977688145593 -121.73715308876 
                               0.14066267611816 155.673881323648 0.141121479297666 155.688172334244 0.562977688145593 -121.737153088757 0.802204379327778 -16.5789198724856 
11.2                           0.102475618110699 102.093173452201 0.901560548772972 -53.662048317807 0.396435927601558 -140.300512416485 0.140260247681976 152.580523735185 
                               0.901560548772895 -53.662048317806 0.110003131621078 104.030446276037 0.394240637902284 -140.199061049333 0.140745698922756 152.595942899549 
                               0.396435927601531 -140.300512416484 0.394240637902306 -140.199061049331 0.60649606352789 -47.2976963173506 0.565520558611182 -124.574545069232 
                               0.140260247681975 152.580523735163 0.140745698922744 152.595942899537 0.565520558611181 -124.574545069229 0.800563855567469 -19.3909973483076 
11.225                         0.101038070402431 99.4522281620656 0.902831888531459 -56.3315639959575 0.39406375973641 -143.11460836263 0.139865414797251 149.485989878139 
                               0.902831888531378 -56.3315639959564 0.108662558680433 101.433220433783 0.391846575376937 -143.012519853645 0.140378458939938 149.502599029986 
                               0.394063759736381 -143.114608362629 0.391846575376961 -143.012519853644 0.607201511762069 -50.2972826599738 0.568102601453087 -127.413107713479 
                               0.13986541479725 149.485989878117 0.140378458939925 149.502599029974 0.568102601453086 -127.413107713476 0.798880168689041 -22.20274904584  
11.25                          0.0996190059504132 96.8017138784571 0.904093241490966 -59.0006080116744 0.391681407373547 -145.927084896639 0.139478259468773 146.390110013176 
                               0.904093241490881 -59.0006080116733 0.10733832517015 98.827301808408  0.389442615168994 -145.824427217577 0.140019873170613 146.40796570317  
                               0.391681407373517 -145.927084896638 0.389442615169019 -145.824427217575 0.607850242999752 -53.2977732510769 0.570724633366441 -130.252992793822 
                               0.139478259468772 146.390110013152 0.1400198731706  146.407965703158 0.570724633366439 -130.252992793819 0.797151525030739 -25.0142293972542 
11.275                         0.0982192600408126 94.1403159373857 0.905344136321586 -61.6692575707964 0.389288869319383 -148.737977514589 0.139098839117445 143.292714561726 
                               0.905344136321499 -61.6692575707951 0.106031089959155 96.2114266537319 0.387028742478293 -148.634826304681 0.139670031131582 143.311867495533 
                               0.389288869319353 -148.737977514588 0.387028742478319 -148.63482630468 0.608439920822929 -56.299452219722 0.573387405184676 -133.094357612945 
                               0.139098839117445 143.292714561703 0.139670031131569 143.311867495522 0.573387405184673 -133.094357612941 0.79537605060583 -27.8254869659253 
11.3                           0.0968397031841344 91.4666377761774 0.90658404081982 -64.3375917087784 0.386886122594305 -151.547317574017 0.138727184624504 140.193634852144 
                               0.906584040819731 -64.337591708777 0.104741536021926 93.5842517604917 0.384604919083611 -151.443756270536 0.139328995963685 140.214129282581 
                               0.386886122594274 -151.547317574016 0.384604919083637 -151.443756270534 0.608968083340804 -59.3026093087907 0.576091590375035 -135.937364970038 
                               0.138727184624505 140.193634852121 0.139328995963673 140.214129282571 0.576091590375032 -135.937364970034 0.793551790779461 -30.6365637945057 
11.325                         0.095481247702409 88.7791978055399 0.907812354285822 -67.005691199532 0.384473123339169 -154.355131641093 0.138363298344061 137.092703928306 
                               0.907812354285734 -67.0056911995306 0.103470375492584 90.9443505721581 0.382171084304005 -154.251251587475 0.138996802310717 137.114576999593 
                               0.384473123339139 -154.355131641092 0.382171084304031 -154.251251587474 0.609432133559975 -62.3075388680374 0.57883777267813 -138.782183088214 
                               0.138363298344062 137.092703928284 0.138996802310705 137.114576999582 0.578837772678126 -138.782183088211 0.791676710595587 -33.4474947161854 
11.35                          0.0941448550813825 86.0764263954687 0.909028399624756 -69.6736384337034 0.382049807971832 -157.16144081825 0.138007152093041 133.989757422108 
                               0.909028399624671 -69.673638433702 0.102218355316934 88.2902091782949 0.379727156220848 -157.057341348096 0.138673454156253 134.013038464459 
                               0.382049807971803 -157.161440818249 0.379727156220874 -157.057341348095 0.609829329997259 -65.3145387238775 0.581626432866977 -141.628985498572 
                               0.138007152093043 133.989757422087 0.138673454156241 134.013038464449 0.581626432866973 -141.628985498569 0.789748695823954 -36.2583066309651 
11.375                         0.0928315441507694 83.3566630443645 0.910231415202214 -72.3415172646383 0.379616094596965 -159.966260055467 0.137658685128934 130.884634491137 
                               0.910231415202134 -72.3415172646369 0.100986263555109 85.6202222060818 0.377273033164183 -159.862048550776 0.138358922627353 130.909344264275 
                               0.379616094596938 -159.966260055466 0.377273033164208 -159.862048550775 0.610156777691978 -68.3239089195404 0.58445793460421 -144.477950875947 
                               0.137658685128937 130.884634491117 0.138358922627341 130.909344264267 0.584457934604207 -144.477950875944 0.787765554796468 -39.0690177492701 
11.4                           0.0915424001608229 80.6181538176635 0.911420546487731 -75.0094128203085 0.377171884670496 -162.769597448722 0.137317802127272 127.777178822582 
                               0.91142054648766 -75.0094128203072 0.0997749363929098 82.932688638829  0.374808595465049 -162.665389370749 0.138053143775587 127.803328707144 
                               0.377171884670471 -162.769597448721 0.374808595465072 -162.665389370749 0.61041141979141 -71.3359503196691 0.587332509380366 -147.32926282103 
                               0.137317802127275 127.777178822565 0.138053143775576 127.803328707136 0.587332509380363 -147.329262821027 0.785725021100674 -41.8796368057636 
11.425                         0.0902785848285807 77.859049162111  0.912594837524652 -77.6774112795278 0.374717064917875 -165.571453529418 0.136984371172364 124.667239704231 
                               0.91259483752459 -77.6774112795267 0.098585265925546 80.2258076002709 0.372333707473253 -165.467372420609 0.137756016347526 124.694830840495 
                               0.374717064917854 -165.571453529417 0.372333707473272 -165.467372420608 0.610590029900265 -74.3509630740563 0.59025024052142 -150.18310958319 
                               0.136984371172367 124.667239704217 0.137756016347517 124.694830840489 0.590250240521418 -150.183109583188 0.7836247571954  -44.6901622467795 
11.45                          0.0890413474319225 75.0774022248619 0.913753222269141 -80.3455996108376 0.372251509503141 -168.371820548878 0.136658221776629 121.554673163074 
                               0.913753222269094 -80.3455996108368 0.097418208783257 77.4976741554512 0.369848219837786 -168.267998004425 0.137467399558661 121.583695537047 
                               0.372251509503125 -168.371820548877 0.369848219837801 -168.267998004425 0.610689205402333 -77.3692449359897 0.593211046260292 -153.039683717961 
                               0.136658221776633 121.554673163063 0.137467399558653 121.583695537042 0.593211046260291 -153.03968371796 0.781462359009807 -47.5005813953769 
11.475                         0.0878320370337389 72.2711678330596 0.914894515845926 -83.0140652725155 0.369775082443326 -171.170681762312 0.136339142945742 118.439343171733 
                               0.914894515845897 -83.0140652725151 0.0962747956740137 74.7462751933798 0.367351972044554 -171.067257369962 0.137187110886747 118.469774649254 
                               0.369775082443316 -171.170681762311 0.367351972044563 -171.067257369962 0.610705361979471 -80.3910894316509 0.596214661875015 -155.899181672797 
                               0.136339142945747 118.439343171727 0.137187110886741 118.469774649251 0.596214661875016 -155.899181672796 0.779235361582048 -50.3108695986221 
11.5                           0.0866521159216619 69.4382023195647 0.916017405773358 -85.6828958722479 0.367287640260229 -173.968010716897 0.136026881308893 115.321122922503 
                               0.916017405773353 -85.682895872248 0.0951561419239438 71.9694854736732 0.364844795203522 -173.86513196376 0.136914923902773 115.352928232799 
                               0.367287640260226 -173.968010716896 0.364844795203524 -173.865131963761 0.610634729569486 -83.4167838782167 0.599260620905939 -158.761803294367 
                               0.136026881308898 115.321122922502 0.136914923902769 115.352928232798 0.599260620905942 -158.761803294367 0.776941245787286 -53.1209893623265 
