! Generated from PyAEDT SolutionData; AEDT ExportNetworkData workaround
# GHz S MA R 50
9 0.30233426158 138.148719418 0.546733234991 -176.848719871 0.433764146997 -80.3205234554 0.649249897044 43.6384209877 0.546733234991 -176.848719871 0.301911766053 138.052989173 0.433887007382 -80.3017716234 0.649364397007 -136.357488864 0.433764146997 -80.3205234554 0.433887007382 -80.3017716234 0.789677522094 -148.063488093 0.000375107194796 -49.9435691978 0.649249897044 43.6384209877 0.649364397007 -136.357488864 0.000375107194788 -49.9435691928 0.395980189382 -128.55254409
9.025 0.300868358784 135.282264923 0.547796617386 -179.675131093 0.434099286609 -84.6058278208 0.648812240102 40.7338750887 0.547796617386 -179.675131093 0.300447114874 135.184568812 0.434219332627 -84.5874093915 0.648927078635 -139.262592242 0.434099286609 -84.6058278208 0.434219332627 -84.5874093915 0.789305697875 -153.863270785 0.000374117670495 -54.4731708059 0.648812240102 40.7338750887 0.648927078636 -139.262592242 0.000374117670281 -54.4731707767 0.397411761337 -131.253411875
9.05 0.299423927519 132.42292127 0.548873360448 177.505403785 0.434399639871 -88.8850613828 0.648370035874 37.8371796551 0.548873360447 177.505403785 0.299003726424 132.323248042 0.434516797339 -88.8669766042 0.648485407059 -142.159852751 0.434399639871 -88.8850613828 0.434516797339 -88.8669766042 0.788973715551 -159.659383849 0.000373123517452 -58.9998869679 0.648370035873 37.837179655 0.648485407059 -142.159852751 0.000373123517121 -58.9998869247 0.398851749174 -133.949373608
9.075 0.298001896961 129.570739456 0.549963600701 174.692662967 0.434665265205 -93.1581444974 0.64792328665 34.9481885576 0.5499636007 174.692662967 0.297582548802 129.46906379 0.434779460306 -93.1403933329 0.648039361899 -145.049417091 0.434665265205 -93.1581444974 0.434779460306 -93.1403933329 0.788681199531 -165.451027386 0.000372124463347 -63.524256548 0.64792328665 34.9481885575 0.648039361899 -145.049417091 0.000372124462965 -63.5242564985 0.400300048957 -136.640519587
9.1 0.296602859132 126.725707038 0.551067381873 171.886429841 0.434896316921 -97.425002511 0.647471992502 32.066758928 0.551067381873 171.886429841 0.296184203053 126.621993835 0.435007476123 -97.4075846353 0.64758892419 -147.931428703 0.43489631692 -97.425002511 0.435007476123 -97.4075846353 0.78842771256 -171.237481684 0.000371120063855 -68.0468208338 0.647471992501 32.0667589278 0.64758892419 -147.931428703 0.000371120063468 -68.0468207836 0.401756561523 -139.326938245
9.125 0.295227165138 123.887751836 0.552184660593 169.086493496 0.43509304544 -101.685565806 0.64701615147 29.1927510858 0.552184660592 169.086493496 0.294809071569 123.781959759 0.435201095455 -101.668480601 0.647134075917 -150.806027836 0.43509304544 -101.685565806 0.435201095455 -101.668480601 0.788212752838 -177.018100643 0.000370109718126 -72.5681234432 0.647016151469 29.1927510857 0.647134075917 -150.806027836 0.000370109717765 -72.5681233959 0.403221192336 -142.008716197
9.15 0.293874998654 121.056749177 0.553315312047 166.292649186 0.435255796994 -105.939769929 0.646555759742 26.3260284633 0.553315312047 166.292649186 0.293457367227 120.948833271 0.435360664759 -105.923016478 0.646674799626 -153.673351617 0.435255796993 -105.939769929 0.435360664759 -105.923016478 0.788035751092 177.207694534 0.000369092683548 -77.0887103451 0.646555759742 26.3260284632 0.646674799627 -153.673351617 0.000369092683233 -77.0887103033 0.404693851337 -144.685938291
9.175 0.29254642762 118.232530679 0.554459135578 163.504698722 0.435385012785 -110.187555784 0.646090811808 23.4664575282 0.554459135577 163.504698722 0.292129183285 118.122444165 0.435486625477 -110.171132868 0.646211078081 -156.533534125 0.435385012784 -110.187555784 0.435486625477 -110.171132868 0.787896067758 171.440421269 0.000368068089806 -81.6091299869 0.646090811807 23.4664575281 0.646211078081 -156.533534125 0.000368068089546 -81.6091299518 0.4061744528 -147.35868766
9.2 0.291241437815 115.414893199 0.555615860204 160.72245082 0.435481227629 -114.428869896 0.645621300588 20.6139077057 0.555615860204 160.72245082 0.290824526754 115.302588595 0.435579512703 -114.412775988 0.645742893977 -159.386706468 0.435481227629 -114.428869896 0.435579512703 -114.412775988 0.787792990426 165.680541104 0.000367034952217 -86.1299335181 0.645621300587 20.6139077056 0.645742893977 -159.386706468 0.000367034952015 -86.1299334902 0.407662915189 -150.027045768
9.225 0.289959952838 112.603607095 0.556785150057 157.945721383 0.435545068088 -118.663664719 0.645147217552 17.7682512996 0.556785150057 157.945721383 0.289543338973 112.489036881 0.435639953336 -118.647897978 0.6452702297 -162.232996856 0.435545068087 -118.663664719 0.435639953336 -118.647897978 0.787725731676 159.928464682 0.00036599218439 -90.6516751054 0.645147217552 17.7682512995 0.6452702297 -162.232996856 0.000365992184245 -90.6516750846 0.409159161029 -152.691092466
9.25 0.288701844713 109.798423426 0.557966609713 155.174333745 0.435577250112 -122.891898991 0.644668552819 14.9293634132 0.557966609713 155.174333745 0.288285507119 109.68154041 0.435668663741 -122.876457261 0.644793067131 -165.07253068 0.435577250111 -122.891898991 0.435668663741 -122.876457261 0.787693427437 154.184556207 0.000364938610212 -95.1749123328 0.644668552819 14.9293634131 0.644793067131 -165.07253068 0.000364938610119 -95.1749123185 0.410663116762 -155.350906041
9.275 0.287466938564 106.999079959 0.559159789417 152.408118863 0.435578576217 -127.113538126 0.644185295242 12.0971218704 0.559159789417 152.408118863 0.287050869771 106.879837471 0.435666446943 -127.098418928 0.644311387475 -167.905430587 0.435578576216 -127.113538126 0.435666446943 -127.098418928 0.787695135966 148.449137338 0.000363872975207 -99.7002066828 0.644185295242 12.0971218703 0.644311387475 -167.905430587 0.000363872975159 -99.7002066743 0.412174712624 -158.006563265
9.3 0.286255013908 104.205306063 0.560364190196 149.646915462 0.435549932223 -131.328554631 0.643697432481 9.27140713745 0.560364190196 149.646915462 0.285839218954 104.083658066 0.435634189377 -131.31375516 0.643825171138 -170.731816555 0.435549932223 -131.328554631 0.435634189377 -131.31375516 0.787729837523 142.722490528 0.000362793957303 -104.228124096 0.643697432481 9.27140713745 0.643825171138 -170.731816555 0.000362793957291 -104.228124092 0.413693882513 -160.658139447
9.325 0.285065804297 101.416826604 0.561579268838 146.890570146 0.435492283586 -135.536928537 0.643204951063 6.45210224558 0.561579268838 146.890570146 0.284650300356 101.292727776 0.435572857233 -135.522445663 0.643334397618 -173.551805968 0.435492283586 -135.536928537 0.435572857233 -135.522445663 0.78779643481 137.004861815 0.000361700177045 -108.759235607 0.643204951063 6.45210224559 0.643334397618 -173.551805968 0.000361700177062 -108.759235607 0.415220563864 -163.305708482
9.35 0.283898996434 98.6333650278 0.562804442747 144.138937465 0.435406671359 -139.738647853 0.642707836435 3.63909271431 0.562804442747 144.138937465 0.283483812836 98.506770844 0.435483492417 -139.724478115 0.642839045431 -176.365513696 0.435406671359 -139.738647853 0.435483492417 -139.724478115 0.78789375421 131.296463091 0.000360590207319 -113.294118056 0.642707836435 3.63909271433 0.642839045431 -176.365513696 0.000360590207357 -113.294118059 0.416754697526 -165.949342901
9.375 0.282754229402 95.8546457761 0.564039094665 141.391879949 0.435294207814 -143.933709012 0.642206073005 0.832266476537 0.564039094665 141.391879949 0.282339407898 95.7255126031 0.435367208184 -143.919848618 0.642339092055 -179.17305216 0.435294207814 -143.933709012 0.435367208184 -143.919848618 0.788020547828 125.597473869 0.00035946258261 -117.833354875 0.642206073005 0.832266476553 0.642339092055 -179.17305216 0.000359462582661 -117.83335488 0.418296227642 -168.589113916
9.4 0.281631094344 93.0803961788 0.565282577248 138.649268109 0.43515607177 -148.122117325 0.641699644178 -1.96848619518 0.565282577248 138.649268109 0.281216689515 92.9486813934 0.43522518447 -148.108562152 0.641834513889 178.02546859 0.43515607177 -148.122117325 0.43522518447 -148.108562152 0.788175496342 119.908042598 0.000358315807869 -122.37753695 0.641699644178 -1.96848619516 0.641834513889 178.02546859 0.000358315807927 -122.377536957 0.419845101533 -171.225091471
9.425 0.280529134736 90.310347947 0.566534217505 135.910980408 0.434993503668 -152.303887422 0.641188532382 -4.76327276061 0.566534217505 135.910980408 0.280115214448 90.1760100717 0.43505866296 -152.290633017 0.641325286231 175.229940806 0.434993503668 -152.303887422 0.43505866296 -152.290633017 0.78835721263 114.228287571 0.000357148367039 -126.927263565 0.641188532382 -4.76327276059 0.641325286231 175.229940806 0.000357148367098 -126.927263572 0.421401269578 -173.857344282
9.45 0.279447847259 87.5442383529 0.567793321084 133.176903203 0.434807800424 -156.479043685 0.640672719091 -7.55219848212 0.567793321084 133.176903203 0.279034493127 87.4072372109 0.434868941946 -156.466085269 0.640811383273 172.440258976 0.434807800424 -156.479043685 0.434868941946 -156.466085269 0.788564246115 108.558297464 0.000355958731282 -131.483143417 0.640672719091 -7.5521984821 0.640811383273 172.440258976 0.000355958731338 -131.483143423 0.422964685099 -176.485939886
9.475 0.278386683223 84.7818111742 0.569059176417 130.44693066 0.434600310113 -160.647620666 0.64015218484 -10.3353664931 0.569059176417 130.44693066 0.277973991042 84.6421080571 0.434657371006 -160.634953131 0.640292778098 169.656319751 0.434600310113 -160.647620666 0.434657371006 -160.634953131 0.788795087792 102.898131563 0.000354745366984 -136.045795723 0.64015218484 -10.3353664931 0.640292778098 169.656319751 0.000354745367035 -136.045795729 0.424535304255 -179.110944685
9.5 0.277345050452 82.0228174574 0.570331058707 127.720964653 0.434372426517 -164.809663478 0.639626909242 -13.1128778647 0.570331058707 127.720964653 0.276933130576 81.8803753033 0.434425345544 -164.797281396 0.639769442695 166.878021887 0.434372426517 -164.809663478 0.434425345544 -164.797281396 0.789048175836 97.2478197377 0.000353506743589 -140.615851408 0.639626909242 -13.1128778646 0.639769442695 166.878021887 0.000353506743631 -140.615851413 0.426113085925 178.267576018
9.525 0.276322315551 79.2670161428 0.571608233763 124.998914632 0.434125583577 -168.965228172 0.639096870994 -15.8848316699 0.571608233763 124.998914632 0.275911293207 79.1217997212 0.43417430124 -168.9531258 0.639241347975 164.105266174 0.434125583577 -168.965228172 0.43417430124 -168.9531258 0.789321901719 91.6073621941 0.000352241341305 -145.19395438 0.639096870994 -15.8848316699 0.639241347975 164.105266174 0.000352241341339 -145.193954384 0.427697991603 175.649557971
9.55 0.275317806447 76.5141745825 0.572889961681 122.280697481 0.433861249784 -173.114382089 0.638562047885 -18.651325047 0.572889961681 122.280697481 0.274907821984 76.3661506828 0.433905708436 -173.102553372 0.638708463795 161.33795538 0.433861249784 -173.114382089 0.433905708436 -173.102553372 0.78961461674 85.976729071 0.000350947658778 -149.780762903 0.638562047885 -18.651325047 0.638708463795 161.337955379 0.000350947658802 -149.780762906 0.429289985287 173.034937939
9.575 0.274330815128 73.7640689761 0.57417550037 119.566237354 0.433580922553 -177.257204179 0.638022416802 -21.4124532594 0.57417550037 119.566237354 0.273922024196 73.6132065977 0.433621066494 -177.24564276 0.638170758991 158.575994187 0.433580922553 -177.257204179 0.433621066494 -177.24564276 0.789924638878 80.3558599154 0.000349624220755 -154.376951064 0.638022416802 -21.4124532594 0.638170758991 158.575994187 0.00034962422077 -154.376951066 0.430889033377 170.423653667
9.6 0.273360600509 71.0164847393 0.575464108924 116.8554655 0.4332861226 178.6062147 0.63747795373 -24.1683097551 0.575464108924 116.8554655 0.272953174173 70.862755281 0.433321898172 178.617515473 0.637628201408 155.819289136 0.4332861226 178.6062147 0.433321898172 178.617515473 0.790250259851 74.7446630831 0.000348269585833 -158.983210338 0.63747795373 -24.1683097551 0.637628201408 155.819289136 0.000348269585839 -158.983210339 0.432495104569 167.815643837
9.625 0.272406391359 68.2712168214 0.576755050833 114.148320076 0.432978388361 174.47577151 0.636928633756 -26.9189862226 0.576755050833 114.148320076 0.272000516146 68.1145942693 0.433009744029 174.486818576 0.637080757935 153.067748571 0.432978388361 174.47577151 0.433009744029 174.486818576 0.790589752312 69.1430150992 0.000346882354329 -163.600251263 0.636928633756 -26.9189862226 0.637080757935 153.067748571 0.000346882354328 -163.600251263 0.434108169749 165.210848043
9.65 0.271467389246 65.5280699786 0.578047597047 111.444745944 0.432659270471 170.351350796 0.636374431068 -29.6645726466 0.578047597047 111.444745944 0.271063267131 65.3685310911 0.432686156898 170.362151369 0.636528394543 150.321282581 0.432659270471 170.351350796 0.432686156898 170.362151369 0.790941377066 63.5507600119 0.000345461176363 -168.228805224 0.636374431068 -29.6645726466 0.636528394543 150.321282581 0.000345461176356 -168.228805223 0.435728201896 162.609206749
9.675 0.270542771457 62.7868590137 0.579341028882 108.744694469 0.432330326336 166.232824467 0.635815318958 -32.4051573603 0.579341028882 108.744694469 0.270140619786 62.6243835018 0.432352696447 166.243386023 0.635971076321 147.57980295 0.432330326336 166.232824467 0.432352696447 166.243386023 0.791303390235 57.9677087666 0.000344004760197 -172.869626342 0.635815318958 -32.4051573603 0.635971076321 147.57980295 0.000344004760185 -172.869626341 0.437355175975 160.010661262
9.7 0.269631693852 60.0474089844 0.58063464078 106.048123302 0.431993114807 162.120051604 0.635251269821 -35.1408270969 0.58063464078 106.048123302 0.269231745216 59.8819796885 0.432010923839 162.130381876 0.635408767521 144.843223107 0.431993114807 162.120051604 0.432010923839 162.130381876 0.791674050287 52.3936386228 0.000342511880922 -177.523493487 0.635251269821 -35.1408270969 0.635408767521 144.843223107 0.000342511880907 -177.523493486 0.438989068844 157.415153699
9.725 0.268733293656 57.3095553887 0.581927742919 103.354996162 0.431649190975 158.012878301 0.634682255152 -37.8716670387 0.581927742919 103.354996162 0.2683357957 57.1411584492 0.431662396525 158.022985257 0.634841431587 142.111458074 0.431649190975 158.012878301 0.431662396525 158.022985257 0.792051624871 46.8282926298 0.000340981389546 177.808787591 0.634682255152 -37.8716670387 0.634841431587 142.111458074 0.000340981389529 177.808787593 0.440629859149 154.822626959
9.75 0.26784669214 54.5731443279 0.583219663684 100.665282617 0.431300101104 153.911137515 0.634108245554 -40.5977608649 0.583219663684 100.665282617 0.267451907326 54.4017693505 0.431308663158 153.921029351 0.634269031204 139.384424419 0.431300101104 153.911137515 0.431308663158 153.921029351 0.792434397388 41.2713791761 0.000339412222574 173.126382018 0.634108245554 -40.5977608649 0.634269031204 139.384424419 0.000339412222557 173.12638202 0.442277527228 152.233024697
9.775 0.266970997203 51.8380326525 0.584509751999 97.9789578579 0.430947377697 149.814648948 0.63352921073 -43.3191907976 0.584509751999 97.9789578579 0.266579202514 51.6636728672 0.430951258654 149.824334071 0.633691528328 136.662040213 0.430947377697 149.814648948 0.430951258654 149.824334071 0.792820673262 35.7225716171 0.000337803412152 168.428423422 0.63352921073 -43.3191907976 0.633691528328 136.662040213 0.000337803412136 168.428423424 0.443932055013 149.646291293
9.8 0.266105305827 49.1040880938 0.585797379529 95.2960024771 0.430592534711 145.723218943 0.632945119493 -46.0360376458 0.585797379529 95.2960024771 0.265716792426 48.9267405068 0.430591699399 145.732705955 0.633108884231 133.944224981 0.430592534711 145.723218943 0.430591699399 145.732705955 0.793208785883 30.1815079874 0.000336154096862 163.71401144 0.632945119493 -46.0360376458 0.633108884231 133.944224981 0.000336154096847 163.714011442 0.445593425938 147.062371831
9.825 0.265248706422 46.3711893828 0.587081942758 92.6164022482 0.430237062916 141.636640396 0.632355939761 -48.7483808489 0.587081942758 92.6164022482 0.264863779255 46.1908549219 0.430231478594 141.64593808 0.632521059532 131.23089966 0.430237062916 141.636640396 0.430231478594 141.64593808 0.793597102183 24.6477907956 0.000334463533254 158.982209109 0.632355939761 -48.7483808489 0.632521059532 131.23089966 0.000334463533241 158.98220911 0.447261624835 144.481212075
9.85 0.26440028104 43.6392263607 0.588362864954 89.9401479064 0.429882425395 137.554692684 0.631761638565 -51.4562985175 0.588362864954 89.9401479064 0.264019258391 43.4559100121 0.429872061748 137.563809987 0.631928014239 128.521986558 0.429882425395 137.554692684 0.429872061748 137.563809987 0.793984027863 19.1209869 0.000332731108215 154.232040134 0.631761638565 -51.4562985175 0.631928014239 128.521986558 0.000332731108205 154.232040135 0.448936637846 141.902758442
9.875 0.263559107469 40.9081000824 0.58963959803 87.267234935 0.429530053176 133.477141606 0.631162182053 -54.1598674737 0.58963959803 87.267234935 0.263182320464 40.7218110197 0.4295148823 133.486087619 0.631329707781 125.817409313 0.429530053176 133.477141606 0.4295148823 133.486087619 0.794368012248 13.600627457 0.000330956352275 149.462486058 0.631162182053 -54.1598674737 0.631329707781 125.817409313 0.000330956352267 149.462486058 0.450618452324 139.326957987
9.9 0.262724261203 38.1777229163 0.590911624303 84.5976633561 0.429181340994 129.403739327 0.630557535492 -56.8591632897 0.590911624303 84.5976633561 0.262352053265 37.9884746213 0.429161337374 129.412523272 0.630726099045 123.117092852 0.429181340994 129.403739327 0.429161337374 129.412523272 0.794747552804 8.08620793529 0.000329138953955 144.672483317 0.630557535492 -56.8591632897 0.630726099045 123.117092852 0.000329138953951 144.672483317 0.452307056741 136.753758378
9.925 0.261894817297 35.4480186433 0.592178458181 81.9314375276 0.428837643152 125.334224338 0.629947663276 -59.5542603256 0.592178458181 81.9314375276 0.261527543553 35.2558290168 0.428812783631 125.342855549 0.630117146413 120.420963353 0.428837643152 125.334224338 0.428812783631 125.342855549 0.795121199333 2.57718818473 0.000327278775277 139.860920221 0.629947663276 -59.5542603256 0.630117146413 120.420963353 0.000327278775275 139.860920221 0.454002440593 134.183107878
9.95 0.261069852108 32.7189225575 0.593439647774 79.2685659473 0.428500269494 121.268321416 0.629332528932 -62.2452317651 0.593439647774 79.2685659473 0.260707878743 32.5238140212 0.42847053323 121.276809318 0.629502807794 117.728948209 0.428500269494 121.268321416 0.42847053323 121.276809318 0.795487557868 -2.92700745048 0.000325375868552 135.026633861 0.629332528932 -62.2452317651 0.629502807794 117.728948209 0.000325375868553 135.026633861 0.455704594308 131.614955329
9.975 0.260248444932 29.9903815722 0.594694776451 76.609061065 0.428170481436 117.205741585 0.628712095132 -64.9321496511 0.594694776451 76.609061065 0.259892148496 29.7923811599 0.42813584986 117.214095677 0.628883040658 115.04097599 0.428170481436 117.205741585 0.42813584986 117.214095677 0.795845294329 -8.42698998751 0.000323430494587 130.168406966 0.628712095132 -64.9321496511 0.628883040658 115.04097599 0.000323430494589 130.168406965 0.457413509151 129.04925013
10 0.259429679539 27.262354334 0.595943464362 73.9529391019 0.427849488064 113.146182079 0.628086323696 -67.6150849195 0.595943464362 73.9529391019 0.259079446208 27.0614937723 0.427809944819 113.154411916 0.628257802073 112.356976406 0.427849488064 113.146182079 0.427809944819 113.154411916 0.796193137967 -13.9234056408 0.000321443142439 125.284964749 0.628086323696 -67.6150849195 0.628257802073 112.356976406 0.000321443142444 125.284964748 0.459129177133 126.485942228
10.025 0.258612645621 24.5348113484 0.597185369929 71.3002198793 0.427538442253 109.089326309 0.627455175609 -70.2941074325 0.597185369929 71.3002198793 0.258268870404 24.3311271261 0.427493973136 109.097441483 0.627627048737 109.676880277 0.427538442253 109.089326309 0.427493973136 109.097441483 0.796529884656 -19.4169356507 0.000319414550874 120.374971775 0.627455175609 -70.2941074325 0.627627048737 109.676880277 0.00031941455088 120.374971774 0.460851590914 123.924982096
10.05 0.257796440158 21.8077351207 0.598420191342 68.6509266556 0.427238436798 105.034843815 0.626818611029 -72.9692860109 0.598420191342 68.6509266556 0.257459526064 21.6012685464 0.427189029688 105.042853935 0.626990737011 107.000619491 0.427238436798 105.034843815 0.427189029688 105.042853935 0.796854400087 -24.9082961157 0.000317345731666 115.437028892 0.626818611029 -72.9692860109 0.626990737011 107.000619491 0.000317345731672 115.437028892 0.462580743717 121.366320724
10.075 0.256980168717 19.0811203158 0.599647668057 66.0050859723 0.426950500512 100.982390228 0.626176589302 -75.640688465 0.599647668057 66.0050859723 0.256650525869 18.8719175633 0.426896145292 100.990304902 0.62634882296 104.328126979 0.426950500512 100.982390228 0.426896145292 100.990304902 0.797165622917 -30.3982378397 0.000315237994908 110.469670304 0.626176589302 -75.640688465 0.62634882296 104.328126979 0.000315237994914 110.469670303 0.464316629231 118.809909603
10.1 0.256162946695 16.3549739407 0.60086758234 63.3627275074 0.426675594275 96.9316072142 0.625529068975 -78.3083816253 0.60086758234 63.3627275074 0.255840991403 16.1430860814 0.426616282751 96.9394360298 0.625701262379 101.659336678 0.426675594275 96.9316072142 0.426616282751 96.9394360298 0.797462567944 -35.8875462018 0.000313092976491 105.471360831 0.625529068975 -78.3083816253 0.625701262379 101.659336678 0.000313092976497 105.47136083 0.466059241515 116.255700712
10.125 0.25534390052 13.6293155531 0.602079760851 60.7238839381 0.426414606994 92.8821224206 0.624876007813 -80.9724313723 0.602079760851 60.7238839381 0.255030054306 13.4147985753 0.426350332804 92.8898749276 0.625048010833 98.9941834973 0.426414606994 92.8821224206 0.426350332804 92.8898749276 0.797744329352 -41.3770410576 0.000310912667905 100.440493475 0.624876007813 -80.9724313723 0.625048010833 98.9941834973 0.00031091266791 100.440493474 0.467808574914 113.703646507
10.15 0.254522168825 10.9041775017 0.603284076315 58.0885908098 0.426168351439 88.8335494089 0.624217362818 -83.6329026652 0.603284076315 58.0885908098 0.254216857412 10.6870923158 0.426099109954 88.8412351006 0.624389023694 96.3326032916 0.426168351439 88.8335494089 0.426099109954 88.8412351006 0.798010084103 -46.8675766772 0.000308699448516 95.3753873809 0.624217362818 -83.6329026652 0.624389023694 96.3326032916 0.00030869944852 95.3753873804 0.469564623956 111.153699912
10.175 0.253696903621 8.17960520081 0.604480449278 55.4568864116 0.425937559927 84.7854875849 0.623553090243 -86.2898595705 0.604480449278 55.4568864116 0.253400555872 7.96001762991 0.425863348151 84.7931158805 0.623724256174 93.674532826 0.425937559927 84.7854875849 0.425863348151 84.7931158805 0.79825909553 -52.3600417235 0.000306456120468 90.274286336 0.623553090243 -86.2898595705 0.623724256174 93.674532826 0.000306456120471 90.2742863356 0.471327383264 108.605814304
10.2 0.252867271473 5.45565744411 0.605668849992 52.8288116568 0.425722879807 80.7375221194 0.622883145618 -88.9433652893 0.605668849992 52.8288116568 0.252580318298 5.23363820043 0.425643696267 80.745102347 0.623053663362 91.0199097469 0.425722879807 80.7375221194 0.425643696267 80.745102347 0.798490717185 -57.8553592725 0.000304185946326 85.1353579579 0.622883145618 -88.9433652893 0.623053663362 91.0199097469 0.000304185946329 85.1353579578 0.473096847461 106.059943509
10.225 0.252032454719 2.7324067622 0.606849300434 50.2044099673 0.425524868718 76.6892238627 0.622207483771 -91.5934821845 0.606849300434 50.2044099673 0.251755327944 2.50803140747 0.425440713348 76.6967652429 0.622377200265 88.3686725517 0.425524868718 76.6892238627 0.425440713348 76.6967652429 0.798704397019 -63.3544868749 0.00030189268956 79.9566937671 0.622207483771 -91.5934821845 0.622377200265 88.3686725517 0.000301892689562 79.9566937671 0.474873011075 103.516041786
10.25 0.251191652746 0.00993982752157 0.608021876493 47.5837271596 0.425343989572 72.6401492531 0.621526058852 -94.2402718074 0.608021876493 47.5837271596 0.250924783944 -0.216711282253 0.425254863591 72.6476608836 0.621694821839 85.7207605588 0.425343989572 72.6401492531 0.425254863591 72.6476608836 0.798899681924 -68.8584166567 0.000299580657917 74.7363103607 0.621526058852 -94.2402718074 0.621694821839 85.7207605588 0.000299580657918 74.7363103609 0.47665586844 100.974063827
10.275 0.250344083351 -2.71164208886 0.609186710336 44.9668113302 0.425180605222 68.5898402215 0.620838824357 -96.8837949238 0.609186710336 44.9668113302 0.250087902644 -2.94048387494 0.425086511007 68.5973310625 0.621006483035 83.0761138782 0.425180605222 68.5898402215 0.425086511007 68.5973310625 0.799076222727 -74.3681754515 0.000297254749677 69.472151951 0.620838824357 -96.8837949238 0.621006483035 83.0761138782 0.000297254749678 69.4721519513 0.478445413607 98.4339647393
10.3 0.249488984219 -5.43222260473 0.610343992995 42.3537127392 0.425034972778 64.5378240927 0.620145733162 -99.5241115388 0.610343992995 42.3537127392 0.249243919054 -5.66316535406 0.424935913733 64.5453029532 0.620312138834 80.434673382 0.425034972778 64.5378240927 0.424935913733 64.5453029532 0.799233779651 -79.8848249595 0.000294920502724 64.1620945695 0.620145733162 -99.5241115388 0.620312138834 80.434673382 0.000294920502724 64.1620945699 0.480241640242 95.8957000464
10.325 0.24862561456 -8.15166965485 0.611493977171 39.7444836878 0.424907237528 60.4836134869 0.619446737552 -102.161280923 0.611493977171 39.7444836878 0.248392088449 -8.38461912569 0.424803217944 60.4910890129 0.619611744286 77.7963806757 0.424907237528 60.4836134869 0.424803217944 60.4910890129 0.799372228337 -85.4094619196 0.000292584146222 58.8039522841 0.619446737552 -102.161280923 0.619611744286 77.7963806757 0.000292584146222 58.8039522844 0.482044541529 93.359225676
10.35 0.247753256917 -10.8698348563 0.612636980298 37.1391783874 0.424797426411 56.4267062239 0.618741789252 -104.795361636 0.612636980298 37.1391783874 0.247531688172 -11.1046924016 0.424688451321 56.4341868872 0.618905254551 75.1611780692 0.424797426411 56.4267062239 0.424688451321 56.4341868872 0.79949156644 -90.943218285 0.00029025265461 53.3954858196 0.618741789252 -104.795361636 0.618905254551 75.1611780692 0.00029025265461 53.39548582 0.483854110069 90.8244979552
10.375 0.246871219219 -13.5865528083 0.613773387872 34.5378528167 0.424705441006 52.3665852331 0.618030839468 -107.426411553 0.613773387872 34.5378528167 0.246662019652 -13.8232155174 0.424591516041 52.3740793223 0.618192624939 72.5290085482 0.424705441006 52.3665852331 0.424591516041 52.3740793223 0.799591920876 -96.4872613838 0.000287933803432 47.9344140235 0.618030839468 -107.426411553 0.618192624939 72.5290085482 0.000287933803432 47.9344140239 0.485670337785 88.2914736036
10.4 0.245978837093 -16.3016403245 0.614903657071 31.9405645631 0.424631050001 48.3027184744 0.617313838928 -110.054487883 0.614903657071 31.9405645631 0.245782410712 -16.540001183 0.424512181232 48.3102340874 0.617473810951 69.899815746 0.424631050001 48.3027184744 0.424512181232 48.3102340874 0.799673555745 -102.042794049 0.00028563622632 42.418428652 0.617313838928 -110.054487883 0.617473810951 69.899815746 0.00028563622632 42.4184286523 0.487493215813 85.7601097276
10.425 0.245075476498 -19.0148955958 0.616028320676 29.3473726439 0.424573881075 44.2345588742 0.61659073792 -112.679647202 0.616028320676 29.3473726439 0.244892218188 -19.254843665 0.424450074858 44.2421039123 0.616748768319 67.2735439149 0.424573881075 44.2345588742 0.424450074858 44.2421039123 0.799736880996 -107.611054698 0.00028336947223 36.8452129942 0.61659073792 -112.679647202 0.616748768319 67.2735439149 0.00028336947223 36.8452129945 0.489322734404 83.2303638148
10.45 0.244160536731 -21.7260972842 0.617147991306 26.7583373019 0.424533412173 40.1615442818 0.615861486343 -115.301945468 0.617147991306 26.7583373019 0.243990830933 -21.9675179001 0.424404674988 40.1691264462 0.616017453047 64.6501378978 0.424533412173 40.1615442818 0.424404674988 40.1691264462 0.799782461853 -113.193317335 0.000281144061716 31.2124648658 0.615861486343 -115.301945468 0.616017453047 64.6501378978 0.000281144061717 31.212464866 0.491158882815 80.7021937284
10.475 0.243233453858 -24.4350035483 0.618263365987 24.1735197714 0.424508962123 36.0830974536 0.61512603376 -117.921438048 0.618263365987 24.1735197714 0.243077673242 -24.6777785401 0.424375300406 36.0907242445 0.615279821451 62.0295431004 0.424508962123 36.0830974536 0.424375300406 36.0907242445 0.799811029054 -118.790891454 0.000278971540703 25.5179245038 0.61512603376 -117.921438048 0.615279821451 62.0295431004 0.000278971540703 25.5179245039 0.493001649204 78.1755577025
10.5 0.242293704623 -27.141351003 0.619375231041 21.5929820082 0.424499680552 31.9986260723 0.614384329448 -120.538179741 0.619375231041 21.5929820082 0.242152208772 -27.3853589324 0.424361100529 32.00630479 0.614535830202 59.4117054626 0.424499680552 31.9986260723 0.424361100529 32.00630479 0.799823489938 -124.405121816 0.000276864529841 19.7594078635 0.614384329448 -120.538179741 0.614535830202 59.4117054626 0.000276864529842 19.7594078636 0.494851020518 75.6504143365
10.525 0.241340810918 -29.8448536176 0.620484467311 19.0167863771 0.424504537068 27.9075228088 0.613636322466 -123.152224801 0.620484467311 19.0167863771 0.241213945012 -30.0899700391 0.424361044587 27.9152605574 0.613785436366 56.7965714307 0.424504537068 27.9075228088 0.424361044587 27.9152605574 0.799820940394 -130.037388064 0.000274836767101 13.9348457398 0.613636322466 -123.152224801 0.613785436366 56.7965714307 0.000274836767101 13.93484574 0.496706982381 73.126722591
10.55 0.240374344852 -32.5452015598 0.62159205571 16.4449952907 0.424522309683 23.8091654366 0.612881961712 -125.763626958 0.62159205571 16.4449952907 0.240262438377 -32.7912993023 0.424373910039 23.8169691316 0.613028597443 54.1840879284 0.424522309683 23.8091654366 0.424373910039 23.8169691316 0.799804677712 -135.68910415 0.000272903140803 8.04232900735 0.612881961712 -125.763626958 0.613028597443 54.1840879284 0.000272903140803 8.04232900759 0.498569518983 70.6044417825
10.575 0.239393934515 -35.242059995 0.622699083084 13.8776707928 0.424551572434 19.70291701 0.612121196 -128.372439447 0.622699083084 13.8776707928 0.239297299985 -35.4890094653 0.424398270198 19.7107933878 0.612265271411 51.5742023292 0.424551572434 19.70291701 0.424398270198 19.7107933878 0.799776214329 -141.361717527 0.000271079709842 2.0801600736 0.612121196 -128.372439447 0.612265271411 51.5742023292 0.000271079709841 2.08016007396 0.500438612956 68.0835315792
10.6 0.238399270498 -37.9350678528 0.623806748357 11.3148740767 0.424590682199 15.5881261164 0.611353974135 -130.978715023 0.623806748357 11.3148740767 0.238318202201 -38.1827373614 0.424432481046 15.5960817485 0.611495416767 48.9668624273 0.424590682199 15.5881261164 0.424432481046 15.5960817485 0.799737292486 -147.056708083 0.000269383707391 -3.95308964139 0.611353974135 -130.978715023 0.611495416767 48.9668624273 0.000269383707389 -3.95308964086 0.502314245255 65.5639519961
10.625 0.237390113235 -40.6238365793 0.624916368944 8.75666493248 0.424637764686 11.4641272177 0.610580244995 -133.582505992 0.624916368944 8.75666493248 0.237324886019 -40.8720926892 0.424474667221 11.4721685277 0.610718992564 46.3620164095 0.424637764686 11.4641272177 0.424474667221 11.4721685277 0.79968989977 -152.775586758 0.000267833524024 -10.0585167579 0.610580244995 -133.582505992 0.610718992564 46.3620164095 0.00026783352402 -10.0585167572 0.504196395035 63.0456633904
10.65 0.236366301266 -43.3079488947 0.626029387369 6.20310111378 0.424690699602 7.33024109381 0.60979995762 -136.18386423 0.626029387369 6.20310111378 0.236317169355 -43.5566567935 0.424522707197 7.33837437892 0.609935958459 43.7596128255 0.424690699602 7.33024109381 0.424522707197 7.33837437892 0.799636285512 -158.519893809 0.000266448665894 -16.2368185488 0.60979995762 -136.18386423 0.609935958459 43.7596128255 0.000266448665889 -16.2368185479 0.506085039518 60.528626457
10.675 0.23532776047 -45.9869575838 0.62714737805 3.65423761427 0.424747105018 3.18577540491 0.60901306131 -138.782841207 0.62714737805 3.65423761428 0.235294956323 -46.2359814795 0.424574217639 3.19400686187 0.609146274749 41.1596005595 0.424747105018 3.18577540491 0.424574217639 3.19400686187 0.799578977983 -164.291196679 0.000265249683527 -22.4882226957 0.60901306131 -138.782841207 0.609146274749 41.1596005595 0.00026524968352 -22.4882226945 0.50798015386 58.0128022235
10.7 0.234274514355 -48.6603843527 0.628272054157 1.11012584576 0.424804320951 -0.969974609274 0.608219505728 -141.379488015 0.628272054157 1.11012584576 0.234258247582 -48.9095878937 0.424626537003 -0.961638853807 0.608349902418 38.5619288006 0.424804320951 -0.969974609273 0.424626537003 -0.961638853807 0.799520802299 -170.091087402 0.000264258066929 -28.8124164008 0.608219505728 -141.379488015 0.608349902418 38.5619288006 0.00026425806692 -28.8124163994 0.509881711013 55.498152045
10.725 0.233206695477 -51.3277187908 0.629405274467 -1.42918729236 0.424859392239 -5.13772527497 0.607419241014 -143.973855391 0.629405274467 -1.42918729236 0.2332071518 -51.5769655104 0.424676708409 -5.12927912879 0.607546803178 35.9665470129 0.424859392239 -5.13772527497 0.424676708409 -5.12927912879 0.799464898919 -175.921179512 0.000263496103188 -35.2084777299 0.607419241014 -143.973855391 0.607546803178 35.9665470129 0.000263496103178 -35.2084777282 0.51178968158 52.9846375995
10.75 0.232124558032 -53.9884174864 0.630549050095 -3.96366046141 0.424909050757 -9.31820345293 0.606612217901 -146.56599374 0.630549050095 -3.96366046141 0.232141898316 -54.2375712725 0.424721461869 -9.30964081724 0.606736939519 33.3734049054 0.424909050757 -9.31820345293 0.424721461869 -9.30964081724 0.799414742572 178.216895626 0.000262986693577 -41.6748126922 0.606612217901 -146.56599374 0.606736939519 33.3734049054 0.000262986693566 -41.6748126905 0.513704033661 50.4722208817
10.775 0.231028491691 -56.6419033545 0.631705550967 -6.49325905892 0.424949697113 -13.5121453078 0.605798387847 -149.155953166 0.631705550967 -6.49325905892 0.231062851035 -56.8908289435 0.424757195985 -13.5034600302 0.605920274748 30.7824524016 0.424949697113 -13.5121453078 0.424757195985 -13.5034600302 0.799374161391 172.321493094 0.000262753128453 -48.2091021023 0.605798387847 -149.155953166 0.605920274748 30.7824524016 0.000262753128441 -48.2091021005 0.515624732702 47.9608641977
10.8 0.229919036696 -59.2875652431 0.632877111864 -9.01795652992 0.424977381935 -17.7202948538 0.604977703173 -151.743783497 0.632877111864 -9.01795652992 0.229970523597 -59.5361287393 0.424779959259 -17.7114806752 0.60509677305 28.1936396086 0.424977381935 -17.7202948538 0.424779959259 -17.7114806752 0.799347355988 166.390959407 0.00026281881996 -54.8082625951 0.604977703173 -151.743783497 0.60509677305 28.1936396087 0.000262818819949 -54.8082625934 0.517551741322 45.4505301585
10.825 0.228796900244 -61.9247578986 0.634066237846 -11.5377358221 0.424987786957 -21.9434022512 0.604150117209 -154.329534313 0.634066237846 -11.5377358221 0.228865595842 -62.1728273181 0.424785431182 -21.9344527452 0.604266399529 25.6069167854 0.424987786957 -21.9434022512 0.424785431182 -21.9344527452 0.799338918131 160.423638242 0.000263206994636 -61.4684262041 0.604150117209 -154.329534313 0.604266399529 25.6069167854 0.000263206994626 -61.4684262026 0.519485019143 42.9411816738
10.85 0.227662974139 -64.5528023817 0.635275608829 -14.0525909911 0.424976206117 -26.1822218263 0.603315584455 -156.913254978 0.635275608829 -14.0525909911 0.227748931539 -64.8002482207 0.424768903351 -26.1731303316 0.603429120274 23.0222343109 0.424976206117 -26.1822218263 0.424768903351 -26.1731303316 0.799353848586 154.417876999 0.000263940350418 -68.1849425472 0.603315584455 -156.913254978 0.603429120274 23.0222343109 0.000263940350411 -68.184942546 0.521424522609 40.4327819443
10.875 0.226518353676 -67.17098704 0.636508083032 -16.562528961 0.42493752695 -30.4375097859 0.602474060746 -159.494994666 0.636508083032 -16.562528961 0.226621597354 -67.417682866 0.424725260879 -30.4282693307 0.602584902415 20.4395426513 0.42493752695 -30.4375097859 0.424725260879 -30.4282693307 0.799397573623 148.372034253 0.000265040685049 -74.9524068466 0.602474060746 -159.494994666 0.602584902415 20.4395426513 0.000265040685047 -74.9524068458 0.523370204791 37.9252944547
10.9 0.225364357662 -69.7785691566 0.637766699015 -19.0675714419 0.424866212624 -34.7100215981 0.601625503434 -162.0748024 0.637766699015 -19.0675714419 0.225484882963 -70.024392222 0.424648964446 -34.7006248156 0.601733714193 17.8587923269 0.424866212624 -34.7100215981 0.424648964446 -34.7006248156 0.799475959568 142.284488173 0.000266528505286 -81.7647157155 0.601625503434 -162.0748024 0.601733714193 17.8587923269 0.00026652850529 -81.7647157152 0.525322015182 35.4186829649
10.925 0.224202549435 -72.3747774105 0.639054675923 -21.5677570035 0.424756285011 -39.0005090094 0.600769871579 -164.652727081 0.639054675923 -21.5677570035 0.224340322158 -72.6196092861 0.424534033401 -38.9909480437 0.60087552503 15.2799338781 0.424756285011 -39.0005090094 0.424534033401 -38.9909480437 0.799595324659 136.153645975 0.000268422628313 -88.6151509333 0.600769871579 -164.652727081 0.60087552503 15.2799338781 0.000268422628325 -88.6151509335 0.527279899484 32.9129115018
10.95 0.223034758696 -74.9588152974 0.64037541157 -24.0631432993 0.424601309286 -43.309716668 0.599907126149 -167.228817525 0.64037541157 -24.0631432994 0.223189714771 -75.2025425238 0.424374030374 -43.2999830698 0.600010305613 12.7029178305 0.424601309286 -43.309716668 0.424374030374 -43.2999830698 0.799762447367 129.977954483 0.000270739788142 -95.4964894261 0.599907126149 -167.228817525 0.600010305613 12.7029178305 0.000270739788162 -95.4964894269 0.529243799377 30.4079443487
10.975 0.221863103853 -77.5298656744 0.641732477913 -26.553809431 0.424394380599 -47.6383783257 0.599037230239 -169.803122506 0.641732477913 -26.553809431 0.22203514911 -77.7723804278 0.424162047981 -47.6284629368 0.599138027981 10.1276946599 0.4243943806 -47.6383783257 0.424162047981 -47.6284629368 0.799984570191 123.755911845 0.00027349426026 -102.401135585 0.599037230239 -169.803122506 0.599138027981 10.1276946599 0.000273494260289 -102.401135586 0.531213652276 27.9037460361
11 0.22069001454 -80.0870966031 0.643129613433 -29.0398584351 0.424128113471 -51.9872125918 0.598160149297 -172.37569079 0.643129613433 -29.0398584351 0.220879024566 -80.3282973711 0.423890698246 -51.9771054174 0.598258665626 7.55421475534 0.424128113471 -51.9872125918 0.423890698246 -51.9771054174 0.800269397793 117.48608048 0.000276697517276 -109.321270118 0.598160149297 -172.37569079 0.598258665626 7.55421475533 0.000276697517314 -109.32127012 0.53318939107 25.4002813295
11.025 0.219518253833 -82.6296686747 0.644570711909 -31.5214198687 0.423794634625 -56.3569182144 0.597275851366 -174.946571181 0.644570711909 -31.5214198687 0.219724073919 -82.8694609375 0.423552105467 -56.3466082822 0.597372193606 4.98242838267 0.423794634625 -56.3569182144 0.423552105467 -56.3466082822 0.800625088232 111.167101285 0.000280357926775 -116.249008111 0.597275851366 -174.946571181 0.597372193606 4.98242838267 0.000280357926821 -116.249008113 0.535170943849 22.8975152178
11.05 0.218350939593 -85.156744003 0.646059807035 -33.9986524583 0.423385580084 -60.7481688718 0.596384307337 -177.515812569 0.646059807035 -33.9986524583 0.218573384754 -85.3950409124 0.423137903346 -60.7376440763 0.596478588667 2.41228564603 0.423385580084 -60.7481688718 0.423137903346 -60.7376440763 0.801060235869 104.797709138 0.000284480500178 -123.176558078 0.596384307337 -177.515812569 0.596478588667 2.41228564602 0.000284480500231 -123.17655808 0.537158233601 20.3954129006
11.075 0.217191564218 -87.6674970678 0.647601052308 -36.4717467689 0.422892097423 -65.1616074585 0.59548549122 179.916536022 0.647601052308 -36.4717467689 0.217430419302 -87.9042201185 0.422639237279 -65.1508543899 0.595577829386 -0.156263550885 0.422892097423 -65.1616074585 0.422639237279 -65.1508543899 0.801583844446 98.3767497113 0.000289066698354 -130.096373638 0.59548549122 179.916536022 0.595577829386 -0.156263550895 0.000289066698411 -130.09637364 0.539151177902 17.8939397735
11.1 0.216044011987 -90.1611275788 0.64919869562 -38.9409278368 0.422304854156 -69.5978398626 0.594579380426 177.350425384 0.64919869562 -38.9409278368 0.21629903184 -90.3962072601 0.422046772785 -69.5868436184 0.594669896322 -2.72326954475 0.422304854156 -69.5978398626 0.422046772785 -69.5868436184 0.8022052887 91.9031975795 0.000294114296438 -137.001290092 0.594579380426 177.350425384 0.594669896322 -2.72326954476 0.000294114296494 -137.001290094 0.541149688573 15.3930614138
11.125 0.21491257297 -92.6368755003 0.65085704799 -41.4064576972 0.421614053302 -74.0574282373 0.593665956067 174.785806065 0.65085704799 -41.4064576972 0.215183482659 -92.8702519204 0.421350711117 -74.046172215 0.593754772196 -5.28878295342 0.421614053302 -74.0574282373 0.421350711117 -74.046172215 0.802934262811 85.3761755781 0.000299617307103 -143.884639504 0.593665956067 174.785806065 0.593754772196 -5.28878295343 0.000299617307153 -143.884639506 0.543153671319 12.8927435644
11.15 0.213801952393 -95.0940383396 0.652580445948 -43.8686377234 0.420809457235 -78.540883785 0.592745203267 172.222628308 0.652580445948 -43.8686377234 0.214088447477 -95.3256618097 0.420540813158 -78.5293494544 0.592832442083 -7.85285471778 0.420809457235 -78.540883785 0.420540813158 -78.5293494544 0.803780713974 78.7949753428 0.000305565958822 -150.740339703 0.592745203267 172.222628308 0.592832442083 -7.85285471779 0.000305565958859 -150.740339705 0.545163025336 10.3929521163
11.175 0.212717274149 -97.5319907364 0.654373207136 -46.327810682 0.41988042093 -83.0486590826 0.591817111495 169.66084199 0.654373207136 -46.327810682 0.213019020976 -97.7618223009 0.419606432716 -83.0368257365 0.591902893631 -10.4155361445 0.41988042093 -83.0486590826 0.419606432716 -83.0368257365 0.804754759409 72.1590789043 0.000311946723692 -157.562954728 0.591817111495 169.66084199 0.591902893631 -10.4155361445 0.000311946723709 -157.562954728 0.547177642893 7.89365309123
11.2 0.211664077055 -99.9502063092 0.656239578835 -48.7843623926 0.41881593572 -87.5811399994 0.590881674907 167.100396549 0.656239578836 -48.7843623926 0.211980713065 -100.17821821 0.418536560342 -87.568984479 0.590966117303 -12.9768789498 0.41881593572 -87.5811399994 0.418536560342 -87.568984479 0.80586658524 65.468181175 0.000318742388302 -164.347726289 0.590881674907 167.100396549 0.590966117303 -12.9768789498 0.000318742388289 -164.347726289 0.549197408882 5.39481262152
11.225 0.210648302301 -102.348281604 0.658183679301 -51.2387228687 0.417604684638 -92.1386372716 0.589938892712 164.54124091 0.658183679301 -51.2387228687 0.210979436324 -102.574457663 0.417319878728 -92.1261336677 0.590022106648 -15.5369353042 0.417604684638 -92.1386372716 0.417319878728 -92.1261336677 0.807126325915 58.7222131054 0.000325932160954 -171.090577734 0.589938892712 164.541240909 0.590022106648 -15.5369353042 0.000325932160902 -171.090577732 0.551222200336 2.89639693039
11.25 0.209676270522 -104.72596186 0.660209432021 -53.691366807 0.41623511031 -96.7213778268 0.588988769548 161.983323404 0.660209432021 -53.691366807 0.210021483043 -104.950297766 0.41594483066 -96.7084971514 0.5890708586 -18.0957578781 0.416235110309 -96.7213778268 0.41594483066 -96.7084971514 0.808543923151 51.9213652331 0.000333491809212 -177.788093449 0.588988769548 161.983323404 0.5890708586 -18.0957578781 0.000333491809113 -177.788093446 0.553251885906 0.398372310182
11.275 0.208754646877 -107.083168135 0.662320493309 -56.1428132855 0.414695496189 -101.329495969 0.588031315883 159.426591684 0.66232049331 -56.1428132855 0.20911349024 -107.305671622 0.414399700322 -101.316205798 0.58811237381 -20.6533998884 0.414695496189 -101.329495969 0.414399700322 -101.316205798 0.810128963905 45.0661112825 0.000341393822982 175.562522287 0.588031315883 159.426591684 0.58811237381 -20.6533998884 0.000341393822829 175.562522291 0.555286325305 -2.09929490013
11.3 0.207890392613 -109.420025163 0.664520173992 -58.5936245268 0.412974061736 -105.963024564 0.587066548428 156.870992631 0.664520173993 -58.5936245268 0.208262391135 -109.640716067 0.412672708542 -105.949288647 0.587146657013 -23.2099151459 0.412974061736 -105.963024564 0.412672708542 -105.949288647 0.811890497454 38.1572314111 0.000349607599988 168.963502461 0.587066548428 156.870992631 0.587146657013 -23.2099151459 0.000349607599775 168.963502466 0.557325368703 -4.59663833856
11.325 0.207090701748 -111.736889102 0.666811356374 -61.044403594 0.411059071787 -110.621886391 0.586094490574 154.316472251 0.666811356376 -61.044403594 0.207475351718 -111.955799289 0.410752122236 -110.607664227 0.58617371743 -25.7653581034 0.411059071787 -110.621886391 0.410752122236 -110.607664227 0.813836832531 31.1958346366 0.000358099652263 162.416585786 0.586094490574 154.316472251 0.58617371743 -25.7653581033 0.000358099651989 162.416585792 0.559368856086 -7.0936916447
11.35 0.206362921816 -114.034374131 0.669196408124 -63.4957908942 0.408938960033 -115.305885851 0.585115172844 151.762975573 0.669196408126 -63.4957908942 0.20675969133 -114.251547289 0.408626377952 -115.291132229 0.585193569216 -28.3197839045 0.408938960033 -115.305885851 0.408626377952 -115.291132229 0.815975316361 24.1833799198 0.000366833833937 155.923091965 0.585115172843 151.762975573 0.585193569216 -28.3197839044 0.000366833833607 155.923091972 0.561416616559 -9.59048848534
11.375 0.205714458027 -116.31337664 0.67167709522 -65.9484593948 0.406602466001 -120.014701248 0.584128633368 149.210446533 0.671677095222 -65.9484593948 0.206122786627 -116.528867937 0.406284218935 -119.99936575 0.584206231945 -30.8732484333 0.406602466001 -120.014701248 0.406284218934 -119.99936575 0.818312098605 17.1216953295 0.000375771591938 149.483999699 0.584128633367 149.210446533 0.584206231945 -30.8732484332 0.000375771591564 149.483999707 0.563468467602 -12.0870625808
11.4 0.205152660775 -118.575095612 0.6742544966 -68.4031084883 0.404038784467 -124.747877879 0.583134918378 146.658827849 0.674254496602 -68.4031084883 0.205571958845 -118.788971223 0.4037148446 -124.73190434 0.583211731142 -33.4258083642 0.404038784467 -124.747877879 0.403714844599 -124.73190434 0.820851884443 10.0129946773 0.000384872242118 143.100023955 0.583134918377 146.658827849 0.583211731142 -33.4258083641 0.00038487224172 143.100023963 0.565524214268 -14.5834477324
11.425 0.20468469715 -120.821047632 0.676928923655 -70.8604564924 0.401237725562 -129.504822192 0.582134082726 144.10806089 0.676928923657 -70.8604564925 0.20511434502 -121.033384152 0.400908070714 -129.488148124 0.58221009887 -35.9775212121 0.401237725562 -129.504822192 0.400908070713 -129.488148124 0.823597682378 2.8598909893 0.000394093273637 136.771689661 0.582134082726 144.10806089 0.58221009887 -35.977521212 0.00039409327325 136.771689669 0.567583648326 -17.0796778497
11.45 0.204317407945 -123.053074969 0.679699848105 -73.3212318286 0.398189883246 -134.284797275 0.581126190423 141.558085534 0.679699848107 -73.3212318287 0.204756754649 -123.263958721 0.397854497919 -134.267353246 0.58120137436 -38.5284453828 0.398189883246 -134.284797275 0.397854497919 -134.267353246 0.826550553667 -4.33459382191 0.000403390684205 130.49939964 0.581126190423 141.558085534 0.58120137436 -38.5284453828 0.000403390683875 130.499399647 0.569646547339 -19.5757869796
11.475 0.204057152632 -125.273345164 0.68256584211 -75.7861629918 0.394886809125 -139.086919942 0.580111315203 139.008840018 0.682565842111 -75.7861629919 0.204505514267 -125.482871445 0.394545685608 -139.068628917 0.5801856047 -41.0786402239 0.394886809125 -139.086919942 0.394545685608 -139.068628917 0.82970937164 -11.5670236957 0.000412719347881 124.283495182 0.580111315203 139.008840018 0.5801856047 -41.0786402239 0.000412719347675 124.283495187 0.571712673677 -22.0718093345
11.5 0.203909645753 -127.484340812 0.685524534633 -78.255967501 0.39132118798 -143.910159693 0.57908954111 136.460260771 0.685524534633 -78.255967501 0.204366303389 -127.692613083 0.390974327478 -143.890936324 0.579162845587 -43.6281660743 0.39132118798 -143.910159693 0.390974327478 -143.890936324 0.833070600237 -18.8335481394 0.000422033415809 118.124308198 0.57908954111 136.460260771 0.579162845587 -43.6281660743 0.000422033415812 118.124308198 0.573781773462 -24.5677793211
