! Generated from PyAEDT SolutionData; AEDT ExportNetworkData workaround
# GHz S MA R 50
9 0.229809915626 147.701545033 0.523149180832 -175.500770084 0.490122810607 -83.5525640896 0.658241572523 45.9285521277 0.523149180832 -175.500770084 0.230986515152 147.903641197 0.489614087515 -83.5929318994 0.658208333068 -134.097369526 0.490122810607 -83.5525640896 0.489614087515 -83.5929318994 0.721149535918 -160.638433413 0.00101127365316 133.436952164 0.658241572523 45.9285521277 0.658208333068 -134.097369526 0.00101127365316 133.436952164 0.365347505545 -114.806444585
9.025 0.227539297208 144.837524309 0.523236660537 -178.30574146 0.491631070461 -87.9082008221 0.657838942908 43.0203608325 0.523236660537 -178.30574146 0.228716349915 145.050327437 0.491115901812 -87.9491625739 0.657813849358 -137.00420318 0.491631070462 -87.9082008221 0.491115901811 -87.9491625739 0.719107514365 -166.605229797 0.00102801189062 128.470221484 0.657838942905 43.0203608323 0.657813849358 -137.00420318 0.00102801189043 128.47022149 0.366783808862 -117.524898904
9.05 0.225283067236 141.982671711 0.523333112065 178.897271546 0.493111603277 -92.2574104237 0.657431848875 40.1201580472 0.523333112065 178.897271546 0.226459717274 142.206335433 0.492589807016 -92.2989879321 0.657416137087 -139.903047488 0.493111603277 -92.2574104238 0.492589807016 -92.2989879321 0.717087800795 -172.569718589 0.00104478736434 123.511817031 0.657431848871 40.1201580469 0.657416137087 -139.903047488 0.00104478736404 123.51181704 0.368225762269 -120.238398439
9.075 0.223041767561 139.13645941 0.523438550747 176.108008738 0.494565036949 -96.600114407 0.657020517086 37.2277951956 0.523438550747 176.108008739 0.224217124893 139.371133479 0.494036418386 -96.642329321 0.657015199903 -142.794051058 0.494565036949 -96.600114407 0.494036418386 -96.642329321 0.715091070479 -178.530917017 0.0010615942748 118.562216857 0.657020517082 37.2277951953 0.657015199903 -142.794051058 0.00106159427445 118.562216867 0.369673333602 -122.947035833
9.1 0.220815705962 136.298361974 0.523552838773 173.326216336 0.495992138212 -100.936246229 0.656605122887 34.343125557 0.523552838773 173.326216336 0.22198884855 136.544192484 0.495456489925 -100.979120013 0.65661103765 -145.677359513 0.495992138212 -100.936246229 0.495456489925 -100.979120013 0.713117614027 175.512044173 0.00107842745802 113.621848466 0.656605122882 34.3431255567 0.65661103765 -145.677359513 0.00107842745766 113.621848476 0.371126494478 -125.650901962
9.125 0.218604981392 133.467859211 0.523675694037 170.551647936 0.497393809302 -105.265751513 0.656185796552 31.4660047157 0.523675694037 170.551647936 0.219774957381 133.724988739 0.496850911033 -105.309305425 0.656203646794 -148.553115501 0.497393809302 -105.265751513 0.496850911033 -105.309305425 0.711167353989 169.559927445 0.00109528236459 108.691093214 0.656185796547 31.4660047154 0.656203646794 -148.553115501 0.00109528236424 108.691093224 0.372585220152 -128.350085982
9.15 0.216409508677 130.644438187 0.523806698884 167.784065399 0.498771083917 -109.588588318 0.655762629474 28.5962909148 0.523806698884 167.784065399 0.217575338491 130.913005867 0.498220702449 -109.632843385 0.655793020809 -151.421458728 0.498771083917 -109.588588318 0.498220702448 -109.632843385 0.709239863177 163.61339518 0.00111215503901 103.770290533 0.65576262947 28.5962909146 0.655793020809 -151.421458729 0.0011121550387 103.770290542 0.374049489362 -131.044675372
9.175 0.214229041929 127.827594371 0.523945308714 165.023239636 0.500125122504 -113.90472746 0.65533568017 25.7338453179 0.523945308715 165.023239636 0.215389720246 128.107735909 0.499567011525 -113.949704457 0.65537915052 -154.282525986 0.500125122504 -113.90472746 0.499567011525 -113.949704457 0.707334384194 157.673016202 0.00112904210003 98.8597419268 0.655335680166 25.7338453178 0.655379150519 -154.282525986 0.00112904209977 98.8597419339 0.375519284186 -133.734755985
9.2 0.212063195933 125.016831925 0.524090860452 162.268951329 0.5014572069 -118.214152865 0.654904979942 22.8785321847 0.524090860453 162.268951329 0.213217693496 125.308679583 0.500891106859 -118.259872281 0.654962024411 -157.136451195 0.5014572069 -118.214152865 0.500891106859 -118.259872281 0.705449849696 151.73927202 0.00114594072254 93.9597146985 0.654904979939 22.8785321846 0.654962024411 -157.136451195 0.00114594072234 93.9597147038 0.376994589899 -136.420412096
9.225 0.209911464825 122.211663217 0.524242580831 159.520991575 0.502768734363 -122.516861944 0.654470538119 20.0302189699 0.524242580831 159.520991575 0.211058730076 122.515345771 0.502194372317 -122.563343958 0.654541628899 -159.983365453 0.502768734363 -122.516861944 0.502194372317 -122.563343958 0.703584902988 145.812562659 0.00116284862144 89.0704453835 0.654470538117 20.0302189698 0.654541628899 -159.983365453 0.00116284862129 89.0704453868 0.378475394828 -139.101726447
9.25 0.207773237557 119.411607694 0.524399594505 156.779162464 0.504061211044 -126.812865985 0.654032346765 17.1887763554 0.524399594505 156.779162464 0.208912198083 119.727250398 0.503478300497 -126.860130434 0.654117948572 -162.823397089 0.504061211044 -126.812865985 0.503478300497 -126.860130434 0.701737918636 139.893212016 0.00117976403759 84.1921428585 0.654032346764 17.1887763554 0.654117948572 -162.823397089 0.00117976403748 84.1921428601 0.379961690211 -141.7787803
9.275 0.205647809839 116.616190312 0.52456093197 154.043277592 0.505336244938 -131.102190552 0.653590384817 14.3540782283 0.52456093197 154.043277592 0.206777373649 116.94391488 0.504744485675 -131.150256901 0.653690966392 -165.65667172 0.505336244938 -131.102190552 0.504744485675 -131.150256901 0.699907022837 133.981472687 0.00119668572602 79.3249911193 0.653590384816 14.3540782283 0.653690966392 -165.65667172 0.00119668572596 79.3249911193 0.38145347006 -144.451653482
9.3 0.203534392538 113.824939754 0.524725537296 151.313162521 0.506595538358 -135.384875883 0.653144621611 11.5260016145 0.524725537296 151.313162521 0.204653449212 114.164864388 0.505994616284 -135.433763191 0.653260663879 -168.48331231 0.506595538358 -135.384875883 0.505994616284 -135.433763191 0.698090113345 128.077530214 0.0012136129463 74.4691517203 0.65314462161 11.5260016145 0.653260663879 -168.48331231 0.00121361294628 74.469151719 0.382950731023 -147.120424435
9.325 0.201432116814 111.037386671 0.524892275659 148.588655184 0.507840880003 -139.660977276 0.652695019814 8.70442658213 0.524892275659 148.588655184 0.202539538547 111.389626134 0.507230466972 -139.710704163 0.652827021261 -171.303439236 0.507840880003 -139.660977276 0.507230466972 -139.710704163 0.696284878817 122.181506758 0.00123054545482 69.6247658803 0.652695019814 8.70442658213 0.652827021261 -171.303439236 0.00123054545482 69.624765878 0.384453472244 -149.785170264
9.35 0.199340036484 108.253062159 0.525059940686 145.869606245 0.509074136647 -143.930565464 0.652241537777 5.88923612341 0.525059940685 145.869606245 0.200434679081 108.617727916 0.508453890303 -143.981150076 0.652390017597 -174.117170357 0.509074136647 -143.930565464 0.508453890303 -143.981150076 0.694488817483 116.293464182 0.00124748349886 64.7919562643 0.652241537777 5.88923612341 0.652390017597 -174.117170357 0.00124748349888 64.7919562612 0.385961695232 -152.445966783
9.375 0.197257128296 105.471496637 0.525227261608 143.155879414 0.510297244525 -148.193726961 0.651784131353 3.08031602481 0.525227261608 143.155879414 0.198337832168 105.84869706 0.509666808136 -148.245186939 0.651949630885 -176.924621075 0.510297244525 -148.193726961 0.509666808136 -148.245186939 0.692699255069 110.413406562 0.00126442781203 59.9708284566 0.651784131354 3.0803160248 0.651949630885 -176.924621075 0.00126442781207 59.9708284531 0.387475403724 -155.10288856
9.4 0.195182290878 102.692219237 0.525392910239 140.44735173 0.511512200447 -152.450564392 0.65132275525 0.277554733569 0.525392910239 140.44735173 0.196247882081 103.082059884 0.510871202748 -152.502916833 0.651505838147 -179.725904406 0.511512200447 -152.450564392 0.510871202748 -152.502916833 0.690913361978 104.541282157 0.0012813796108 55.1614721472 0.65132275525 0.277554733561 0.651505838147 -179.725904406 0.00128137961084 55.1614721436 0.388994603555 -157.756008962
9.425 0.193114343097 99.9147577484 0.525555507764 137.743913799 0.512721052709 -156.701196785 0.650857363973 -2.51915677372 0.525555507764 137.743913799 0.194163634456 100.317341709 0.512069107753 -156.754458211 0.65105861549 177.478868951 0.512721052709 -156.701196785 0.512069107753 -156.754458211 0.689128169697 98.6769848797 0.00129834059168 50.3639620546 0.650857363973 -2.51915677373 0.65105861549 177.478868951 0.00129834059173 50.363962051 0.390519302523 -160.405400201
9.45 0.191052022476 97.138639086 0.525713631383 135.045470017 0.513925891834 -160.945759833 0.650387912438 -5.30992511613 0.525713631382 135.045470017 0.192083814832 97.5540673915 0.513262598842 -160.999946154 0.65060793816 174.689590546 0.513925891834 -160.945759833 0.513262598842 -160.999946154 0.687340586489 92.8203552904 0.00131531292878 45.5783586124 0.650387912438 -5.30992511614 0.65060793816 174.689590546 0.00131531292882 45.5783586091 0.392049510263 -163.051133375
9.475 0.188993984165 94.363390228 0.52586582078 132.351938754 0.515128841189 -165.184406116 0.649914356319 -8.09485462399 0.52586582078 132.351938754 0.19000706777 94.7917623292 0.514453784417 -165.239532597 0.650153780579 171.906154111 0.515128841189 -165.184406116 0.514453784417 -165.239532597 0.685547412378 86.9711811889 0.00133229927134 40.8047084495 0.64991435632 -8.09485462401 0.650153780579 171.906154111 0.00133229927138 40.8047084466 0.393585238112 -165.693278507
9.5 0.186938800779 91.5885395105 0.526010584469 129.663252534 0.516332047532 -169.41730529 0.649436652195 -10.8740474437 0.526010584469 129.663252534 0.187931956863 92.0299538101 0.515644796138 -169.473386519 0.649696116365 169.128455491 0.516332047532 -169.41730529 0.515644796138 -169.473386519 0.683745353512 81.1291978364 0.00134930274096 36.0430446917 0.649436652196 -10.8740474437 0.649696116365 169.128455491 0.001349302741 36.0430446892 0.395126498989 -168.331904588
9.525 0.184884963259 88.8136181739 0.526146406004 126.979358179 0.517537671497 -173.644644235 0.648954757552 -13.6476036314 0.526146406004 126.979358179 0.185856965784 89.2681726187 0.516837779423 -173.701694088 0.64923491835 166.356392581 0.517537671497 -173.644644235 0.516837779423 -173.701694088 0.681931035932 75.2940878688 0.00136632692825 31.2933871152 0.648954757553 -13.6476036314 0.64923491835 166.356392581 0.00136632692828 31.2933871132 0.396673307262 -170.967079616
9.55 0.182830882751 86.038162048 0.526271750079 124.300216956 0.51874787808 -177.866627162 0.648468630695 -16.4156212351 0.526271750079 124.300216956 0.183780500359 86.505954775 0.518034883939 -177.924658772 0.648770158582 163.58986526 0.51874787808 -177.866627162 0.518034883939 -177.924658772 0.680101018844 69.4654809493 0.00138337588864 26.5557421803 0.648468630695 -16.4156212351 0.648770158582 163.58986526 0.00138337588866 26.5557421789 0.398225678627 -173.598870629
9.575 0.180774893402 83.2617132784 0.526385068546 121.625804712 0.519964827116 177.916524321 0.647978230602 -19.1781963679 0.526385068546 121.625804712 0.181700891566 83.7428433172 0.519238254092 177.857498593 0.648301808328 160.828775328 0.519964827116 177.916524321 0.519238254092 177.857498593 0.678251807455 63.6429532118 0.00140045413734 21.830102972 0.647978230602 -19.1781963679 0.648301808328 160.828775328 0.00140045413735 21.8301029711 0.399783629981 -176.227343743
9.6 0.178715255894 80.4838220198 0.526484806357 118.956111994 0.521190663789 173.704571172 0.647483516754 -21.9354232716 0.526484806356 118.956111994 0.179616399272 80.9783900518 0.520450019549 173.64453977 0.647829838062 158.073026443 0.521190663789 173.704571172 0.520450019549 173.64453977 0.676379865455 57.8260265392 0.00141756664316 17.1164490722 0.647483516755 -21.9354232716 0.647829838062 158.073026443 0.00141756664317 17.1164490719 0.401347179304 -178.852564188
9.625 0.176650161516 77.7040480428 0.52656940746 116.291144188 0.522427509181 169.49725693 0.646984448975 -24.6873943735 0.52656940746 116.291144188 0.177525216507 78.2121572208 0.521672285796 169.436209128 0.647354217461 155.322524064 0.522427509181 169.49725693 0.521672285796 169.436209128 0.674481627226 52.0141677205 0.00143471882127 12.4147463861 0.646984448975 -24.6873943735 0.647354217461 155.322524064 0.00143471882127 12.4147463862 0.402916345539 178.525403665
9.65 0.17457773655 74.9219622252 0.526637320685 113.630921638 0.523677450853 165.294307758 0.646480987268 -27.4342003372 0.526637320685 113.630921638 0.175425474054 75.4437190589 0.522907124733 165.232233687 0.646874915385 152.577175392 0.523677450853 165.294307758 0.522907124733 165.232233687 0.672553509876 46.2067875218 0.00145191652482 7.724946942 0.646480987268 -27.4342003372 0.646874915385 152.577175392 0.00145191652482 7.72494694246 0.404491148467 175.906496266
9.675 0.172496046805 72.1371479186 0.526687005632 110.975479792 0.524942533477 161.095432521 0.645973091699 -30.1759301095 0.526687005632 110.975479792 0.173315245171 72.6726632324 0.52415656532 161.032323195 0.646391899866 149.836889313 0.524942533477 161.095432521 0.52415656532 161.032323195 0.670591925177 40.4032397048 0.00146916603552 3.04698868085 0.645973091699 -30.1759301095 0.646391899866 149.836889313 0.00146916603551 3.04698868158 0.406071608598 173.290650863
9.7 0.170403102109 69.3492021986 0.526716938612 108.324869339 0.526224749487 156.900322901 0.645460722293 -32.9126709636 0.526716938612 108.324869339 0.171192550288 69.8985921709 0.52542258424 156.836170241 0.645905138096 147.101576346 0.526224749487 156.900322901 0.52542258424 156.836170241 0.668593291518 34.6028200177 0.0014864740532 -1.61920475073 0.645460722293 -32.9126709636 0.645905138096 147.101576346 0.00148647405319 -1.61920474981 0.407657747052 170.67780547
9.725 0.168296860672 66.5577370196 0.526725618662 105.679156376 0.527526029763 152.70865354 0.644943838975 -35.6445085409 0.526725618662 105.679156376 0.169055361549 67.1211243138 0.526707096602 152.643450393 0.645414596404 144.371148588 0.527526029763 152.70865354 0.526707096602 152.643450393 0.666554045974 28.8047651788 0.00150384768454 -6.27372419431 0.644943838975 -35.6445085409 0.645414596404 144.371148588 0.00150384768453 -6.27372419328 0.409249585446 168.067898842
9.75 0.166175233198 63.7623803028 0.526711573689 103.038422578 0.528848234299 148.520082217 0.644422401535 -38.3715268912 0.526711573689 103.038422578 0.166901607117 64.3398953031 0.528011946619 148.45382238 0.644920240249 141.645519665 0.528848234299 148.520082217 0.528011946619 148.45382238 0.664470656604 23.0082518698 0.0015212944309 -10.9166751528 0.644422401535 -38.3715268912 0.644920240249 141.645519665 0.00152129443089 -10.9166751517 0.410847145785 165.460870448
9.775 0.16403608673 60.9627769961 0.526673366784 100.402765391 0.53019314285 144.33425005 0.64389636962 -41.0938085124 0.526673366784 100.402765391 0.164729175198 61.5545591626 0.529338898281 144.266928282 0.644422034206 138.924604685 0.53019314285 144.33425005 0.529338898281 144.266928282 0.662339635103 17.2123957459 0.00153882217567 -15.5481779383 0.64389636962 -41.0938085124 0.644422034206 138.924604685 0.00153882217566 -15.5481779373 0.412450450352 162.856660448
9.8 0.16187724818 58.1585901456 0.52660960275 97.7722982419 0.531562445515 140.150781723 0.643365702758 -43.8114343903 0.52660960275 97.7722982419 0.16253591775 58.764789505 0.530689625955 140.082393765 0.643919941953 136.208320188 0.531562445515 140.150781723 0.530689625955 140.082393765 0.660157549935 11.4162504704 0.00155643917089 -20.1683677936 0.643365702758 -43.8114343903 0.643919941953 136.208320188 0.00155643917088 -20.1683677927 0.414059521602 160.255209671
9.825 0.159696507561 55.3495020221 0.526518934911 95.1471507792 0.532957733227 135.969285742 0.642830360388 -46.5244840387 0.526518934911 95.1471507792 0.160319653896 55.9702808164 0.532065704894 135.899828332 0.643413926269 133.496584102 0.532957733227 135.969285742 0.532065704894 135.899828332 0.657921040101 5.61880677309 0.00157415402359 -24.7773949857 0.642830360388 -46.5244840387 0.643413926269 133.496584102 0.00157415402358 -24.777394985 0.415674382058 157.656459593
9.85 0.157491620936 52.5352153517 0.526400072254 92.5274691246 0.534380488104 131.789354716 0.642290301919 -49.2330355395 0.526400072254 92.5274691246 0.15807817305 53.1707498642 0.533468601615 131.718825593 0.642903949022 130.7893157 0.534380488104 131.789354716 0.533468601615 131.718825593 0.655626829683 -0.181008469567 0.00159197568167 -29.3754248758 0.642290301918 -49.2330355395 0.642903949022 130.7893157 0.00159197568167 -29.3754248752 0.417295054206 155.060352318
9.875 0.155260313118 49.7154546981 0.526251786973 89.9134161563 0.535832073612 127.610565653 0.641745486785 -51.9371655835 0.526251786973 89.9134161563 0.155809237799 50.3659372867 0.534899664089 127.538963575 0.642389971173 128.086435556 0.535832073612 127.610565653 0.534899664089 127.538963575 0.653271743354 -5.98433313727 0.00160991341956 -33.9626379674 0.641745486785 -51.9371655835 0.642389971173 128.086435556 0.00160991341956 -33.9626379669 0.418921560402 152.466830555
9.9 0.153000280175 46.8899680501 0.526072922491 87.3051718125 0.537313724503 123.432480289 0.641195874518 -54.6369495114 0.526072922491 87.3051718125 0.153510586579 47.5556094171 0.536360111707 123.359805035 0.641871952775 125.387865507 0.537313724503 123.432480289 0.536360111707 123.359805035 0.650852723014 -11.7923707596 0.00162797682348 -38.5392299383 0.641195874518 -54.6369495114 0.641871952775 125.387865507 0.00162797682348 -38.5392299381 0.420553922769 149.875837607
9.925 0.150709191776 44.0585286737 0.52586240203 84.7029334175 0.53882653646 119.254645435 0.640641424817 -57.3324613555 0.52586240203 84.7029334175 0.151179936212 44.7395604081 0.537851024963 119.180897811 0.641349852975 122.69352861 0.53882653646 119.254645435 0.537851024963 119.180897811 0.648366845775 -17.6063914083 0.00164617577647 -43.1054116616 0.640641424817 -57.3324613555 0.641349852975 122.69352861 0.00164617577647 -43.1054116615 0.422192163103 147.287317347
9.95 0.148384693453 41.2209372914 0.52561923782 82.1069160265 0.54037145541 115.076593351 0.640082097619 -60.0237738805 0.52561923782 82.1069160265 0.148814984348 41.9176147274 0.5393733348 115.001775191 0.640823630019 120.003349105 0.54037145541 115.076593351 0.5393733348 115.001775191 0.645811343499 -23.4277325965 0.00166452044289 -47.6614092206 0.640082097619 -60.0237738805 0.640823630019 120.003349105 0.00166452044289 -47.6614092207 0.423836302786 144.701214206
9.975 0.146024408832 38.377024663 0.525342541029 79.517352787 0.541949266439 110.897842139 0.63951785317 -62.7109586256 0.525342541029 79.517352787 0.146413411884 39.0896301031 0.540927811565 110.821956306 0.640293241263 117.317252379 0.541949266439 110.897842139 0.540927811565 110.821956306 0.643183624126 -29.257800192 0.00168302125246 -52.207463924 0.63951785317 -62.7109586256 0.640293241263 117.317252379 0.00168302125246 -52.2074639242 0.42548636269 142.11747316
10 0.143625941895 35.5266546517 0.525031532517 76.9344953106 0.543560582252 106.71789617 0.638948652088 -65.3940859444 0.525031532517 76.9344953106 0.143972885429 36.2555010142 0.54251505352 106.640946554 0.639758643185 114.635164927 0.543560582252 106.71789617 0.54251505352 106.640946554 0.640481295052 -35.0980693488 0.00170168888353 -56.7438323262 0.638948652088 -65.3940859444 0.639758643185 114.635164927 0.00170168888353 -56.7438323266 0.427142363096 139.536039711
10.025 0.141186879354 32.6697278747 0.524685554497 74.3586140482 0.545205831127 102.53624654 0.638374455432 -68.0732250467 0.524685554497 74.3586140482 0.141491059871 33.4151628354 0.544135474845 102.458238048 0.639219791388 111.957014318 0.545205831127 102.53624654 0.544135474845 102.458238048 0.637702188815 -40.9500854605 0.00172053424527 -61.2707862565 0.638374455432 -68.0732250467 0.639219791388 111.957014318 0.00172053424528 -61.2707862569 0.428804323603 136.956859877
10.05 0.138704793197 29.8061860561 0.524304083229 71.7899986609 0.546885244301 98.3523715516 0.637795224752 -70.7484440374 0.524304083229 71.7899986609 0.138965581146 30.5685967673 0.545789293083 98.2733101076 0.638676640623 109.282729161 0.546885244301 98.3523715516 0.545789293083 98.2733101076 0.634844391398 -46.8154651298 0.00173956845873 -65.7886128605 0.637795224752 -70.7484440374 0.638676640623 109.282729161 0.00173956845873 -65.7886128609 0.430472263054 134.37988018
10.075 0.136177243493 26.9360172233 0.523886742828 69.2289583736 0.548598842738 94.1657372459 0.637210922151 -73.4198099563 0.523886742828 69.2289583736 0.136394089261 27.7158357121 0.54747651597 94.0856297729 0.638129144795 106.612239068 0.548598842738 94.1657372459 0.54747651597 94.0856297729 0.63190627344 -52.6958971475 0.00175880283607 -70.2976146565 0.637210922151 -73.4198099563 0.638129144795 106.612239068 0.00175880283607 -70.2976146569 0.432146199452 131.805047633
10.1 0.133601781531 24.05926192 0.523433320307 66.6758222996 0.550346423229 89.9757979636 0.636621510332 -76.0873888161 0.523433320307 66.6758222996 0.133774221681 24.8569712846 0.549196927603 89.8946523737 0.63757725698 103.945474625 0.550346423229 89.9757979636 0.549196927603 89.8946523737 0.628886524699 -58.5931434634 0.00177824885788 -74.7981096053 0.636621510332 -76.0873888161 0.63757725698 103.945474625 0.00177824885788 -74.7981096057 0.433826149882 129.232309731
10.125 0.130975953392 21.176020645 0.522943781954 64.1309397172 0.552127543767 85.7819969618 0.636026952647 -78.7512456398 0.522943781954 64.1309397172 0.131103617159 21.9921621992 0.550950073902 85.699822139 0.637020929435 101.282367352 0.552127543767 85.7819969618 0.550950073902 85.699822139 0.625784192101 -64.5090401237 0.00179791814794 -79.2904311936 0.636026952647 -78.7512456398 0.637020929435 101.282367352 0.00179791814794 -79.2904311939 0.435512130442 126.661614436
10.15 0.128297304043 18.2864627798 0.522418291161 61.5946802806 0.553941508185 81.5837670824 0.63542721314 -81.4114444974 0.522418291161 61.5946802806 0.128379920121 19.1216443219 0.552735247321 81.500572864 0.636460113614 98.6228496792 0.553941508185 81.5837670824 0.552735247321 81.500572864 0.622598721732 -70.4454981384 0.00181782244501 -83.7749285269 0.63542721314 -81.4114444974 0.636460113614 98.6228496792 0.00181782244501 -83.7749285272 0.437204156165 124.092910174
10.175 0.125563382076 15.3908373274 0.521857227777 59.0674341384 0.555787349986 77.3805314834 0.634822256599 -84.0680485409 0.521857227777 59.0674341384 0.125600785723 16.2457427558 0.554551470786 77.2963286376 0.63589476017 95.9668549092 0.555787349986 77.3805314834 0.554551470786 77.2963286376 0.619330005148 -76.4045042296 0.00183797357111 -88.251966427 0.634822256599 -84.0680485409 0.63589476017 95.9668549092 0.00183797357111 -88.2519664273 0.438902240956 121.526145822
10.2 0.122771745198 12.4894858705 0.521261209096 56.5496119347 0.557663815388 73.1717044405 0.634212048593 -86.7211200389 0.521261209096 56.5496119347 0.122763885705 13.3648864168 0.556397480835 73.0865046412 0.635324818972 93.314317187 0.557663815388 73.1717044405 0.556397480835 73.0865046412 0.615978430355 -82.388121395 0.00185838339571 -92.7219255265 0.634212048593 -86.7211200389 0.635324818972 93.314317187 0.00185838339571 -92.7219255266 0.440606397519 118.961270697
10.225 0.119919966623 9.58285826219 0.520631112552 54.0416446571 0.55956934554 68.9566922279 0.633596555525 -89.3707204104 0.520631112552 54.0416446571 0.119866915205 10.47962568 0.558271709952 68.8705080273 0.634750239103 90.6651714691 0.55956934554 68.9566922279 0.558271709952 68.8705080273 0.612544937845 -88.3984892059 0.00187906379536 -97.1852023506 0.633596555525 -89.3707204104 0.634750239103 90.6651714691 0.00187906379536 -97.1852023507 0.442316637293 116.398234554
10.25 0.117005642527 6.67153170584 0.519968100168 51.5439832963 0.561502057941 64.7348940901 0.63297574468 -92.0169102575 0.519968100168 51.5439832963 0.116907600692 7.59065383668 0.560172268108 64.6477388869 0.634170968865 88.0193534922 0.561502057941 64.7348940901 0.560172268108 64.6477388869 0.609031082023 -94.4378237352 0.00190002660802 -101.642209377 0.63297574468 -92.0169102575 0.634170968865 88.0193534922 0.00190002660802 -101.642209377 0.444032970392 113.836987572
10.275 0.114026400736 3.75623406334 0.519273644799 49.057098272 0.563459727075 60.5057033137 0.632349584271 -94.6597493972 0.519273644799 49.057098272 0.113883709238 4.69883331257 0.562096923534 60.4175913192 0.633586955776 85.3767997436 0.563459727075 60.5057033137 0.562096923534 60.4175913192 0.605439098337 -100.50841699 0.00192128358167 -106.093375057 0.632349584271 -94.6597493972 0.633586955776 85.3767997436 0.00192128358167 -106.093375057 0.445755405539 111.277480349
10.3 0.110979910888 0.837872482693 0.518549558176 46.581478578 0.56543976432 56.2685084134 0.631718043507 -97.2992968934 0.518549558176 46.581478578 0.110793059371 1.80522788016 0.564043082774 56.1794546136 0.632998146563 82.7374474303 0.56543976432 56.2685084134 0.564043082774 56.1794546136 0.601771976404 -106.612635698 0.00194284631645 -110.539143788 0.631718043507 -97.2992968934 0.632998146563 82.7374474303 0.00194284631645 -110.539143788 0.447483950009 108.719663895
10.325 0.107863896303 -2.08243123185 0.517798020699 44.1176305894 0.567439197192 52.0226944423 0.631081092642 -99.9356110878 0.517798020699 44.1176305894 0.107633533796 -1.08885752288 0.56600777009 51.9327145574 0.632404487156 80.1012344499 0.567439197192 52.0226944423 0.56600777009 51.9327145574 0.598033539301 -112.752919259 0.00196472619992 -114.979975816 0.631081092642 -99.9356110878 0.632404487156 80.1012344499 0.00196472619992 -114.979975816 0.44921860957 106.163489625
10.35 0.104676147894 -5.00329662772 0.517021612899 41.666076472 0.569454648047 47.7676444426 0.630438703053 -102.568749631 0.517021612899 41.666076472 0.104403094353 -3.9818272388 0.567987606333 47.6767548829 0.631805922671 77.4680993614 0.569454648047 47.7676444426 0.567987606333 47.6767548829 0.59422852914 -118.931776654 0.00198693433484 -119.416347048 0.630438703053 -102.568749631 0.631805922671 77.4680993614 0.00198693433484 -119.416347048 0.450959388426 103.60890935
10.375 0.1014145405 -7.92302948421 0.516223348424 39.2273521255 0.571482312353 43.5027410485 0.629790847304 -105.198769513 0.516223348424 39.2273521255 0.101099799672 -6.87173275665 0.5699787874 43.4109588668 0.631202397389 74.8379813565 0.571482312353 43.5027410485 0.5699787874 43.4109588668 0.590362698865 -125.151782049 0.00200948145896 -123.848748768 0.629790847304 -105.198769513 0.631202397389 74.8379813565 0.00200948145897 -123.848748768 0.45270628916 101.055875272
10.4 0.0980770521275 -10.8395521873 0.515406708319 36.8020045869 0.573517936734 39.2273682565 0.629137499231 -107.825727095 0.515406708319 36.8020045869 0.0977218260867 -9.75619416694 0.571977062469 39.1347110973 0.63059385474 72.2108202313 0.573517936734 39.2273682565 0.571977062469 39.1347110973 0.586442910066 -131.415568809 0.00203237785647 -128.277687215 0.629137499231 -107.825727095 0.63059385474 72.2108202313 0.00203237785647 -128.277687215 0.454459312678 98.5043399773
10.425 0.0946617867298 -13.7503149923 0.514575676303 34.3905888167 0.575556796981 34.9409133774 0.628478634025 -110.44967814 0.514575676303 34.3905888167 0.0942674925812 -12.6322999718 0.573977712225 34.8473994227 0.629980237268 69.5865563592 0.575556796981 34.9409133774 0.573977712225 34.8473994227 0.582477236338 -137.725821581 0.00205563326066 -132.703683019 0.628478634025 -110.44967814 0.629980237268 69.5865563592 0.00205563326067 -132.703683019 0.456218458157 95.954256429
10.45 0.0911670013523 -16.6521818102 0.513734774627 31.9936637824 0.577593676321 30.6427691846 0.627814228322 -113.070677845 0.513734774627 31.9936637824 0.0907352907552 -15.4964780196 0.575975527342 30.548417096 0.629361486608 66.9651306638 0.577593676321 30.6427691846 0.575975527342 30.548417096 0.578475071436 -144.085266062 0.0020792567477 -137.127270466 0.627814228322 -113.070677845 0.629361486608 66.9651306638 0.0020792567477 -137.127270466 0.457983722988 93.4055779613
10.475 0.0875911387566 -19.5412816123 0.512889100001 29.6117877562 0.579622844242 26.3323362718 0.6271442603 -115.688780876 0.512889100001 29.6117877562 0.0871239211807 -18.3443274377 0.577964787542 26.2371651292 0.628737543447 64.3464845929 0.579622844242 26.3323362718 0.577964787542 26.2371651292 0.574447241111 -150.496656048 0.0021032566212 -141.548996566 0.6271442603 -115.688780876 0.628737543447 64.3464845929 0.00210325662121 -141.548996566 0.459755102722 90.8582582719
10.5 0.0839328670614 -22.4128127961 0.512044358934 27.2455127401 0.581638036267 22.0090256348 0.626468709781 -118.304041398 0.512044358934 27.2455127401 0.0834323380458 -21.1703971739 0.579939241609 21.9130548715 0.628108347493 61.730560093 0.581638036267 22.0090256348 0.579939241609 21.9130548715 0.570406117056 -156.962757273 0.0021276402878 -145.969419906 0.626468709781 -118.304041398 0.628108347493 61.730560093 0.0021276402878 -145.969419906 0.461532591014 88.3122514159
10.525 0.0801911285794 -25.2607822552 0.511206901691 24.8953779347 0.583632435116 17.6722614872 0.625787558337 -120.916513111 0.511206901691 24.8953779347 0.0796598047885 -23.9678903794 0.5818920888 17.5755108217 0.627473837433 59.1172995853 0.583632435116 17.6722614872 0.5818920888 17.5755108217 0.566365730869 -163.486327569 0.00215241412374 -150.389109268 0.625787558337 -120.916513111 0.627473837433 59.1172995853 0.00215241412374 -150.389109268 0.463316179568 85.7675117986
10.55 0.0763652010097 -28.0776523469 0.5103837539 22.561902176 0.585598653752 13.3214843228 0.625100789396 -123.526249289 0.5103837539 22.561902176 0.0758059646654 -26.7282641583 0.58381596215 13.2239736864 0.626833950901 56.5066459425 0.585598653752 13.3214843228 0.58381596215 13.2239736864 0.56234188531 -170.070092821 0.002177583333 -154.808641986 0.625100789396 -123.526249289 0.626833950901 56.5066459425 0.002177583333 -154.808641986 0.465105858075 83.2239941686
10.575 0.0724547756933 -30.8538556724 0.509582644706 20.2455752751 0.587528720895 8.95615422989 0.624408388355 -126.133302813 0.509582644706 20.2455752751 0.0718709321412 -29.4406791249 0.585702914247 8.85790369113 0.626188624438 53.8985424657 0.587528720895 8.95615422989 0.585702914247 8.85790369113 0.558352259409 -176.716718189 0.00220315179751 -159.228602018 0.624408388355 -126.133302813 0.626188624438 53.8985424657 0.00220315179751 -159.228602018 0.46690161416 80.6816536102
10.6 0.0684600601139 -33.5771164886 0.508812030137 17.9468482148 0.58941406965 4.57575446428 0.623710342692 -128.737726214 0.508812030137 17.9468482148 0.0678554141122 -32.0912293137 0.587544406119 4.47678414964 0.62553779346 51.292932864 0.58941406965 4.57575446428 0.587544406119 4.47678414964 0.554416503196 176.571225868 0.00222912192033 -163.64957773 0.623710342692 -128.737726214 0.62553779346 51.292932864 0.00222912192033 -163.64957773 0.468703433316 78.1404455361
10.625 0.0643819159165 -36.231483287 0.508081110218 15.6661221791 0.591245529939 0.179795281276 0.623006642072 -131.339571713 0.508081110218 15.6661221791 0.063760875118 -34.6618442376 0.589331299931 0.0801252918637 0.624881392231 48.6897612342 0.591245529939 0.179795281276 0.589331299931 0.0801252918636 0.550556316925 169.791303221 0.00225549446298 -168.072159365 0.623006642072 -131.339571713 0.624881392231 48.6897612342 0.00225549446298 -168.072159365 0.470511298838 75.6003256794
10.65 0.0602220506229 -38.795919895 0.50739983817 13.4037364309 0.593013325537 -4.23218197696 0.622297278461 -133.938891265 0.50739983817 13.4037364309 0.0595897693857 -37.1286905318 0.591053856281 -4.33253165229 0.624219353836 46.0889720421 0.593013325537 -4.23218197696 0.591053856281 -4.33253165229 0.546795508791 162.941257646 0.00228226837852 -172.49693618 0.622297278461 -133.938891265 0.624219353836 46.0889720421 0.00228226837852 -172.49693618 0.472325191758 73.0612500851
10.675 0.0559832932796 -41.242204441 0.506778919867 11.1599550877 0.59470707653 -8.66060054729 0.621582246229 -136.5357366 0.506778919867 11.1599550877 0.0553458776795 -39.4597909223 0.592701736895 -8.76161012264 0.623551610172 43.4905101048 0.59470707653 -8.66060054729 0.592701736895 -8.76161012264 0.543160024193 156.019064505 0.00230944064214 -176.924493266 0.621582246229 -136.5357366 0.623551610172 43.4905101048 0.00230944064214 -176.924493266 0.47414509077 70.5231751016
10.7 0.0516700059996 -43.531712374 0.506229801625 8.93495290693 0.59631580808 -13.1058436801 0.620861542243 -139.130159274 0.506229801625 8.93495290693 0.0510348141242 -41.6113860922 0.594264013627 -13.2074936672 0.622878091945 40.8943205748 0.59631580808 -13.1058436801 0.594264013627 -13.2074936672 0.539677938811 149.022988405 0.00233700608165 178.644591982 0.620861542243 -139.130159274 0.622878091945 40.8943205748 0.00233700608165 178.644591982 0.475970972152 67.9860573713
10.725 0.0472887240355 -45.6103438851 0.505764644284 6.72880024689 0.597827966407 -17.5682498652 0.620135165967 -141.722210719 0.505764644284 6.72880024689 0.0466648188498 -43.5222188139 0.595729184647 -17.6705211719 0.62219872868 38.3003489248 0.597827966407 -17.5682498652 0.595729184647 -17.6705211719 0.53637940705 141.951646421 0.00236495721055 174.209753715 0.620135165967 -141.722210719 0.62219872868 38.3003489248 0.00236495721055 174.209753715 0.477802809684 65.4498538208
10.75 0.0428491963721 -47.400260397 0.505396281524 4.54144744693 0.599231442921 -22.0481078791 0.619403119536 -144.311942288 0.505396281524 4.54144744693 0.0422480504573 -45.1042790311 0.59708519875 -22.150981912 0.621513448752 35.7085409342 0.599231442921 -22.0481078791 0.59708519875 -22.150981912 0.533296557052 134.804076001 0.00239328406692 169.770441807 0.619403119536 -144.311942288 0.621513448752 35.7085409342 0.00239328406692 169.770441807 0.479640574555 62.9145216505
10.775 0.0383661609129 -48.7859340422 0.505138160455 2.37270894826 0.60051360742 -26.5456516944 0.618665407829 -146.899405317 0.505138160455 2.37270894826 0.0378027904561 -46.2273372431 0.598319488696 -26.6491104655 0.620822179431 33.1188426763 0.60051360742 -26.5456516944 0.598319488696 -26.6491104655 0.530463323456 127.579806204 0.0024219740617 165.326126332 0.618665407829 -146.899405317 0.620822179431 33.1188426763 0.0024219740617 165.326126332 0.481484235269 60.3800183235
10.8 0.0338625361106 -49.5896915272 0.505004262611 0.222247562241 0.601661351228 -31.0610552996 0.617922038522 -149.484651171 0.505004262611 0.22224756224 0.0333573888011 -46.6922915041 0.599419014445 -31.1650815374 0.620124846961 30.5312005067 0.601661351228 -31.0610552996 0.599419014445 -31.1650815374 0.527915209684 120.27893031 0.00245101184052 160.87630232 0.617922038522 -149.484651171 0.620124846961 30.5312005067 0.00245101184052 160.87630232 0.483333757534 57.8463015538
10.825 0.029375495063 -49.5272602773 0.505009003832 -1.91044061976 0.602661141081 -35.5944274896 0.61717302213 -152.067731308 0.505009003832 -1.91044061977 0.0289576888028 -46.1841610965 0.600370317083 -35.6990047545 0.619421376656 27.9455610529 0.602661141081 -35.5944274896 0.600370317083 -35.6990047545 0.525688972774 112.90217723 0.00248037916358 156.420494751 0.61717302213 -152.067731308 0.619421376656 27.9455610529 0.00248037916358 156.420494751 0.485189104151 55.3133292932
10.85 0.0249687291227 -48.1249963715 0.505167111889 -4.0260400988 0.603499084445 -40.1458066975 0.616418372031 -154.648697338 0.505167111889 -4.0260400988 0.0246816748042 -44.1894395689 0.601159584126 -40.2509195011 0.618711693029 25.3618712036 0.603499084445 -40.1458066975 0.601159584126 -40.2509195011 0.523822225922 105.450978524 0.0025100548086 151.958263734 0.616418372031 -154.648697338 0.618711693029 25.3618712036 0.0025100548086 151.958263734 0.487050234881 52.7810597184
10.875 0.0207585322275 -44.5691761591 0.505493481277 -6.12542797493 0.604161006798 -44.7151559467 0.615658104462 -157.22760108 0.505493481277 -6.12542797493 0.0206692013822 -39.8635651907 0.601772726705 -44.820789877 0.617995719964 22.7800780997 0.604161006798 -44.7151559467 0.601772726705 -44.820789877 0.522352956902 97.9275272509 0.00254001450197 147.489209828 0.615658104462 -157.22760108 0.617995719964 22.7800780997 0.00254001450197 147.489209828 0.48891710631 50.2494512159
10.9 0.0169699605751 -37.4843089191 0.506003005365 -8.20968338736 0.60463254119 -49.3023580168 0.614892238506 -159.804494627 0.506003005365 -8.20968338736 0.0171798852462 -31.9070205325 0.602195468961 -49.408499867 0.617273380916 20.2001291239 0.60463254119 -49.3023580168 0.602195468961 -49.408499867 0.521318964526 90.3348245123 0.00257023088371 143.01297941 0.614892238506 -159.804494627 0.617273380916 20.2001291239 0.00257023088371 143.01297941 0.490789671691 47.718462367
10.925 0.0140407813348 -24.9692553707 0.506710386886 -10.2800936624 0.604899230143 -53.9072109216 0.614120796043 -162.379430411 0.506710386886 -10.2800936624 0.0146757134128 -18.9160492291 0.602413449686 -54.013848825 0.616544599161 17.6219718907 0.604899230143 -53.9072109216 0.602413449686 -54.013848825 0.520757220087 82.6767093549 0.00260067351177 138.529270024 0.614120796043 -162.379430411 0.616544599161 17.6219718907 0.00260067351177 138.529270023 0.492667880781 45.1880519305
10.95 0.0126800639478 -6.47426198863 0.507629928828 -12.3381564542 0.604946639657 -58.5294238086 0.613343801681 -164.952461266 0.507629928828 -12.3381564542 0.0137892368617 -1.41939819057 0.602412335972 -58.6365473779 0.615809298093 15.0455542352 0.604946639657 -58.5294238086 0.602412335972 -58.6365473779 0.52070316618 74.9578679008 0.00263130891118 134.037835602 0.613343801681 -164.952461266 0.615809298093 15.0455542352 0.00263130891118 134.037835602 0.494551679651 42.6581788255
10.975 0.0134571673398 13.3156634906 0.508775308796 -14.3855772197 0.604760484698 -63.1686133945 0.61256128266 -167.523640498 0.508775308796 -14.3855772197 0.0148829340031 16.0015832913 0.602177948253 -63.2762138677 0.615067401568 12.4708242001 0.604760484698 -63.1686133945 0.602177948253 -63.2762138677 0.521189970934 67.1838181536 0.00266210067317 129.538491457 0.61256128266 -167.523640498 0.615067401568 12.4708242001 0.00266210067316 129.538491456 0.496441010483 40.128802112
11 0.0161260793341 28.0847774135 0.510159341118 -16.4242614714 0.60432676521 -67.8243010552 0.611773268725 -170.093021948 0.510159341118 -16.4242614714 0.0176430775642 28.8273590361 0.601696395752 -67.932371446 0.614318834311 9.89773002061 0.60432676521 -67.8243010552 0.601696395752 -67.932371446 0.522247761109 59.360867966 0.00269300960913 125.031118909 0.611773268725 -170.093021948 0.614318834312 9.89773002062 0.00269300960912 125.031118908 0.498335811344 37.5998809707
11.025 0.0199839900334 36.8199001917 0.511793732024 -18.4563014124 0.603631911201 -72.4959106877 0.610979791965 -172.660660061 0.511793732024 -18.4563014124 0.0214716193969 36.5967198984 0.60095422091 -72.6044459433 0.613563522377 7.326220106 0.603631911201 -72.4959106877 0.60095422091 -72.6044459433 0.52390286204 51.4960451133 0.00272399396312 120.515669442 0.610979791965 -172.660660061 0.613563522377 7.32622010601 0.00272399396311 120.51566944 0.50023601594 35.0713746814
11.05 0.0245037024557 41.3259927521 0.513688834266 -20.4839567596 0.60266293508 -77.182767463 0.610180886624 -175.226609956 0.513688834266 -20.4839567596 0.0259231573516 40.7237836776 0.599938550952 -77.2917646272 0.612801393673 4.75624301676 0.60266293508 -77.182767463 0.599938550952 -77.2917646272 0.526177075492 43.5970002077 0.00275500968589 115.992168223 0.610180886624 -175.226609956 0.612801393673 4.75624301676 0.00275500968588 115.992168222 0.502141553342 32.5432425994
11.075 0.0293995090067 43.2175993453 0.51585340839 -22.5096298142 0.601407588941 -81.884097575 0.609376588873 -177.790927489 0.51585340839 -22.5096298142 0.030742887624 42.5002460678 0.598637254297 -81.9935559588 0.612032378553 2.18774743657 0.601407588941 -81.884097575 0.598637254297 -81.9935559588 0.529087027547 35.6718851532 0.00278601077165 111.460716871 0.609376588873 -177.790927489 0.612032378553 2.18774743658 0.00278601077164 111.46071687 0.504052347685 30.0154441312
11.1 0.0345216813045 43.4862614706 0.518294398406 -24.5358351155 0.59985452409 -86.5990290865 0.608566936553 179.646330675 0.518294398406 -24.5358351155 0.0357897400076 42.7636839721 0.597039099126 -86.708950445 0.611256410476 -0.37931786254 0.59985452409 -86.5990290865 0.597039099126 -86.708950445 0.532643617334 27.7292117639 0.00281694965754 106.921495306 0.608566936553 179.646330675 0.611256410476 -0.379317862532 0.00281694965752 106.921495304 0.505968317837 27.4879387081
11.125 0.0397863496894 42.7078236627 0.521016729868 -26.5651643047 0.597993449742 -91.3265939521 0.607751968876 177.085107003 0.521016729868 -26.5651643047 0.040981363447 42.0237258208 0.595133911034 -91.4369826691 0.610473426734 -2.9450040634 0.597993449742 -91.3265939521 0.595133911034 -91.4369826691 0.536851593602 19.7776968238 0.00284777768339 102.374762562 0.607751968876 177.085107003 0.610473426734 -2.9450040634 0.00284777768337 102.374762561 0.507889377036 24.9606857586
11.15 0.0451418772722 41.22389709 0.524023138194 -28.6002471089 0.595815287518 -96.0657312791 0.606931726089 174.525343022 0.524023138194 -28.6002471089 0.0462656605759 40.5936721129 0.59291272641 -96.1765945588 0.609683369252 -5.50936235677 0.595815287518 -96.0657312791 0.59291272641 -96.1765945588 0.541709280073 11.8261010167 0.00287844560745 97.8208564296 0.606931726089 174.525343022 0.609683369252 -5.50936235677 0.00287844560744 97.8208564289 0.509815432491 22.4336446785
11.175 0.050553213909 39.2454331033 0.527314034456 -30.6437096037 0.593312318145 -100.815291864 0.606106249101 171.966979264 0.527314034456 -30.6437096037 0.0516067296018 38.6722754992 0.590367937967 -100.926639931 0.60888618546 -8.07244400641 0.593312318145 -100.815291864 0.590367937967 -100.926639931 0.547208462676 3.88306966226 0.00290890417132 93.2601918052 0.606106249101 171.966979264 0.60888618546 -8.0724440064 0.00290890417131 93.260191805 0.511746384945 19.9067748
11.2 0.0559943372575 36.9083082899 0.530887414877 -32.6981311102 0.590478316678 -105.574044013 0.605275579076 169.409955198 0.530887414877 -32.6981311102 0.0569777612529 36.3902227125 0.587493428779 -105.68589032 0.608081829225 -10.6343004282 0.590478316678 -105.574044013 0.587493428779 -105.68589032 0.553334442874 -4.04301703267 0.00293910470473 88.693257663 0.605275579076 169.409955198 0.608081829225 -10.6343004282 0.00293910470474 88.6932576634 0.513682128188 17.3800353587
11.225 0.0614444147793 34.3035604336 0.534738818838 -34.7660012041 0.587308672611 -110.340680621 0.604439756974 166.854209182 0.534738818838 -34.7660012041 0.0623573070655 33.8364919315 0.584284691179 -110.453042066 0.607270261852 -13.194983286 0.587308672611 -110.340680622 0.584284691179 -110.453042066 0.560066252303 -11.9441774068 0.00296899975868 84.1206125778 0.604439756974 166.854209182 0.607270261852 -13.194983286 0.00296899975871 84.1206125789 0.515622548537 14.8533854588
11.25 0.0668857659634 31.4943963847 0.538861338474 -36.8496783512 0.583800491384 -115.113827461 0.603598823071 164.2996784 0.538861338474 -36.8496783512 0.0677272438298 31.0736500549 0.580738927093 -115.226724609 0.60645145314 -15.7545446066 0.583800491384 -115.113827461 0.580738927093 -115.226724609 0.56737701563 -19.8129401307 0.00299854375282 79.5428787604 0.603598823071 164.2996784 0.60645145314 -15.7545446066 0.00299854375288 79.5428787625 0.517567524254 12.326784037
11.275 0.0723027438168 28.5261247457 0.543245680986 -38.9513516307 0.579952674173 -119.892052583 0.602752816419 161.74629882 0.543245680986 -38.9513516308 0.073071630517 28.1470056224 0.576855126683 -120.005509903 0.605625382484 -18.3130369168 0.579952674173 -119.892052583 0.576855126683 -120.005509903 0.575234441671 -27.6424308374 0.00302769362118 74.9607346042 0.602752816419 161.74629882 0.605625382484 -18.3130369168 0.00302769362127 74.9607346072 0.519516924916 9.80018982441
11.3 0.0776811098663 25.4321704216 0.547880282724 -41.0730068662 0.575765973263 -124.673876711 0.601901774287 159.194005143 0.547880282724 -41.0730068662 0.0783760556728 25.0902589004 0.572634122665 -124.787922821 0.604792040011 -20.8705134068 0.575765973263 -124.673876711 0.572634122664 -124.787922821 0.583601417902 -35.4264320292 0.00305640943854 70.3749057782 0.601901774287 159.194005143 0.60479204001 -20.8705134069 0.00305640943868 70.3749057823 0.521470610728 7.27356130652
11.325 0.0830076857387 22.2378394782 0.552751472068 -43.2163982631 0.571243020957 -129.45778449 0.601045731546 156.642730765 0.552751472068 -43.2163982631 0.0836272648443 21.929094189 0.568078618246 -129.572452403 0.603951427727 -23.4270281221 0.571243020957 -129.45778449 0.568078618246 -129.572452403 0.592436680705 -43.1594165337 0.00308465500876 65.7861549449 0.601045731546 156.642730765 0.603951427726 -23.4270281222 0.00308465500896 65.78615495 0.523428431767 4.74685668209
11.35 0.088270165052 18.9627470048 0.557843676242 -45.38302638 0.566388330651 -134.242236388 0.600184720032 154.092407742 0.557843676242 -45.38302638 0.0888129528078 18.6835263992 0.563193187358 -134.357563782 0.603103560667 -25.982636189 0.566388330651 -134.242236388 0.563193187358 -134.357563782 0.601695533088 -50.8365563418 0.00311239839558 61.1952702215 0.600184720032 154.092407742 0.603103560666 -25.9826361891 0.00311239839583 61.1952702275 0.525390227162 2.22003382015
11.375 0.0934570202439 15.622424778 0.563139665574 -47.5741229433 0.561208269501 -139.025681079 0.599318767858 151.542966759 0.563139665572 -47.5741229433 0.0939216546904 15.3694717292 0.55798424663 -139.141710564 0.602248468001 -28.5373940777 0.561208269501 -139.025681079 0.55798424663 -139.141710564 0.611330582789 -58.4537098309 0.00313961237682 56.6030525426 0.599318767858 151.542966759 0.602248468 -28.5373940778 0.00313961237711 56.6030525492 0.527355824207 -0.306949784311
11.4 0.0985574658755 12.2294110837 0.568620827438 -49.7906426953 0.555711002957 -143.806568069 0.5984478987 148.994337112 0.568620827436 -49.7906426953 0.0989426966918 11.9998222128 0.552459999381 -143.923347478 0.601386194078 -31.0913599077 0.555711002957 -143.806568069 0.552459999381 -143.923347478 0.62129247636 -66.0073911117 0.00316627480348 52.0103021233 0.5984478987 148.994337112 0.601386194076 -31.0913599077 0.00316627480381 52.0103021302 0.529325037382 -2.83413705597
11.425 0.103561454814 8.79400502857 0.574267461283 -52.0332621507 0.549906412261 -148.583360372 0.597572131044 146.446446691 0.574267461281 -52.0332621507 0.103866182053 8.58519535789 0.546630352757 -148.700943051 0.600516799349 -33.6445938002 0.549906412261 -148.583360373 0.546630352757 -148.700943051 0.631530608503 -73.4947255577 0.00319236884694 47.4178042524 0.597572131044 146.446446691 0.600516799347 -33.6445938002 0.00319236884728 47.417804259 0.531297667306 -5.36157138592
11.45 0.108459692268 5.32479839295 0.580059085695 -54.3023848595 0.543805986798 -153.354546988 0.596691477404 143.89922197 0.580059085694 -54.3023848595 0.108682996657 5.13446636307 0.540506809907 -153.472992107 0.599640361133 -36.1971582835 0.543805986798 -153.354546988 0.540506809907 -153.472992107 0.641993790075 -80.9133955413 0.00321788311934 42.8263146735 0.596691477404 143.89922197 0.599640361131 -36.1971582836 0.00321788311964 42.8263146789 0.53327349959 -7.88929667935
11.475 0.113243657808 1.82905692583 0.585974748503 -56.598152541 0.537422693945 -158.118654986 0.595805943504 141.352588016 0.585974748502 -56.598152541 0.11338482397 1.65515200898 0.534102339836 -158.238027863 0.598756974145 -38.7491187561 0.537422693945 -158.118654986 0.534102339836 -158.238027863 0.652630862546 -88.2615801018 0.00324281165511 38.2365448344 0.595805943504 141.352588016 0.598756974144 -38.7491187561 0.00324281165531 38.2365448377 0.535252303601 -10.4173574039
11.5 0.117905628804 -1.68700212195 0.591993331308 -58.9204612782 0.530770829641 -162.874260995 0.594915527436 138.806468493 0.591993331308 -58.9204612782 0.117964162427 -1.84630838999 0.52743122817 -162.99463343 0.597866750724 -41.3005440137 0.530770829641 -162.874260995 0.52743122817 -162.99463343 0.663391250816 -95.5378917925 0.00326715374448 33.6491472969 0.594915527436 138.806468493 0.597866750724 -41.3005440137 0.00326715374448 33.6491472968 0.537233831121 -12.9457986384
