! Generated from PyAEDT SolutionData; AEDT ExportNetworkData workaround
# GHz S MA R 50
9 0.449589964722 17.9377212109 0.278568175371 -55.2641420113 0.567959682758 -10.1323148138 0.63062701659 43.537396479 0.278568175371 -55.2641420113 0.448632059239 17.4251537086 0.569858552885 -10.3219017149 0.629595327808 -136.701331697 0.567959682758 -10.1323148138 0.569858552885 -10.3219017149 0.593870742388 168.508367453 0.000754851315505 -138.521026815 0.63062701659 43.537396479 0.629595327808 -136.701331697 0.000754851315505 -138.521026815 0.453782678546 -146.781698811
9.025 0.447479699556 14.8978170133 0.278068309581 -58.924588884 0.570224277392 -14.7277749631 0.630304854941 40.6699136936 0.278068309581 -58.924588884 0.446584787973 14.3773707963 0.572132239259 -14.918118704 0.629209635039 -139.56730809 0.570224277392 -14.7277749631 0.572132239259 -14.918118704 0.589499267056 162.615997039 0.000716474155049 -142.957953441 0.630304854941 40.6699136936 0.629209635039 -139.56730809 0.000716474155035 -142.957953441 0.454764232848 -149.441583896
9.05 0.445414424136 11.8692530446 0.277603479767 -62.5693203359 0.572424474681 -19.3091774709 0.62997819036 37.8100410287 0.277603479767 -62.5693203359 0.444583930552 11.3412912249 0.574340446909 -19.5002877736 0.628819936241 -142.425545725 0.572424474681 -19.3091774709 0.574340446909 -19.5002877736 0.585204215014 156.739990076 0.00067752940782 -147.276708179 0.62997819036 37.8100410287 0.628819936241 -142.425545725 0.000677529407802 -147.276708178 0.455754871715 -152.095998216
9.075 0.443392592466 8.85157308167 0.277174074724 -66.1987514717 0.574562605293 -23.8766468151 0.629647005558 34.9576361073 0.277174074724 -66.1987514717 0.442627903847 8.31648058904 0.576485495671 -24.06852954 0.62842625909 -145.276188558 0.574562605293 -23.8766468151 0.576485495671 -24.06852954 0.580984419734 150.880714634 0.000638075126052 -151.454506717 0.629647005558 34.9576361073 0.62842625909 -145.276188558 0.000638075126036 -151.454506716 0.456754500176 -154.745043978
9.1 0.441412522824 5.8443440799 0.276780415002 -69.8133069913 0.576641044819 -28.4303188327 0.629311280886 32.1125598859 0.276780415002 -69.8133069913 0.44071498517 5.30252755768 0.578569752044 -28.6229759254 0.628028627354 -148.119377154 0.576641044819 -28.4303188327 0.578569752044 -28.6229759254 0.576838361761 145.038491756 0.000598181143728 -155.462214829 0.629311280886 32.1125598859 0.628028627354 -148.119377154 0.000598181143717 -155.462214829 0.457763032423 -157.388821358
9.125 0.439472418666 2.84715685755 0.276422744734 -73.4134193218 0.57866220266 -32.9703402729 0.628970994166 29.274676574 0.276422744734 -73.4134193218 0.438843333163 2.29904454114 0.580595618053 -33.1637697142 0.62762706121 -150.955248792 0.57866220266 -32.9703402729 0.580595618053 -33.1637697142 0.572764204323 139.213597961 0.000557933716779 -159.2620303 0.628970994166 29.274676574 0.62762706121 -150.955248792 0.000557933716773 -159.2620303 0.458780391405 -160.027428583
9.15 0.437570387974 -0.140373366509 0.276101225832 -76.9995267691 0.580628511556 -37.4968683632 0.628626120568 26.4438535541 0.276101225832 -76.9995267691 0.437011007137 -0.694331790806 0.582565520779 -37.6910641232 0.627221577522 -153.783937566 0.580628511556 -37.4968683632 0.582565520779 -37.6910641232 0.568759826562 133.406267323 0.000517442395933 -162.80415284 0.628626120568 26.4438535541 0.627221577522 -153.783937566 0.000517442395933 -162.80415284 0.459806508419 -162.660962007
9.175 0.435704461154 -3.11860656737 0.275815934162 -80.5720717111 0.582542417772 -42.0100703865 0.628276632519 23.6199613025 0.275815934162 -80.5720717111 0.435215984996 -3.6779401259 0.584481902513 -42.2050223824 0.626812190095 -156.605574485 0.582542417772 -42.0100703865 0.584481902513 -42.2050223824 0.564822854434 127.616693158 0.000476850415766 -166.021942341 0.628276632519 23.6199613025 0.626812190095 -156.605574485 0.000476850415769 -166.021942341 0.460841322724 -165.289516188
9.2 0.433872607593 -6.08787762856 0.275566857375 -84.131498852 0.584406371908 -46.5101232678 0.627922499645 20.8028733123 0.275566857375 -84.131498852 0.433456179839 -6.65209424866 0.58634721156 -46.7058173262 0.626398909893 -159.42028757 0.584406371908 -46.5101232678 0.58634721156 -46.7058173262 0.560950689374 121.845029368 0.000436350733856 -168.824825011 0.627922499645 20.8028733123 0.626398909893 -159.42028757 0.000436350733861 -168.824825011 0.461884781148 -167.913183958
9.225 0.432072750969 -9.04849616481 0.275353894113 -87.6782535488 0.586222820325 -50.9972131696 0.627563688751 17.9924660169 0.275353894113 -87.6782535488 0.431729455336 -9.6170828903 0.588163893642 -51.1936309926 0.625981745243 -162.228201955 0.586222820325 -50.9972131696 0.588163893642 -51.1936309926 0.557140534837 116.091391506 0.000396211300916 -171.087917031 0.627563688751 17.9924660169 0.625981745243 -162.228201955 0.000396211300921 -171.087917031 0.462936837713 -170.532056492
9.25 0.430302783413 -12.000746443 0.275176854317 -91.2127802223 0.58799419717 -55.4715350944 0.627200163824 15.1886187167 0.275176854317 -91.2127802223 0.430033639982 -12.5731696789 0.589934383909 -55.6686542311 0.625560702 -165.029439975 0.58799419717 -55.4715350944 0.589934383909 -55.6686542311 0.553389420866 110.355857601 0.000356815539296 -172.637178566 0.627200163824 15.1886187167 0.625560702 -165.029439975 0.0003568155393 -172.637178566 0.463997453262 -173.146223375
9.275 0.428560578621 -14.9448873922 0.275035460459 -94.7355208593 0.589722916984 -59.9332924954 0.626831886065 12.3912135067 0.275035460459 -94.7355208593 0.428366540308 -15.5205931808 0.591661099518 -60.131086317 0.625135783702 -167.82412126 0.589722916984 -59.9332924954 0.591661099518 -60.131086317 0.549694226829 104.638468785 0.000318727620107 -173.229633528 0.626831886065 12.3912135067 0.625135783702 -167.82412126 0.000318727620109 -173.229633528 0.465066595089 -175.755772664
9.3 0.426844003976 -17.8811526943 0.274929349474 -98.2469136093 0.591411367855 -64.3826968924 0.626458813946 9.60013520651 0.274929349474 -98.2469136093 0.426725953146 -18.4595670239 0.593346432776 -64.5811345735 0.6247069917 -170.612362829 0.591411367855 -64.3826968924 0.593346432776 -64.5811345735 0.546051702476 98.9392297895 0.000282796006663 -172.532289986 0.626458813946 9.60013520651 0.6247069917 -170.612362829 0.000282796006663 -172.532289986 0.466144236582 -178.360790949
9.325 0.425150931787 -20.8097509483 0.27485807527 -101.747391481 0.593061905118 -68.8199674961 0.62608090329 6.81527129298 0.27485807527 -101.747391481 0.425109677014 -21.3902800971 0.594992744814 -69.0190139998 0.624274325268 -173.394279168 0.593061905118 -68.8199674961 0.594992744814 -69.0190139998 0.542458487466 93.25810933 0.000250306159605 -170.117837743 0.62608090329 6.81527129298 0.624274325268 -173.394279168 0.000250306159602 -170.117837743 0.467230356857 179.038636589
9.35 0.423479249693 -23.7308659007 0.27482111166 -105.237381139 0.594676845566 -73.2453308375 0.62569810737 4.03651183407 0.27482111166 -105.237381139 0.423515522686 -24.3128968164 0.596602359775 -73.4449469065 0.623837781697 -176.169982321 0.594676845566 -73.2453308375 0.596602359775 -73.4449469065 0.538911129505 87.5950404246 0.000223158497592 -165.533058377 0.62569810737 4.03651183407 0.623837781697 -176.169982321 0.000223158497589 -165.533058376 0.468324940413 176.442426123
9.375 0.421826870302 -26.644656737 0.274817855616 -108.717301796 0.596258462146 -77.6590204053 0.62531037703 1.26374942539 0.274817855616 -108.717301796 0.421941323034 -27.2275574541 0.598177559488 -77.859162558 0.623397356373 -178.939581969 0.596258462146 -77.6590204053 0.598177559488 -77.859162558 0.535406101225 81.9499206814 0.000203920242867 -158.550710399 0.62531037703 1.26374942539 0.623397356373 -178.939581969 0.000203920242864 -158.550710397 0.469427976772 173.850495128
9.4 0.420191740137 -29.5512584279 0.274847630756 -112.187564205 0.597808979125 -82.0612762897 0.624917660823 -1.50312087135 0.274847630756 -112.187564205 0.420384942173 -30.1343785227 0.599720578617 -82.2618968218 0.622953042838 178.296814493 0.597808979125 -82.0612762897 0.599720578617 -82.2618968218 0.531939815914 76.3226125773 0.000195374695565 -149.642436224 0.624917660823 -1.50312087135 0.622953042838 178.296814493 0.000195374695564 -149.64243622 0.47053946014 171.26276233
9.425 0.418571847915 -32.4507821249 0.274909690973 -115.648569746 0.599330567701 -86.452344835 0.62451990516 -4.26420158807 0.274909690973 -115.648569746 0.418844283979 -33.0334532106 0.601233600236 -86.6533918259 0.622504832839 175.539101876 0.599330567701 -86.452344835 0.601233600236 -86.6533918259 0.528508642227 70.712943752 0.000199315197431 -140.235984737 0.62451990516 -4.26420158807 0.622504832839 175.539101876 0.000199315197434 -140.235984733 0.471659389055 168.679147659
9.45 0.41696523224 -35.343315602 0.275003224164 -119.100709606 0.600825342019 -90.8324782992 0.624117054483 -7.01959290813 0.275003224164 -119.100709606 0.417317300023 -35.9248518627 0.602718751835 -91.0338956252 0.622052716365 172.787177129 0.600825342019 -90.8324782992 0.602718751835 -91.0338956252 0.525108917941 65.1207073334 0.000215428097324 -132.063307981 0.624117054483 -7.01959290813 0.622052716365 172.787177129 0.00021542809733 -132.063307977 0.472787766052 166.099572202
9.475 0.415369988726 -38.2289237373 0.275127355993 -122.544364041 0.602295355601 -95.2019345238 0.623709051443 -9.76939272248 0.275127355993 -122.544364041 0.415801996962 -38.8086225032 0.604178101715 -95.4036618755 0.621596681673 170.040939264 0.602295355601 -95.2019345238 0.604178101715 -95.4036618754 0.521736962871 59.545662308 0.000241611153218 -126.135431129 0.623709051443 -9.76939272248 0.621596681673 170.040939264 0.000241611153227 -126.135431126 0.473924597321 163.523958163
9.5 0.413784276609 -41.1076490321 0.275281153659 -125.979901727 0.60374259812 -99.5609766122 0.623295837091 -12.5136966842 0.275281153659 -125.979901727 0.414296443427 -41.6847913945 0.605613655745 -99.7629495184 0.621136715297 167.300289291 0.60374259812 -99.5609766122 0.605613655745 -99.7629495184 0.518389090993 53.9875339427 0.000275281109641 -122.543470907 0.623295837091 -12.5136966842 0.621136715297 167.300289291 0.000275281109651 -122.543470905 0.475069892372 160.952228819
9.525 0.412206324871 -43.979512163 0.275463629632 -129.407679188 0.605168992543 -103.90987262 0.622877351086 -15.2525982618 0.275463629632 -129.407679188 0.412798776452 -44.5533636305 0.607027354469 -104.112022476 0.620672802061 164.565130153 0.605168992543 -103.90987262 0.607027354469 -104.112022476 0.515061621856 48.4460142622 0.000314277188866 -120.909905109 0.622877351086 -15.2525982618 0.620672802061 164.565130153 0.000314277188875 -120.909905108 0.4762236637 158.384308483
9.55 0.410634437924 -46.8445125638 0.275673745343 -132.828040298 0.606576392576 -108.248895252 0.622453531904 -17.9861887908 0.275673745343 -132.828040298 0.411307207461 -47.4143237586 0.608421070537 -108.451149358 0.62020492507 161.835366664 0.606576392576 -108.248895252 0.608421070537 -108.451149358 0.511750891333 42.9207625829 0.000357062462171 -120.77616917 0.622453531904 -17.9861887908 0.62020492507 161.835366664 0.000357062462179 -120.77616917 0.477385926459 155.82012247
9.575 0.409067000872 -49.7026290346 0.275910414799 -136.241315853 0.607966580415 -112.578321582 0.62202431706 -20.7145575251 0.275910414799 -136.241315853 0.409820027853 -50.2676364289 0.609796606423 -112.780603177 0.619733065702 159.110905447 0.607966580415 -112.578321582 0.609796606423 -112.780603177 0.508453261761 37.4114060983 0.000402607667643 -121.755688504 0.62202431706 -20.7145575251 0.619733065702 159.110905447 0.00040260766765 -121.755688504 0.478556698132 153.259597057
9.6 0.407502484393 -52.5538203748 0.276172508128 -139.647823204 0.609341264772 -116.898432766 0.621589643339 -23.4377916864 0.276172508128 -139.647823204 0.408335614223 -53.1132470673 0.611155692423 -117.100661081 0.619257203593 156.391654882 0.609341264772 -116.898432766 0.611155692423 -117.100661081 0.505165131513 31.9175405124 0.000450230718395 -123.558667294 0.621589643339 -23.4377916864 0.619257203593 156.391654882 0.0004502307184 -123.558667293 0.479735998207 150.702659458
9.625 0.405939449253 -55.3980260384 0.276458855028 -143.047865956 0.610702079151 -121.209513792 0.621149447023 -26.1559765135 0.276458855028 -143.047865956 0.406852433218 -55.9510825692 0.612499984906 -121.411604094 0.61877731661 153.67752505 0.610702079151 -121.209513792 0.612499984906 -121.411604094 0.501882944057 26.4387307126 0.000499473866275 -125.976228515 0.621149447023 -26.1559765135 0.61877731661 153.67752505 0.000499473866277 -125.976228514 0.480923847857 148.149237788
9.65 0.404376550507 -58.235166809 0.276768248139 -146.441733715 0.61205058035 -125.511853224 0.620703664139 -28.8691953111 0.276768248139 -146.441733715 0.405369046089 -58.7810520131 0.613831064787 -125.713716879 0.618293380832 150.968427677 0.61205058035 -125.511853224 0.613831064787 -125.713716879 0.498603196518 20.9745114716 0.000550022939656 -128.858924415 0.620703664139 -28.8691953111 0.618293380832 150.968427677 0.000550022939656 -128.858924415 0.482120269624 145.59926104
9.675 0.402812541376 -61.0651454939 0.27709944632 -149.829701888 0.613388247179 -129.805742968 0.620252230694 -31.5775294977 0.27709944632 -149.829701888 0.403884112934 -61.6030473917 0.615150436212 -130.0072875 0.617805370516 148.264276096 0.613388247179 -129.805742968 0.615150436212 -130.0072875 0.495322447803 15.5243881696 0.000601656631607 -132.099124302 0.620252230694 -31.5775294977 0.617805370516 148.264276096 0.000601656631605 -132.099124302 0.483325287101 143.052659055
9.7 0.401246276862 -63.887847635 0.277451177845 -153.212031522 0.614716479363 -134.09147806 0.619795082926 -34.2810586535 0.277451177845 -153.212031522 0.402396396668 -64.4169443589 0.616459525433 -134.292607219 0.617313258068 145.564985188 0.614716479363 -134.09147806 0.616459525433 -134.292607219 0.49203732631 10.0878375247 0.000654214847439 -135.618338159 0.619795082926 -34.2810586535 0.617313258068 145.564985188 0.000654214847434 -135.618338159 0.484538924628 140.509362502
9.725 0.3996767171 -66.7031422379 0.277822143515 -156.588969189 0.616036596613 -138.369356453 0.619332157548 -36.9798605683 0.277822143515 -156.588969189 0.400904766753 -67.2226029936 0.617759679849 -138.569970287 0.616817014008 142.870471349 0.616036596613 -138.369356453 0.617759679849 -138.569970287 0.488744537276 4.6643083197 0.000707578731605 -139.358478889 0.619332157548 -36.9798605683 0.616817014008 142.870471349 0.000707578731599 -139.358478889 0.485761206984 137.969302851
9.75 0.398102930484 -69.5108825179 0.278211019702 -159.9607469 0.61734983785 -142.639678837 0.618863391997 -39.6740112893 0.278211019702 -159.9607469 0.399408202684 -70.0198685792 0.619052167191 -142.839673771 0.616316606941 140.180652442 0.61734983785 -142.639678837 0.619052167191 -142.839673771 0.485440869779 -0.746777884676 0.000761657835027 -143.275904534 0.618863391997 -39.6740112893 0.616316606941 140.180652442 0.000761657835019 -143.275904534 0.486992159085 135.432412356
9.775 0.396524096591 -72.3109066645 0.278616461328 -163.32758205 0.618657360567 -146.902748464 0.618388724679 -42.3635851687 0.278616461328 -163.32758205 0.397905797288 -72.8085723999 0.62033817485 -147.102017378 0.615812003522 137.495447763 0.618657360567 -146.902748464 0.62033817485 -147.102017378 0.48212320346 -6.14602606278 0.000816381698027 -147.337342529 0.618388724679 -42.3635851687 0.615812003522 137.495447763 0.000816381698019 -147.337342529 0.488231805691 132.898624038
9.8 0.394939508914 -75.1030386256 0.279037104788 -166.689677388 0.619960240294 -151.158870991 0.617908095215 -45.0486549123 0.279037104788 -166.689677388 0.396396759816 -75.5885325556 0.62161880931 -151.357303312 0.615303168429 134.814777999 0.619960240294 -151.158870991 0.62161880931 -151.357303312 0.478788514988 -11.5340670718 0.000871694211582 -151.517073873 0.617908095215 -45.0486549123 0.615303168429 134.814777999 0.000871694211574 -151.517073873 0.489480171115 130.367871662
9.825 0.393348577444 -77.8870889147 0.279471570832 -170.047221001 0.621259470185 -155.408354346 0.617421444683 -47.7292916279 0.279471570832 -170.047221001 0.394880418891 -78.3595547973 0.622895095689 -155.605836137 0.614790064332 132.138565199 0.621259470185 -155.408354346 0.622895095689 -155.605836137 0.475433884321 -16.9115570448 0.000927549761189 -155.794962734 0.617421444683 -47.7292916279 0.614790064332 132.138565199 0.000927549761181 -155.794962734 0.490737278935 127.84008973
9.85 0.391750831108 -80.6628554435 0.279918467418 -173.400386322 0.622555960677 -159.651508606 0.616928715853 -50.4055648743 0.279918467418 -173.400386322 0.393356225292 -81.1214333862 0.624167977359 -159.847922661 0.614272651877 129.466732739 0.622555960677 -159.651508606 0.624167977359 -159.847922661 0.472056500814 -22.2791768356 0.000983910537653 -160.155058357 0.616928715853 -50.4055648743 0.614272651877 129.466732739 0.000983910537646 -160.155058357 0.492003151718 125.315213459
9.875 0.390145920076 -83.4301243843 0.280376392551 -176.749332142 0.623850539235 -163.888645891 0.616429853421 -53.0775427109 0.280376392551 -176.749332142 0.391823754611 -83.8739519817 0.625438315647 -164.083871833 0.613750889662 126.799205294 0.623850539235 -163.888645891 0.625438315647 -164.083871833 0.468653669212 -27.6376315247 0.00104074462686 -164.584589011 0.616429853421 -53.0775427109 0.613750889662 126.799205294 0.00104074462685 -164.584589011 0.493277810748 122.793178777
9.9 0.388533617979 -86.1886710678 0.280843937122 179.905797378 0.625143950157 -168.120080279 0.615924804232 -55.7452917483 0.280843937122 179.905797378 0.390282709792 -86.6168845617 0.62670688959 -168.313994667 0.613224734231 124.135908809 0.625143950157 -168.120080279 0.62670688959 -168.313994667 0.465222815597 -32.9876499883 0.00109802462945 -169.073228028 0.615924804232 -55.7452917483 0.613224734231 124.135908809 0.00109802462945 -169.073228028 0.494561275757 120.273922305
9.925 0.386913824011 -88.938260923 0.281319687769 176.564872682 0.626436854433 -172.346127741 0.615413517499 -58.4088771984 0.281319687769 176.564872682 0.38873292356 -89.3499963828 0.627974395747 -172.538604172 0.612694140066 121.476770472 0.626436854433 -172.346127741 0.627974395747 -172.538604172 0.461761493323 -38.3299845376 0.00115572664758 -173.61255124 0.615413517499 -58.4088771984 0.612694140066 121.476770472 0.00115572664758 -173.61255124 0.495853564666 117.757381356
9.95 0.385286564964 -91.678650465 0.281802229767 173.227778808 0.627729829656 -176.567106087 0.614895945003 -61.0683629269 0.281802229767 173.227778808 0.387174360745 -92.0730449874 0.629241448052 -176.758015308 0.612159059599 118.821718695 0.627729829656 -176.567106087 0.629241448052 -176.758015308 0.458267389022 -43.6654106278 0.00121382953014 -178.195630872 0.614895945003 -61.0683629269 0.612159059599 118.821718695 0.00121382953013 -178.195630872 0.497154693336 115.243493918
9.975 0.383651997163 -94.4095883413 0.28229014999 169.894415383 0.629023369968 179.216665064 0.614372041298 -63.7238115052 0.28229014999 169.894415383 0.385607120507 -94.7857812652 0.630508577701 179.027455044 0.611619443219 116.170683086 0.629023369968 179.216665064 0.630508577701 179.027455044 0.454738328715 -48.9947266396 0.00127231430315 177.183272025 0.614372041298 -63.7238115052 0.611619443219 116.170683086 0.00127231430315 177.183272025 0.498464675321 112.732198656
10 0.382010408333 -97.1308164443 0.282782039945 166.564696627 0.63031788604 175.004864294 0.613841763884 -66.3752842638 0.282782039945 166.564696627 0.384031438448 -97.4879505795 0.631776233074 174.81748809 0.611075239305 113.523594433 0.63031788604 175.004864294 0.631776233074 174.81748809 0.451172284115 -54.3187537303 0.00133116373482 172.528943101 0.613841763884 -66.3752842638 0.611075239305 113.523594433 0.00133116373482 172.528943101 0.499783521635 110.223434902
10.025 0.380362219355 -99.842071102 0.283276498918 163.238551383 0.631613705084 170.797168382 0.613305073383 -69.0228413458 0.283276498918 163.238551383 0.382447688613 -100.179293969 0.633044779673 170.611763115 0.610526394258 110.880384685 0.631613705084 170.797168382 0.633044779673 170.611763115 0.447567379161 -59.6383357531 0.00139036199986 167.84539693 0.613305073383 -69.0228413458 0.610526394258 110.880384685 0.00139036199986 167.84539693 0.501111240521 107.717142653
10.05 0.37870798593 -102.543084358 0.283772137259 159.915923154 0.632911070891 166.59325227 0.612761933693 -71.6665417624 0.283772137259 159.915923154 0.380856385351 -102.859549434 0.634314500093 166.409957452 0.609972852558 108.240986933 0.632911070891 166.59325227 0.634314500093 166.409957452 0.443921896868 -64.9543392392 0.00144989441837 163.136019379 0.612761933693 -71.6665417624 0.609972852558 108.240986933 0.00144989441837 163.136019379 0.502447837235 105.213262565
10.075 0.377048400097 -105.233585354 0.284267579828 156.596770179 0.6342101439 162.39278902 0.612212312118 -74.3064434476 0.284267579828 156.596770179 0.379258185012 -105.528453327 0.635585594005 162.211746434 0.609414556825 105.605335398 0.6342101439 162.39278902 0.635585594005 162.211746434 0.440234286547 -70.267653436 0.00150974725122 158.403679827 0.612212312118 -74.3064434476 0.609414556825 105.605335398 0.00150974725122 158.403679827 0.503793313836 102.711735955
10.1 0.375384291592 -107.91330183 0.28476146965 153.281065529 0.635511001288 158.195449741 0.611656179494 -76.9426033149 0.28476146965 153.281065529 0.377653887452 -108.185741848 0.636858178171 158.016803319 0.608851447902 102.973365411 0.635511001288 158.195449741 0.636858178171 158.016803319 0.436503171466 -75.5791903938 0.0015699075391 153.650820389 0.611656179494 -76.9426033149 0.608851447902 102.973365411 0.0015699075391 153.650820389 0.505147668983 100.212504799
10.125 0.373716628993 -110.581961751 0.285252471802 149.968797237 0.6368136371 154.000903489 0.611093510285 -79.5750773138 0.285252471802 149.968797237 0.37604443728 -110.831152672 0.638132286472 153.824799197 0.608283464954 100.345013407 0.6368136371 154.000903489 0.638132286472 153.824799197 0.432727357014 -80.8898850898 0.00163036297577 148.87952741 0.611093510285 -79.5750773138 0.608283464954 100.345013407 0.00163036297577 148.87952741 0.506510897747 97.71551173
10.15 0.372046520606 -113.239295084 0.285739277586 146.659968464 0.638117962405 149.808817152 0.61052428266 -82.2039204879 0.285739277586 146.659968464 0.37443092482 -113.464426718 0.639407869974 149.635402869 0.607710545579 97.7202169101 0.638117962405 149.808817152 0.639407869974 149.635402869 0.428905839436 -86.2006955762 0.00169110180853 144.091589172 0.61052428266 -82.2039204879 0.607710545579 97.7202169101 0.00169110180853 144.091589172 0.507882991432 95.22070004
10.175 0.370375215011 -115.885035739 0.286220609029 143.354597699 0.639423805497 145.6188553 0.609948478552 -84.8291870321 0.286220609029 143.354597699 0.372814586688 -116.085310075 0.640684797019 145.448280702 0.607132625947 95.0989145209 0.639423805497 145.6188553 0.640684797019 145.448280702 0.425037815195 -91.5126031385 0.00175211276072 139.288542811 0.609948478552 -84.8291870321 0.607132625947 95.0989145209 0.00175211276072 139.288542811 0.509263937399 92.7280136814
10.2 0.368704101206 -118.518923678 0.28669522376 140.052719008 0.640730912148 141.430680007 0.609366083683 -87.4509303519 0.28669522376 140.052719008 0.371196805923 -118.693556097 0.641962853362 141.263096452 0.606549640951 92.4810459095 0.640730912148 141.430680007 0.641962853362 141.263096452 0.421122691037 -96.8266124435 0.00181338497256 134.471712689 0.609366083683 -87.4509303519 0.606549640951 92.4810459095 0.00181338497256 134.471712689 0.51065371891 90.2373972684
10.225 0.367034708243 -121.140707234 0.28716192032 136.754382312 0.64203894591 137.243950644 0.608777087579 -90.0692031222 0.28716192032 136.754382312 0.369579111569 -121.288927688 0.643241742351 137.079511059 0.605961524383 89.8665518049 0.64203894591 137.243950644 0.643241742351 137.079511059 0.41716009479 -102.143751659 0.00187490795739 129.642241982 0.608777087579 -90.0692031222 0.605961524383 89.8665518049 0.00187490795738 129.642241982 0.512052314979 87.74879608
10.25 0.365368704251 -123.750145626 0.287619543971 133.459653723 0.643347488499 133.058323632 0.60818148354 -92.6840573464 0.287619543971 133.459653723 0.367963177601 -123.871199795 0.644521085176 132.897182406 0.605368209126 87.2553739862 0.643347488499 133.058323632 0.644521085176 132.897182406 0.413149886977 -107.465072514 0.00193667157131 124.801118816 0.60818148354 -92.6840573464 0.605368209126 87.2553739862 0.0019366715713 124.801118816 0.513459700232 85.2621560626
10.275 0.363707894735 -126.347011712 0.288066993066 130.168615914 0.644656040247 128.873452156 0.607579268603 -95.295544416 0.288066993066 130.168615914 0.366350821066 -126.440162113 0.645800421177 128.715765039 0.604769627379 84.6474552747 0.644656040247 128.873452156 0.645800421177 128.715765039 0.409092173266 -112.791650279 0.00199866599488 119.94919802 0.607579268603 -95.295544416 0.604769627379 84.6474552747 0.00199866599487 119.94919802 0.514875844777 82.7774238336
10.3 0.362054219987 -128.931094972 0.288503226063 126.881368547 0.645964020662 124.688985843 0.606970443454 -97.9037151705 0.288503226063 126.881368547 0.364743999314 -128.995622022 0.647079208246 124.534909845 0.604165710896 82.0427395255 0.645964020662 124.688985843 0.647079208246 124.534909845 0.404987317811 -118.124583624 0.00206088172583 115.087219296 0.606970443454 -97.9037151705 0.604165710896 82.0427395255 0.00206088172583 115.087219296 0.516300714092 80.2945466847
10.325 0.360409751492 -131.502204758 0.288927269258 123.598028729 0.647270769092 120.504570378 0.606355012332 -100.508619957 0.288927269258 123.598028729 0.363144806139 -131.537407771 0.648356823328 120.354263681 0.603556391254 79.4411716194 0.647270769092 120.504570378 0.648356823328 120.354263681 0.400835957514 -123.464994314 0.00212330958233 110.215822481 0.606355012332 -100.508619957 0.603556391254 79.4411716194 0.00212330958232 110.215822481 0.517734268917 77.8134725858
10.35 0.358776687125 -134.060173799 0.289338225347 120.318731535 0.648575545527 116.319847075 0.605732982882 -103.110308689 0.289338225347 120.318731535 0.361555466695 -134.065371916 0.649632563028 116.173468953 0.602941600145 76.8426974548 0.648575545527 116.319847075 0.649632563028 116.173468953 0.396639017219 -128.8140267 0.00218594071651 105.335560405 0.605732982882 -103.110308689 0.602941600145 76.8426974548 0.00218594071651 105.335560405 0.519176465159 75.3341501893
10.375 0.357157344977 -136.604861989 0.289735282892 117.043630558 0.649877531541 112.134452385 0.605104365991 -105.708830908 0.289735282892 117.043630558 0.359978330964 -136.579395013 0.650905644368 111.992163125 0.602321269694 74.2472639395 0.649877531541 112.134452385 0.650905644368 111.992163125 0.392397725862 -134.172846948 0.00224876663852 100.446909748 0.605104365991 -105.708830908 0.602321269694 74.2472639395 0.00224876663851 100.446909748 0.520627253811 72.8565288332
10.4 0.355554155589 -139.136160454 0.290117726843 113.772898505 0.651175831412 107.948017323 0.604469175582 -108.30423584 0.290117726843 113.772898505 0.3584158656 -139.079389591 0.652175205686 107.809978172 0.601695332806 71.654818981 0.651175831412 107.948017323 0.652175205686 107.809978172 0.388113633564 -139.542641934 0.00231177925128 95.5502802572 0.604469175582 -108.30423584 0.601695332806 71.654818981 0.00231177925128 95.5502802572 0.522086580878 70.3805585458
10.425 0.353969652389 -141.653995907 0.290484950216 110.506727837 0.652469473429 103.76016683 0.603827428377 -110.896572455 0.290484950216 110.506727837 0.356870643921 -141.565304381 0.65344030771 103.62653994 0.601063723542 69.0653114775 0.652469473429 103.76016683 0.65344030771 103.62653994 0.383788629655 -144.924617737 0.00237497089672 90.6460225488 0.603827428377 -110.896572455 0.601063723542 69.0653114775 0.00237497089672 90.6460225488 0.523554387317 67.906190049
10.45 0.352406460089 -144.158335295 0.29083646709 107.245331429 0.653757411409 99.5705190312 0.603179143625 -113.485889525 0.29083646709 107.245331429 0.355345333812 -144.037128819 0.654699934826 99.4414674297 0.600426377514 66.478691307 0.653757411409 99.5705190312 0.654699934826 99.4414674297 0.379424961586 -150.319997635 0.00243833441422 85.7344347413 0.603179143625 -113.485889525 0.600426377514 66.478691307 0.00243833441422 85.7344347413 0.525030608985 65.433374762
10.475 0.350867280785 -146.649190723 0.291171927077 103.988943271 0.655038526456 95.3786843978 0.602524342794 -116.072235683 0.291171927077 103.988943271 0.353842683288 -146.494897816 0.65595299656 95.2543719679 0.599783232328 63.8949093159 0.655038526456 95.3786843978 0.65595299656 95.2543719679 0.375025254681 -155.730019503 0.00250186321242 80.8157680715 0.602524342794 -116.072235683 0.599783232328 63.8949093159 0.00250186321242 80.8157680715 0.526515176605 62.9620648044
10.5 0.349354877487 -149.12662466 0.291491131464 100.737819172 0.656311628978 91.1842647828 0.601863049225 -118.655659474 0.291491131464 100.737819172 0.352365503453 -148.938696771 0.657198329299 91.0648562668 0.599134228037 61.3139173056 0.656311628978 91.1842647828 0.657198329299 91.0648562668 0.370592532644 -161.155932485 0.00256555135565 75.890231639 0.601863049225 -118.655659474 0.599134228037 61.3139173056 0.00256555135565 75.890231639 0.528008015729 60.4922129992
10.525 0.347872054794 -151.590755412 0.291794051221 97.4922374827 0.657575460985 86.9868523252 0.601195287751 -121.236209418 0.291794051221 97.4922374827 0.350916648554 -151.368666829 0.658434698266 86.872513348 0.598479307643 58.7356680188 0.657575460985 86.9868523252 0.658434698266 86.872513348 0.366130238706 -166.5989928 0.00262939366658 70.9579963856 0.601195287751 -121.236209418 0.598479307643 58.7356680188 0.00262939366658 70.9579963856 0.529509046727 58.0237728747
10.55 0.346421636396 -154.04176284 0.292080847138 94.2524998079 0.658828698699 82.7860281948 0.600521084268 -123.813934057 0.292080847138 94.2524998079 0.34949899284 -153.785010354 0.659660799768 82.6769253117 0.597818417623 56.1601151227 0.658828698699 82.7860281948 0.659660799768 82.6769253117 0.361642257303 -172.060458517 0.00269338584676 66.0191983964 0.600521084268 -123.813934057 0.597818417623 56.1601151227 0.00269338584676 66.0191983964 0.531018184774 55.5566986671
10.575 0.345006439068 -156.479894316 0.292351892343 91.018931692 0.660069955484 78.5813611569 0.599840465281 -126.388882012 0.292351892343 91.018931692 0.348115403882 -156.187996601 0.66087526375 78.4776619295 0.59715150849 53.5872131916 0.660069955484 78.5813611569 0.66087526375 78.4776619295 0.357132936077 -177.541583109 0.00275752461724 61.0739415889 0.599840465281 -126.388882012 0.59715150849 53.5872131916 0.00275752461724 61.0739415889 0.532535339851 53.0909453208
10.6 0.343629242799 -158.905470884 0.292607797541 87.7918832673 0.66129778513 74.3724059281 0.599153457394 -128.961102035 0.292607797541 87.7918832673 0.346768712008 -158.577967558 0.662076656645 74.2742790316 0.596478535394 51.0169176863 0.66129778513 74.3724059281 0.662076656645 74.2742790316 0.352607108029 176.956392438 0.00282180788154 56.1222998396 0.599153457394 -128.961102035 0.596478535394 51.0169176863 0.00282180788154 56.1222998396 0.534060416757 50.6264684895
10.625 0.342292756663 -161.318893594 0.292849439333 84.5717298283 0.662510685505 70.1587012934 0.598460086758 -131.530643053 0.292849439333 84.5717298283 0.345461675469 -160.955343921 0.663263484565 70.0663166593 0.595799458758 48.4491849319 0.662510685505 70.1587012934 0.663263484565 70.0663166593 0.348070113547 171.432249212 0.00288623491365 51.164318583 0.598460086758 -131.530643053 0.595799458758 48.4491849319 0.00288623491365 51.164318583 0.535593315125 48.1632245357
10.65 0.340999580009 -163.720650006 0.293077992031 81.3588723068 0.663707102573 65.9397679443 0.597760378486 -134.097554224 0.293077992031 81.3588723068 0.344196940914 -163.32063118 0.664434196808 65.8532969436 0.595114244959 45.8839720926 0.663707102573 65.9397679443 0.664434196808 65.8532969436 0.343527822041 165.884801938 0.00295080657422 46.2000159045 0.597760378486 -134.097554224 0.595114244959 45.8839720926 0.00295080657422 46.2000159045 0.537133929451 45.7011705298
10.675 0.339752158496 -166.111320801 0.293294963488 78.1537376047 0.664885434812 61.7151059959 0.597054355998 -136.661884977 0.293294963488 78.1537376047 0.34297699872 -165.67442577 0.665587189702 61.6347216682 0.594422867043 43.3212371443 0.664885434812 61.7151059959 0.665587189702 61.6347216682 0.338986652824 160.312912844 0.00301552555839 41.2293831351 0.597054355998 -136.661884977 0.594422867043 43.3212371443 0.00301552555838 41.2293831351 0.538682149124 43.2402642475
10.7 0.338552734458 -168.491586502 0.293502235504 74.9567787374 0.666044038 57.4841921304 0.596342040333 -139.223685057 0.293502235504 74.9567787374 0.341804132659 -168.017421268 0.666720810778 57.4100694644 0.593725305503 40.7609388435 0.666044038 57.4841921304 0.666720810778 57.4100694644 0.334453594878 154.715508192 0.00308039667934 36.2523849469 0.596342040333 -139.223685057 0.593725305503 40.7609388435 0.00308039667934 36.2523849469 0.54023785847 40.7804641676
10.725 0.337403291004 -170.862234264 0.293702109497 71.7684747266 0.667181230388 53.2464763052 0.595623449394 -141.78300457 0.293702109497 71.7684747266 0.340680363323 -170.350414585 0.667833363234 53.1787925791 0.593021549095 38.2030366935 0.667181230388 53.2464763052 0.667833363234 53.1787925791 0.329936225059 149.091597868 0.00314542719248 31.2689589315 0.595623449394 -141.78300457 0.593021549095 38.2030366935 0.00314542719248 31.2689589315 0.541800936799 38.3217294675
10.75 0.336305489174 -173.224164728 0.293897358244 68.589330167 0.668295298205 49.0013779544 0.594898597132 -144.339894019 0.293897358244 68.589330167 0.33960738464 -172.67431215 0.668923110672 48.9403131431 0.592311595719 35.6474909073 0.668295298205 49.0013779544 0.668923110672 48.9403131431 0.325442724292 143.440298471 0.00321062716554 26.2790146348 0.594898597132 -144.339894019 0.592311595719 35.6474909073 0.00321062716554 26.2790146349 0.543371258453 35.8640200181
10.775 0.335260597377 -175.578398923 0.294091284635 65.4198743745 0.66938450147 44.7482815953 0.594167492661 -146.894404343 0.294091284635 65.4198743745 0.338586492698 -174.990136056 0.669988282044 44.6940188555 0.591595453365 33.0942623663 0.66938450147 44.7482815953 0.669988282044 44.6940188555 0.320981891283 137.760860377 0.00327600990134 21.282432005 0.594167492661 -146.894404343 0.591595453365 33.0942623663 0.00327600990134 21.282432005 0.544948692865 33.407296378
10.8 0.334269412174 -177.92608524 0.294287788565 62.2606600007 0.670447080036 40.4865317392 0.593430139304 -149.446586947 0.294287788565 62.2606600007 0.337618505979 -177.299030166 0.671027076717 40.4392579818 0.590873141132 30.5433125754 0.670447080036 40.4865317392 0.671027076717 40.4392579818 0.316563153257 132.052699272 0.00334159242081 16.2790591952 0.593430139304 -149.446586947 0.590873141132 30.5433125754 0.0033415924208 16.2790591953 0.546533104619 30.9515197855
10.825 0.333332169321 179.731493498 0.294491443316 59.1122609697 0.671481259751 36.2154269804 0.592686533534 -151.996493739 0.294491443316 59.1122609697 0.336703675884 -179.602266199 0.672037669537 36.1753335454 0.590144690334 27.9946036144 0.671481259751 36.2154269804 0.672037669537 36.1753335454 0.312196573328 126.315432699 0.00340739601541 11.2687096449 0.592686533534 -151.996493739 0.590144690334 27.9946036144 0.00340739601541 11.2687096449 0.54812435351 28.4966521506
10.85 0.332448443749 177.39291281 0.294707583015 55.9752695604 0.672485258604 31.9342131156 0.591936663831 -154.544177156 0.294707583015 55.9752695604 0.335841586241 178.098750167 0.673018215737 31.9014965634 0.589410145703 25.4480980839 0.672485258604 31.9342131156 0.673018215737 31.9014965634 0.307892854164 120.548922142 0.00347344688004 6.25115833855 0.591936663831 -154.544177156 0.589410145703 25.4480980839 0.00347344688005 6.25115833853 0.549722294609 26.0426560446
10.875 0.331617036869 175.056599079 0.294942403096 52.8502924139 0.673457292642 27.6420751136 0.591180509406 -157.089690183 0.294942403096 52.8502924139 0.335031040166 175.802473121 0.673966855421 27.616938152 0.588669566714 22.903759047 0.673457292642 27.6420751136 0.673966855421 27.616938152 0.303663337861 114.753321209 0.00353977683936 1.22613711751 0.591180509406 -157.089690183 0.588669566714 22.903759047 0.00353977683936 1.22613711745 0.55132677833 23.5894946892
10.9 0.330835849257 172.720821679 0.295203076077 49.7379451899 0.674395581357 23.3381277152 0.590418038796 -159.633086385 0.295203076077 49.7379451899 0.334269932285 173.507210352 0.674881717347 23.3207802831 0.587923029042 20.3615499657 0.674395581357 23.3381277152 0.674881717347 23.3207802831 0.299520002244 108.929130424 0.00360642418346 -3.80667111749 0.590418038796 -159.633086385 0.587923029042 20.3615499657 0.00360642418347 -3.80667111761 0.552937650486 21.1371319437
10.925 0.330101736306 170.383684537 0.29549788546 46.6388455338 0.675298352176 19.0214043959 0.589649208285 -162.174419911 0.29549788546 46.6388455338 0.333555103812 171.211116368 0.675760921536 19.0120649302 0.587170626199 17.8214346308 0.675298352176 19.0214043959 0.675760921536 19.0120649302 0.295475454325 103.077259138 0.00367343463207 -8.84763951333 0.589649208285 -162.174419911 0.587170626199 17.8214346308 0.00367343463209 -8.84763951352 0.55455475236 18.6855322913
10.95 0.329410343915 168.043116847 0.295836381123 43.5536039257 0.676163843489 14.6908443624 0.588873960123 -164.713745515 0.295836381123 43.5536039257 0.332882177359 168.912185286 0.676602580153 14.6897412793 0.586412471355 15.2833770856 0.676163843489 14.6908443624 0.676602580153 14.6897412793 0.291542922442 97.1990949811 0.00374086245025 -13.8972059362 0.588873960123 -164.713745515 0.586412471355 15.2833770856 0.00374086245027 -13.8972059365 0.556177920759 16.2346608236
10.975 0.328755920603 165.696862654 0.296229560374 40.4828118838 0.676990305498 10.3452771769 0.588092220512 -167.25111856 0.296229560374 40.4828118838 0.332245367489 166.608242873 0.677404795833 10.3526506041 0.585648699427 12.7473415414 0.676990305498 10.3452771769 0.677404795833 10.3526506041 0.287736249679 91.2965812467 0.00380877174395 -18.9558835289 0.588092220512 -167.25111856 0.585648699427 12.7473415414 0.00380877174398 -18.9558835293 0.55780698807 13.7844832235
11 0.328131101764 163.342468923 0.29669007971 37.4270268573 0.677775997867 5.98340450358 0.587303897277 -169.786595015 0.296690079709 37.4270268573 0.331637261885 164.296937509 0.678165656411 5.99950831054 0.584879469445 10.2132922843 0.677775997867 5.98340450358 0.678165656411 5.99950831054 0.284069892763 85.3723024665 0.00387723796965 -24.0242735597 0.587303897277 -169.786595015 0.584879469445 10.2132922843 0.00387723796967 -24.0242735601 0.559441782311 11.3349657474
11.025 0.327526661078 160.977271767 0.297232503533 34.3867529816 0.678519182823 1.60377834914 0.586508877184 -172.320231448 0.297232503533 34.3867529816 0.331048566335 161.975729751 0.678883224545 1.62888252918 0.584104967316 7.68119356992 0.678519182823 1.60377834914 0.678883224545 1.62888252918 0.280558932836 79.4295783708 0.00394634969999 -29.1030810767 0.586508877184 -172.320231448 0.584104967316 7.68119356991 0.00394634970002 -29.1030810772 0.561082127176 8.88607520442
11.05 0.326931223908 158.598380806 0.297873597551 31.3624166543 0.679218111792 -2.79522499668 0.585707022796 -174.852085007 0.297873597551 31.3624166543 0.330467804243 159.641880138 0.679555520276 -2.76083152327 0.583325409026 5.151009505 0.679218111792 -2.79522499668 0.679555520276 -2.76083152327 0.277219107547 73.4725663105 0.00401621069683 -34.1931340243 0.585707022796 -174.852085007 0.583325409026 5.15100950499 0.00401621069686 -34.1931340249 0.562727842072 6.4377789357
11.075 0.326330938251 156.20266315 0.298632676431 28.3543356274 0.679871003002 -7.21543632112 0.584898168759 -177.382213387 0.298632676431 28.3543356274 0.329880956807 157.292434989 0.680180493738 -7.17144239949 0.582541044436 2.62270391025 0.679871003002 -7.21543632112 0.680180493738 -7.17144239949 0.274066878101 67.5063721263 0.00408694235451 -39.295406658 0.584898168759 -177.382213387 0.582541044436 2.62270391025 0.00408694235454 -39.2954066586 0.564378742149 3.99004479041
11.1 0.325709097393 153.786735065 0.299532017749 25.3626799666 0.680476006433 -11.6589314252 0.584082117372 -179.910674778 0.299532017749 25.3626799666 0.329271020446 154.924210173 0.680755984255 -11.6049997494 0.581752161789 0.0962401600234 0.680476006433 -11.6589314252 0.680755984255 -11.6049997494 0.27111955066 61.5371693652 0.00415868659082 -44.4110483348 0.584082117372 -179.910674778 0.581752161789 0.0962401600199 0.00415868659085 -44.4110483354 0.566034638317 1.54284110093
11.125 0.325045633568 151.347000854 0.3005973573 22.3874227956 0.681031151092 -16.1280772736 0.583258633263 177.562472213 0.3005973573 22.3874227956 0.328617432657 152.533772996 0.681279660542 -16.0638397303 0.580959093133 -2.42841900989 0.681031151092 -16.1280772736 0.681279660542 -16.0638397303 0.268395479327 55.5723266578 0.00423160928082 -49.5414190696 0.583258633263 177.562472214 0.580959093133 -2.42841900989 0.00423160928084 -49.5414190701 0.567695337265 -0.903863344377
11.15 0.324315181162 148.879879236 0.301858484885 19.4282781767 0.68153426757 -20.6255884718 0.582427436904 175.037168677 0.301858484885 19.4282781767 0.327895239911 150.117418393 0.68174893466 -20.5506405798 0.580162220899 -4.95131173767 0.68153426757 -20.6255884718 0.68174893466 -20.5506405798 0.265914388722 49.6205429422 0.00430590435078 -54.6881336653 0.582427436904 175.037168677 0.580162220899 -4.95131173767 0.00430590435079 -54.6881336656 0.569360641456 -3.35009933043
11.175 0.323477176483 146.380645968 0.303349964884 16.4846227483 0.681982875889 -25.1545968225 0.58158819667 172.513355565 0.303349964884 16.4846227483 0.327073661561 147.671094066 0.682160839321 -25.0684910583 0.579361985949 -7.47247733106 0.681982875889 -25.1545968225 0.682160839321 -25.0684910583 0.263697868988 43.6919899562 0.0043817986768 -59.8531167818 0.58158819667 172.513355565 0.579361985949 -7.47247733106 0.0043817986768 -59.8531167819 0.571030349127 -5.79589724712
11.2 0.322508348245 143.840732136 0.305112012743 13.5553967761 0.682374024403 -29.7187375766 0.580740518997 169.990973929 0.305112012743 13.5553967761 0.326113920781 145.189947546 0.68251185378 -29.6209753173 0.578558897506 -9.99195664755 0.682374024403 -29.7187375766 0.68251185378 -29.6209753173 0.261770116599 37.7984608157 0.00445955796578 -65.0386720613 0.580740518997 169.990973929 0.578558897506 -9.99195664755 0.00445955796576 -65.038672061 0.572704254267 -8.24128712372
11.225 0.321376982486 141.258030809 0.307191567468 10.6389789999 0.682704059239 -34.3222571617 0.579883936116 167.469965272 0.307191567468 10.6389789999 0.32497473168 142.667088917 0.682797657107 -34.2122788976 0.577753545516 -12.5097925955 0.682704059239 -34.3222571617 0.682797657107 -34.2122788976 0.260159023041 31.9535221864 0.00453949383683 -70.2475694481 0.579883936116 167.469965272 0.577753545516 -12.5097925955 0.00453949383681 -70.2475694474 0.574382146603 -10.6862986666
11.25 0.3200232198 138.626481068 0.309643612054 7.733027949 0.682968294454 -38.9701487804 0.579017890599 164.950272056 0.309643612054 7.733027949 0.323624543942 140.097111329 0.683012778074 -38.8473221425 0.576946616142 -15.0260308095 0.682968294454 -38.9701487804 0.683012778074 -38.8473221425 0.258897753773 26.1726648656 0.00462197236865 -75.4831562468 0.579017890599 164.950272056 0.576946616142 -15.0260308095 0.00462197236861 -75.4831562457 0.576063811569 -13.1309613007
11.275 0.318385526213 135.938561225 0.312532809411 4.83428007252 0.683160539057 -43.6683244983 0.578141715773 162.431838451 0.312532809411 4.83428007252 0.321999346603 137.476987902 0.683150096572 -43.5319294991 0.576138911337 -17.5407205808 0.683160539057 -43.6683244983 0.683150096572 -43.5319294991 0.258027017073 20.4734424134 0.00470742443228 -80.7494994013 0.578141715772 162.431838451 0.576138911337 -17.5407205808 0.00470742443224 -80.7494993998 0.577749030284 -15.5753042157
11.3 0.316390891544 133.185963898 0.315935542059 1.93829183757 0.683272415707 -48.4238355565 0.577254610698 159.914611452 0.315935542059 1.93829183756 0.32001570921 134.799286335 0.683200129703 -48.2730462417 0.575331373738 -20.0539161633 0.683272415707 -48.4238355564 0.683200129703 -48.2730462417 0.257598303789 14.8755779364 0.00479635818553 -86.051569196 0.577254610698 159.914611452 0.575331373738 -20.0539161633 0.00479635818548 -86.0515691941 0.579437579535 -18.0193564179
11.325 0.313950475039 130.359134637 0.319942471087 -0.960891520572 0.683292372961 -53.2451570541 0.576355608014 157.398542541 0.319942471087 -0.960891520586 0.317584006174 132.055177961 0.683150002138 -53.0790184758 0.574525118508 -22.5656786408 0.683292372961 -53.2451570541 0.683150002138 -53.0790184758 0.257678495142 9.40100228745 0.00488937415499 -91.3954784099 0.576355608013 157.398542541 0.574525118508 -22.5656786407 0.00488937415494 -91.3954784077 0.581129231774 -20.4631467898
11.35 0.31095531552 127.44684515 0.324661765394 -3.87116423703 0.683204241414 -58.1425594394 0.575443532409 154.883590211 0.324661765394 -3.87116423705 0.314596258641 129.235024564 0.682981947989 -57.9599584558 0.573721474284 -25.0760786415 0.683204241414 -58.1425594394 0.682981947989 -57.9599584558 0.258356401094 4.07375819812 0.00498718335264 -96.7887964142 0.575443532409 154.883590211 0.573721474284 -25.0760786415 0.0049871833526 -96.7887964119 0.582823755155 -22.9067041591
11.375 0.3072706609 124.435676638 0.330223197402 -6.80291797915 0.682985102275 -63.1285983271 0.574516946844 152.369723807 0.330223197402 -6.80291797917 0.310918582596 126.327733659 0.682671108486 -62.9282261464 0.572922035989 -27.5852003459 0.682985102275 -63.128598327 0.682671108486 -62.9282261465 0.259752024972 -1.08034252864 0.00509062881994 -102.240965545 0.574516946844 152.369723807 0.572922035989 -27.5852003459 0.00509062881991 -102.240965543 0.584520913612 -25.3500573807
11.4 0.302728219385 121.309326651 0.336783356546 -9.76977550966 0.682602105086 -68.2187673827 0.573574082941 149.856929479 0.336783356546 -9.76977550967 0.306383415282 123.320188315 0.682182256288 -67.9990708965 0.572128733021 -30.093147495 0.682602105086 -68.2187673827 0.682182256288 -67.9990708965 0.2620296737 -6.03449681828 0.00520071076622 -107.763858441 0.573574082941 149.856929479 0.572128733021 -30.093147495 0.0052007107662 -107.76385844 0.586220467034 -27.793235435
11.425 0.297115411437 118.04764631 0.34453229259 -12.7895655414 0.68200765542 -73.432378418 0.572612751446 147.345219455 0.34453229259 -12.7895655414 0.300778851854 120.196629755 0.681464859204 -73.1914960567 0.571343916946 -32.600052528 0.68200765542 -73.432378418 0.681464859204 -73.1914960567 0.265416468445 -10.7624246334 0.00531861487532 -113.372531586 0.572612751446 147.345219455 0.571343916946 -32.600052528 0.00531861487531 -113.372531585 0.587922171561 -30.2362675504
11.45 0.290160235254 114.625272611 0.353701952093 -15.8856332617 0.681132034427 -78.7937614824 0.571630228942 144.834646709 0.353701952093 -15.8856332617 0.293833523404 116.937897084 0.68044553412 -78.5294373076 0.570570473041 -35.1060906809 0.681132034427 -78.7937614824 0.68044553412 -78.5294373076 0.270228367622 -15.2410804408 0.00544574199588 -119.086254454 0.571630228942 144.834646709 0.570570473041 -35.1060906809 0.00544574199587 -119.086254454 0.589625780091 -32.679183357
11.475 0.281509615005 111.00964089 0.364576770146 -19.0886242033 0.67987190586 -84.3339200648 0.570623119586 142.325328403 0.364576770146 -19.0886242032 0.285194863327 113.520488427 0.679016331967 -84.0433866108 0.569811958634 -37.6115020369 0.67987190586 -84.3339200648 0.679016331967 -84.0433866108 0.276906464403 -19.4552198641 0.0055837344978 -124.929928875 0.570623119586 142.325328403 0.569811958634 -37.6115020369 0.0055837344978 -124.929928875 0.591331043094 -35.1220130865
11.5 0.270697922517 107.158018067 0.377506616582 -22.4389431413 0.678072128516 -90.0928386125 0.569587199392 139.817483706 0.377506616582 -22.4389431413 0.274397404446 109.915487403 0.677016252621 -89.7726538028 0.569072765609 -40.1166264579 0.678072128516 -90.0928386125 0.677016252621 -89.7726538028 0.286066946465 -23.4046693323 0.0057344884208 -130.936063739 0.569587199392 139.817483706 0.569072765609 -40.1166264579 0.0057344884208 -130.936063739 0.593037709908 -37.5647878349
