! Generated from PyAEDT SolutionData; AEDT ExportNetworkData workaround
# GHz S MA R 50
9 0.622645748192 31.2410193903 0.257919118936 -54.6795506295 0.506904649789 1.42740058239 0.53743620679 37.5985111851 0.257919118936 -54.6795506295 0.626823823049 30.3689597478 0.510704533019 1.38454857896 0.528914457072 -142.262907012 0.506904649789 1.42740058239 0.510704533019 1.38454857896 0.694420648709 173.743471761 0.00291866786016 58.9657106156 0.53743620679 37.5985111851 0.528914457072 -142.262907012 0.00291866786016 58.9657106156 0.656812988689 -158.51879153
9.025 0.621041274165 28.1861996056 0.25765335669 -58.216580114 0.509309980619 -3.09829508393 0.537146052094 34.8071009354 0.25765335669 -58.216580114 0.625241346965 27.3144303839 0.513116926651 -3.14165313066 0.528582300056 -145.049644549 0.509309980619 -3.09829508391 0.513116926651 -3.14165313068 0.690885523863 167.857133233 0.00294244965546 54.1658823955 0.537146052093 34.8071009354 0.528582300056 -145.049644549 0.00294244965536 54.1658823974 0.657317373513 -161.013767957
9.05 0.619466379173 25.1412310363 0.257403820434 -61.7401595193 0.511659667291 -7.61018513128 0.536851086528 32.0232208314 0.257403820434 -61.7401595193 0.623688547289 24.2698998298 0.515473326229 -7.65401569444 0.528245588069 -147.828867542 0.511659667291 -7.61018513126 0.515473326229 -7.65401569446 0.687393194027 161.986593331 0.00296597938873 49.3802110461 0.536851086528 32.0232208314 0.528245588069 -147.828867542 0.00296597938857 49.3802110491 0.657828689392 -163.503118287
9.075 0.617919768918 22.1057881027 0.257171680565 -65.250585196 0.513955641857 -12.1082838858 0.536551442325 29.2467402638 0.257171680565 -65.2505851961 0.62216412332 21.23503743 0.517775691837 -12.1525541121 0.527904458923 -150.600706083 0.513955641857 -12.1082838858 0.517775691837 -12.1525541121 0.683944080271 156.132617871 0.00298926229963 44.6087317645 0.536551442325 29.2467402638 0.527904458923 -150.600706083 0.00298926229944 44.6087317681 0.658346679792 -165.986940835
9.1 0.616400013798 19.0795624369 0.256957979015 -68.748182925 0.51619997432 -16.5926283179 0.536247248565 26.477531315 0.256957979015 -68.748182925 0.620666634925 18.2095296804 0.520026122555 -16.6373059708 0.527559044966 -153.365287359 0.51619997432 -16.5926283178 0.520026122555 -16.6373059708 0.680538006468 150.295854622 0.00301230504813 39.8514568865 0.536247248565 26.477531315 0.527559044967 -153.365287359 0.00301230504794 39.8514568903 0.658871097971 -168.465331849
9.125 0.614905568055 16.0622630972 0.256763631413 -72.2333038865 0.518394852175 -21.0632767758 0.535938630752 23.7154687318 0.256763631413 -72.2333038865 0.619194521988 15.1930804572 0.522226835828 -21.1083301905 0.527209473473 -156.122735729 0.518394852175 -21.0632767758 0.522226835828 -21.1083301905 0.677174255836 144.476841716 0.00303511556147 35.1083769797 0.535938630752 23.7154687318 0.527209473473 -156.122735729 0.00303511556128 35.1083769833 0.659401706665 -170.938385571
9.15 0.613434787567 13.0536166959 0.256589429751 -75.706320874 0.520542560983 -25.5203077781 0.535625710477 20.960429893 0.256589429751 -75.706320874 0.617746122517 12.1854111578 0.524380147865 -25.5657058261 0.526855866984 -158.873172809 0.520542560983 -25.520307778 0.524380147865 -25.5657058261 0.673851626867 138.676015791 0.00305770288668 30.3794619028 0.535625710477 20.960429893 0.526855866985 -158.873172809 0.00305770288651 30.379461906 0.659938277768 -173.406194295
9.175 0.611985946386 10.0533674515 0.256436045439 -79.1676247571 0.522645466005 -29.9638188608 0.535308605164 18.2122947731 0.256436045439 -79.1676247571 0.616319689456 9.1862607646 0.52648845513 -30.0095309246 0.526498343625 -161.616717549 0.522645466005 -29.9638188608 0.52648845513 -30.0095309246 0.670568487735 132.893719774 0.00308007704988 25.6646618306 0.535308605164 18.2122947731 0.526498343626 -161.616717549 0.00308007704975 25.6646618333 0.660480592026 -175.868848431
9.2 0.610557252073 7.06127717368 0.256304032672 -82.6176211948 0.52470599495 -34.3939254814 0.534987427886 15.4709459018 0.256304032672 -82.6176211948 0.614913406297 6.19538583991 0.528554216939 -34.4399214373 0.526137017375 -164.353486317 0.52470599495 -34.3939254814 0.528554216939 -34.4399214373 0.667322828421 127.130210216 0.00310224892293 20.9639082451 0.534987427886 15.4709459018 0.526137017375 -164.353486317 0.00310224892282 20.9639082472 0.661028438726 -178.32643656
9.225 0.609146859919 4.07712518921 0.256193832008 -86.0567275978 0.526726621839 -38.8107599749 0.534662287242 12.7362683209 0.256193832008 -86.0567275978 0.613525401558 3.2125604616 0.530579939192 -38.857010184 0.525771998313 -167.083592978 0.526726621839 -38.8107599749 0.530579939192 -38.857010184 0.664112310045 121.385664133 0.00312423009783 16.2771148932 0.534662287242 12.7362683209 0.525771998313 -167.083592978 0.00312423009775 16.2771148948 0.661581615401 179.220954506
9.25 0.607752886114 1.10070821733 0.256105774105 -89.4853703344 0.528709851981 -43.2144705622 0.534333287292 10.0081495387 0.256105774105 -89.4853703344 0.612153762191 0.237576106134 0.53256815923 -43.2609458675 0.525403392836 -169.807148974 0.528709851981 -43.2144705622 0.53256815923 -43.2609458675 0.660934311002 115.660185323 0.00314603276944 11.6041787108 0.534333287292 10.0081495387 0.525403392836 -169.807148974 0.00314603276939 11.6041787119 0.662139927534 176.773239672
9.275 0.606373419931 -1.8681597999 0.256040083532 -92.9039821744 0.530658208053 -47.605220407 0.534000527542 7.28647948296 0.256040083532 -92.9039821745 0.610796546002 -2.72975851358 0.5345214318 -47.6518921371 0.525031303848 -172.524263398 0.530658208053 -47.605220407 0.5345214318 -47.6518921371 0.657785969675 109.953810128 0.00316766962635 6.9449807136 0.534000527542 7.28647948296 0.525031303848 -172.524263398 0.00316766962632 6.94498071419 0.662703188265 174.3303355
9.3 0.605006535005 -4.82964790487 0.255996882631 -96.3129999626 0.532574217254 -51.9831867192 0.533664102967 4.57115045128 0.255996882631 -96.3129999626 0.609451793145 -5.68961764912 0.536442316113 -52.0300266965 0.524655830929 -175.235043072 0.532574217254 -51.9831867192 0.536442316113 -52.0300266965 0.654664223621 104.266512658 0.00318915375014 2.29938685437 0.533664102967 4.57115045128 0.524655830929 -175.235043072 0.00318915375013 2.29938685456 0.663271218113 171.892160157
9.325 0.603650299751 -7.78390836426 0.255976195361 -99.7128625106 0.534460399496 -56.3485599023 0.533324104077 1.86205706161 0.255976195361 -99.7128625106 0.60811753675 -8.64215875051 0.538333363939 -56.3955404561 0.524277070485 -177.939592621 0.534460399496 -56.3485599023 0.538333363939 -56.3955404561 0.651565845203 98.5982094769 0.00321049852277 -2.33275115189 0.533324104077 1.86205706161 0.524277070485 -177.939592621 0.00321049852278 -2.33275115202 0.663843844695 169.458633363
9.35 0.602302786997 -10.7310769358 0.255977951105 -103.104008699 0.536319256595 -60.7015427418 0.532980617011 -0.840903798666 0.255977951105 -103.104008699 0.60679181275 -11.5875227279 0.540197108719 -60.7486367244 0.523895115877 179.361985459 0.536319256595 -60.7015427418 0.540197108719 -60.7486367244 0.648487473764 92.948763768 0.0032317175419 -6.95159503544 0.532980617011 -0.840903798665 0.523895115877 179.361985459 0.00323171754191 -6.95159503582 0.664420902452 167.029676339
9.375 0.600962082878 -13.6712731577 0.256001988406 -106.486875778 0.538153262414 -65.0423496316 0.532633723657 -3.53783302389 0.256001988406 -106.486875778 0.605472668963 -14.5258342363 0.542036055634 -65.089530438 0.523510057533 176.669590725 0.538153262414 -65.0423496316 0.542036055634 -65.089530438 0.645425644452 87.317989023 0.00325282454378 -11.5573192106 0.532633723657 -3.53783302389 0.523510057533 176.669590725 0.00325282454381 -11.5573192112 0.665002232384 164.605211759
9.4 0.599626295055 -16.6046006551 0.256048058612 -109.861897851 0.5399648539 -69.3712058364 0.532283501792 -6.22882934141 0.256048058612 -109.861897851 0.604158173487 -17.4572019781 0.543852672583 -69.4184474262 0.523121983055 173.983124725 0.5399648539 -69.3712058364 0.543852672583 -69.4184474262 0.642376813892 81.7056522726 0.00327383333348 -16.1501100453 0.532283501792 -6.22882934141 0.523121983055 173.983124725 0.00327383333351 -16.1501100459 0.665587681789 162.185163699
9.425 0.598293560302 -19.5311474622 0.256115829416 -113.229504534 0.541756422972 -73.6883467868 0.53193002525 -8.91398936289 0.256115829416 -113.229504534 0.602846422455 -20.3817190206 0.545649382008 -73.7356237079 0.522730977302 171.302490931 0.541756422972 -73.6883467868 0.545649382008 -73.7356237079 0.639337382921 76.1114769067 0.00329475772177 -20.73016516 0.53193002525 -8.91398936289 0.522730977302 171.302490931 0.00329475772181 -20.7301651607 0.666177104005 159.769457591
9.45 0.596962051516 -22.4509863527 0.256204888266 -116.590119781 0.5435303092 -77.9940174053 0.531573364092 -11.5934076353 0.256204888266 -116.590119781 0.601535547202 -23.2994631238 0.547428553532 -78.0413048187 0.522337122472 168.627594674 0.5435303092 -77.9940174053 0.547428553532 -78.0413048187 0.636303716617 70.5351451221 0.00331561146847 -25.2976927557 0.531573364092 -11.5934076353 0.522337122472 168.627594674 0.0033156114685 -25.2976927563 0.666770358161 157.358020177
9.475 0.595629984196 -25.3641751788 0.256314745658 -119.944160849 0.545288793216 -82.2884714594 0.531213584792 -14.2671766914 0.256314745658 -119.944160849 0.600223720897 -26.2104970756 0.549192497321 -82.3357451655 0.521940498171 165.958343086 0.545288793216 -82.2884714594 0.549192497321 -82.3357451655 0.633272161872 64.9763000377 0.0033364082315 -29.852910969 0.531213584792 -14.2671766914 0.521940498171 165.958343086 0.00333640823153 -29.8529109696 0.66736730893 154.950779466
9.5 0.594295622431 -28.2707572134 0.256444838285 -123.292037418 0.547034090808 -86.5719709416 0.530850750436 -16.9353871 0.256444838285 -123.292037418 0.598909164672 -29.1148690308 0.55094345815 -86.6192074069 0.521541181474 163.294645039 0.547034090808 -86.5719709416 0.55094345815 -86.6192074069 0.630239062768 59.4345475193 0.00335716152138 -34.3960472537 0.530850750436 -16.9353871 0.521541181474 163.294645039 0.00335716152141 -34.3960472543 0.667967826291 152.547664687
9.525 0.592957284448 -31.1707614942 0.256594532058 -126.634150819 0.548768347638 -90.8447854728 0.530484920923 -19.5981275152 0.256594532058 -126.634150819 0.597590153309 -32.0126128524 0.552683610087 -90.891961857 0.521139246987 160.636411089 0.548768347638 -90.8447854728 0.552683610087 -90.891961857 0.627200773992 53.9094577505 0.00337788466055 -38.9273377876 0.530484920923 -19.5981275152 0.521139246986 160.636411089 0.00337788466057 -38.9273377881 0.668571785291 150.148606254
9.55 0.591613347757 -34.0642031664 0.256763124979 -129.970893394 0.550493634533 -95.1071917279 0.530116153167 -22.2554847253 0.256763124979 -129.970893394 0.596265020507 -34.9037484508 0.554415051761 -95.1542859106 0.520734766889 157.983553423 0.550493634533 -95.1071917279 0.554415051761 -95.1542859106 0.624153672548 48.4005665886 0.00339859074701 -43.447026903 0.530116153167 -22.2554847253 0.520734766889 157.983553423 0.00339859074703 -43.4470269033 0.669179065822 147.753535718
9.575 0.590262253931 -36.9510838223 0.256949849885 -133.302647957 0.552211943298 -99.3594728812 0.529744501304 -24.9075437003 0.256949849885 -133.302647957 0.594932163787 -37.7882821209 0.556139802159 -99.4064634895 0.520327810988 155.335985802 0.552211943298 -99.3594728812 0.556139802159 -99.4064634895 0.621094167982 42.907376735 0.00341929262189 -47.9553665402 0.529744501304 -24.9075437003 0.520327810988 155.335985802 0.00341929262191 -47.9553665404 0.669789552387 145.362385735
9.6 0.58890251306 -39.8313918361 0.257153877048 -136.629787344 0.553925183002 -103.601918072 0.529370016902 -27.554387639 0.257153877048 -136.629787344 0.593590049065 -40.666206873 0.557859796889 -103.648784507 0.519918446762 152.693623517 0.553925183002 -103.601918072 0.557859796889 -103.648784507 0.61801871135 37.4293587536 0.00344000284047 -52.4526157234 0.529370016902 -27.554387639 0.519918446762 152.693623517 0.00344000284048 -52.4526157234 0.67040313389 142.975090024
9.625 0.587532707925 -42.705102692 0.257374316653 -139.952674063 0.555635176688 -107.834821888 0.528992749168 -30.1960980155 0.257374316653 -139.952674063 0.592237214929 -43.5375027581 0.559576884886 -107.88154435 0.519506739399 150.056383335 0.555635176688 -107.834821888 0.559576884886 -107.88154435 0.614923803125 31.9659519587 0.00346073364617 -56.9390400565 0.528992749168 -30.1960980155 0.519506739399 150.056383335 0.00346073364617 -56.9390400565 0.671019703413 140.591583332
9.65 0.586151497915 -45.5721793045 0.257610221127 -143.27166001 0.557343658465 -112.058483863 0.528612745148 -32.8327546239 0.257610221127 -143.27166001 0.590872276663 -46.4021371841 0.561292825491 -112.105043378 0.519092751839 147.424183454 0.557343658465 -112.058483863 0.561292825491 -112.105043378 0.611806000226 26.5165651979 0.00348149694716 -61.4149112399 0.528612745148 -32.8327546239 0.519092751839 147.424183454 0.00348149694716 -61.4149112398 0.671639158013 138.211801398
9.675 0.584757622728 -48.4325723302 0.257860587359 -146.587086262 0.55905227094 -116.273207993 0.528230049933 -35.464435623 0.257860587359 -146.587086262 0.589493930047 -49.2600652243 0.563009285879 -116.319586439 0.518676544812 144.796943459 0.55905227094 -116.273207993 0.563009285879 -116.319586439 0.608661922344 21.0805775448 0.00350230429531 -65.8805066057 0.528230049933 -35.464435623 0.518676544812 144.796943459 0.00350230429531 -65.8805066055 0.672261398511 135.835680922
9.7 0.583349905899 -51.2862204699 0.258124358782 -149.899282925 0.560762562954 -120.479302269 0.527844706856 -38.0912175797 0.258124358782 -149.899282925 0.588100954976 -52.1112299145 0.564727838789 -120.525482399 0.518258176874 142.174584278 0.560762562954 -120.479302269 0.564727838789 -120.525482399 0.605488257726 15.6573389168 0.00352316686694 -70.3361086722 0.527844706856 -38.0912175797 0.518258176874 142.174584278 0.00352316686693 -70.336108672 0.672886329294 133.463159527
9.725 0.581927258173 -54.1330507612 0.258400427336 -153.208569043 0.562475987578 -124.677078218 0.527456757684 -40.7131755113 0.258400427336 -153.208569043 0.586692218926 -54.9555625412 0.566449960521 -124.723043685 0.517837704447 139.55702814 0.562475987578 -124.677078218 0.566449960521 -124.723043685 0.602281768532 10.2461706278 0.00354409544524 -74.7820047156 0.527456757684 -40.7131755113 0.517837704447 139.55702814 0.00354409544523 -74.7820047153 0.67351385812 131.094175733
9.75 0.580488680767 -56.972978861 0.258687635317 -156.515252553 0.564193900342 -128.866850467 0.527066242812 -43.3303829274 0.258687635317 -156.515252553 0.5852666803 -57.7929829188 0.568177029162 -128.912585845 0.517415181854 136.944198534 0.564193900342 -128.866850467 0.568177029162 -128.912585845 0.599039295921 4.84636588287 0.00356510040402 -79.2184863599 0.527066242812 -43.3303829274 0.517415181854 136.944198534 0.00356510040401 -79.2184863597 0.674143895922 128.728668923
9.775 0.579033268552 -59.805909319 0.258984777104 -159.819630276 0.565917557667 -133.048936312 0.526673201445 -45.9429118708 0.258984777104 -159.819630276 0.583823391691 -60.6233996572 0.569910323021 -133.094427122 0.516990661356 134.336020171 0.565917557667 -133.048936312 0.569910323021 -133.094427122 0.595757764957 -0.542809782845 0.00358619169253 -83.6458491835 0.526673201445 -45.9429118708 0.516990661356 134.336020171 0.00358619169252 -83.6458491832 0.674776356625 126.366579316
9.8 0.577560213178 -62.6317358418 0.259290600774 -163.12198795 0.567648115461 -137.223655306 0.526277671779 -48.5508329572 0.259290600774 -163.12198795 0.582361503091 -63.4467104192 0.571651019225 -137.268888037 0.516564193189 131.732418948 0.567648115461 -137.223655306 0.571651019225 -137.268888037 0.592434189428 -5.92211811857 0.00360737882121 -88.0643923422 0.526277671779 -48.5508329572 0.516564193189 131.732418948 0.0036073788212 -88.0643923419 0.67541115696 124.007847936
9.825 0.576068806186 -65.4503415494 0.259603809603 -166.422600291 0.56938662787 -141.391328861 0.525879691182 -51.1542154152 0.259603809603 -166.422600291 0.580880265075 -66.2628021701 0.573400192471 -141.43629099 0.516135825599 129.133321908 0.56938662787 -141.391328861 0.573400192471 -141.43629099 0.589065676703 -11.2923478287 0.00362867084804 -92.474418209 0.525879691182 -51.1542154152 0.516135825599 129.133321908 0.00362867084803 -92.4744182088 0.676048216286 121.652416589
9.85 0.574558442119 -68.2615992256 0.259923063468 -169.721731076 0.571134046141 -145.552279858 0.525479296357 -53.753127124 0.259923063468 -169.721731076 0.579379031995 -69.0715514198 0.575158813895 -145.596959872 0.515705604882 126.538657207 0.571134046141 -145.552279858 0.575158813895 -145.596959872 0.585649432656 -16.6543143035 0.00365007636545 -96.8762320303 0.525479296357 -53.753127124 0.515705604883 126.538657207 0.00365007636544 -96.8762320301 0.676687456415 119.30022783
9.875 0.573028621676 -71.065371563 0.260246980126 -173.019633253 0.572891217589 -149.706832271 0.52507652352 -56.3476346522 0.260246980126 -173.019633253 0.577857265203 -71.8728244591 0.576927750036 -149.751219689 0.51527357542 123.948354081 0.572891217589 -149.706832271 0.576927750036 -149.751219689 0.582182766778 -22.0088594148 0.00367160348763 -101.270141597 0.52507652352 -56.3476346522 0.51527357542 123.948354081 0.00367160348763 -101.270141597 0.677328801437 116.951224947
9.9 0.571478954921 -73.8615114065 0.260574136405 -176.316549059 0.574658884644 -153.85531081 0.524671408555 -58.9378032943 0.260574136405 -176.316549059 0.576314536341 -74.6664775928 0.578707761889 -153.899396201 0.514839779716 121.362342811 0.574658884644 -153.85531081 0.578707761889 -153.899396201 0.578663097514 -27.3568513842 0.00369325983804 -105.656456934 0.524671408555 -58.9378032943 0.514839779716 121.362342811 0.00369325983803 -105.656456933 0.677972177561 114.605351928
9.925 0.569909164581 -76.6498619959 0.260903069281 -179.612710157 0.576437683957 -157.99804057 0.524263987176 -61.5236971081 0.260903069281 -179.612710157 0.574750530715 -77.4523573723 0.580499504012 -158.041815572 0.514404258433 118.780554689 0.576437683957 -157.99804057 0.580499504012 -158.041815572 0.575087957899 -32.6991847319 0.00371505253704 -110.035489999 0.524263987176 -61.5236971081 0.514404258433 118.780554689 0.00371505253704 -110.035489999 0.678617512944 112.262553442
9.95 0.56831908945 -79.4302572123 0.261232276862 177.091662226 0.578228145555 -162.135346689 0.523854295088 -64.1053789507 0.261232276862 177.091662226 0.573165050779 -80.2303008294 0.58230352368 -162.178804032 0.513967050431 116.202921992 0.578228145555 -162.135346689 0.58230352368 -162.178804032 0.571455001547 -38.0367803141 0.0037369881897 -114.407554406 0.523854295088 -64.1053789507 0.513967050431 116.202921992 0.0037369881897 -114.407554406 0.679264737533 109.922774816
9.975 0.566708687927 -82.2025218313 0.261560219272 173.796357149 0.580030692029 -166.267554032 0.523442368133 -66.6829105142 0.261560219272 173.796357149 0.571558019755 -83.0001357169 0.584120260074 -166.310687552 0.513528192801 113.629377947 0.580030692029 -166.267554032 0.584120260074 -166.310687552 0.567762009058 -43.3705854579 0.00375907287341 -118.772965156 0.523442368133 -66.6829105142 0.513528192801 113.629377947 0.00375907287341 -118.772965156 0.679913782915 107.585962014
10 0.56507804169 -84.9664717864 0.261885319447 170.50117381 0.581845637736 -170.394986869 0.523028242443 -69.256352361 0.261885319447 170.50117381 0.569929485393 -85.7616807579 0.585950043488 -170.437791531 0.513087720905 111.059856702 0.581845637736 -170.394986869 0.585950043488 -170.437791531 0.564006894901 -48.7015742039 0.00378131212553 -123.132038389 0.523028242443 -69.256352361 0.513087720905 111.059856702 0.00378131212554 -123.132038389 0.680564582156 105.252061614
10.025 0.563427359545 -87.7219144478 0.262205963839 167.205921402 0.583673188023 -174.517968579 0.522611954591 -71.8257639592 0.262205963839 167.205921402 0.56827962391 -88.5147459088 0.587793094542 -174.56044049 0.512645668405 108.494293298 0.583673188023 -174.517968579 0.587793094542 -174.56044049 0.560187714814 -54.0307476636 0.00380371093088 -127.48509114 0.522611954591 -71.8257639592 0.512645668405 108.494293298 0.00380371093088 -127.48509114 0.681217069659 102.921020788
10.05 0.561756981436 -90.4686489212 0.262520503035 163.910418971 0.585513438437 -178.636821354 0.522193541732 -74.3912037168 0.262520503035 163.910418971 0.566608744103 -91.2591326424 0.589649523399 -178.678957785 0.512202067306 105.932623639 0.585513438437 -178.636821354 0.589649523399 -178.678957785 0.556302673806 -59.3591345014 0.00382627370898 -131.832441127 0.522193541732 -74.3912037168 0.512202067306 105.932623639 0.00382627370899 -131.832441127 0.681871181015 100.592787285
10.075 0.560067382649 -93.2064663723 0.262827252304 160.614495283 0.587366373942 177.248134078 0.521773041746 -76.9527290168 0.262827252304 160.614495283 0.564917291653 -93.994634254 0.591519328975 177.206334676 0.51175694798 103.374784465 0.587366373942 177.248134078 0.591519328975 177.206334676 0.552350134809 -64.6877915471 0.00384900430117 -136.174406534 0.521773041746 -76.9527290168 0.51175694798 103.374784465 0.00384900430118 -136.174406534 0.682526852867 98.2673094097
10.1 0.558359178195 -95.9351503824 0.263124492064 157.317988705 0.589231868119 173.136578727 0.521350493385 -79.510396251 0.263124492064 157.317988705 0.563205853627 -96.7210361981 0.593402398132 173.095116706 0.511310339205 100.820713324 0.589231868119 173.136578727 0.593402398132 173.095116706 0.548328628046 -70.0178045476 0.00387190595738 -140.511305822 0.521350493385 -79.510396251 0.511310339205 100.820713324 0.00387190595739 -140.511305822 0.683184022765 95.9445360058
10.125 0.556633127393 -98.6544773424 0.263410468298 154.020747091 0.591109682345 169.028195601 0.520925936408 -82.0642608545 0.263410468298 154.020747091 0.561475163179 -99.4381164627 0.595298504859 168.9870701 0.510862268193 98.2703485461 0.591109682345 169.028195601 0.595298504859 168.9870701 0.544236861197 -75.3502890601 0.00389498132271 -144.843457545 0.520925936408 -82.0642608545 0.510862268193 98.2703485461 0.00389498132272 -144.843457545 0.683842629036 93.6244164381
10.15 0.55489013863 -101.364216892 0.2636833929 150.722627696 0.592999464966 164.922669961 0.520499411725 -84.6143773396 0.2636833929 150.722627696 0.559726104448 -102.145645986 0.597207309432 164.881878889 0.510412760621 95.7236292148 0.592999464966 164.922669961 0.597207309432 164.881878889 0.540073730426 -80.6863914938 0.00391823242363 -149.171180183 0.520499411725 -84.6143773396 0.51041276062 95.7236292148 0.00391823242363 -149.171180183 0.684502610653 91.3069005758
10.175 0.553131274305 -104.064132409 0.263941443991 147.423497096 0.594900750441 160.819689566 0.52007096153 -87.16079933 0.263941443991 147.423497096 0.557959717648 -104.843389126 0.599128357554 160.779229587 0.509961840656 93.1804951443 0.594900750441 160.819689566 0.599128357554 160.779229587 0.535838332367 -86.0272903 0.00394166065394 -153.494791984 0.52007096153 -87.16079933 0.509961840656 93.1804951442 0.00394166065395 -153.494791984 0.685163907105 88.9919387763
10.2 0.551357755935 -106.753981565 0.264182766194 144.12323114 0.596812958472 156.718944912 0.519640629444 -89.703579595 0.264182766194 144.12323114 0.556177204337 -107.531104188 0.601061079478 156.678811427 0.509509530988 90.6408868514 0.596812958472 156.718944912 0.601061079478 156.678811427 0.531529977143 -91.3741973108 0.0039652667604 -157.814610823 0.519640629444 -89.703579595 0.509509530988 90.6408868514 0.00396526676041 -157.814610823 0.685826458272 86.6794818693
10.225 0.549570969412 -109.433516942 0.264405470885 140.821714916 0.598735393118 152.620129463 0.519208460647 -92.2427700836 0.264405470885 140.821714916 0.55437993284 -110.20854402 0.603004789108 152.580316599 0.509055852846 88.104745532 0.598735393118 152.620129463 0.603004789108 152.580316599 0.527148202521 -96.728359226 0.00398905082795 -162.130954065 0.519208460647 -92.2427700836 0.509055852846 88.104745532 0.00398905082795 -162.130954065 0.686490204308 84.369481142
10.25 0.547772470375 -112.102486733 0.264607636449 137.518842748 0.600667241899 148.522939885 0.518774502015 -94.7784219589 0.264607636449 137.518842748 0.552569443821 -112.875456689 0.604958683094 148.483440476 0.508600826029 85.5720130356 0.600667241899 148.522939885 0.604958683094 148.483440476 0.522692789304 -102.091059241 0.00401301226469 -166.444138443 0.518774502015 -94.7784219589 0.508600826029 85.5720130356 0.00401301226469 -166.444138444 0.687155085519 82.0618883238
10.275 0.545963989676 -114.760635528 0.264787308527 134.214518219 0.60260757489 144.42707626 0.518338802258 -97.3105856328 0.264787308527 134.214518219 0.55074745595 -115.531586238 0.60692183992 144.387881836 0.508144468922 83.0426318413 0.60260757489 144.42707626 0.60692183992 144.387881836 0.518163778062 -107.46361881 0.00403714978649 -170.754479949 0.518338802258 -97.3105856328 0.508144468922 83.0426318413 0.00403714978649 -170.754479949 0.687821042248 79.7566555726
10.3 0.544147438893 -117.407705195 0.264942500304 130.908654226 0.60455534382 140.332242314 0.51790141205 -99.8393108004 0.264942500304 130.908654226 0.548915871641 -118.176673542 0.608893218984 140.293343086 0.507686798521 80.5165450345 0.60455534382 140.332242314 0.608893218984 140.293343086 0.513561487317 -112.847399529 0.00406146140129 -175.062293724 0.51790141205 -99.8393108004 0.507686798521 80.5165450345 0.00406146140129 -175.062293725 0.688488014765 77.4537354611
10.325 0.542324915847 -120.04343587 0.265071192823 127.601173062 0.606509381185 136.23814563 0.517462384165 -102.364646476 0.265071192823 127.601173062 0.547076782812 -120.81045727 0.610871659703 136.199530476 0.507227830447 77.9936962828 0.606509381185 136.23814563 0.610871659703 136.199530476 0.5088865333 -118.243805131 0.00408594439305 -179.367893972 0.517462384165 -102.364646476 0.507227830447 77.9936962828 0.00408594439305 -179.367893972 0.689155943159 75.1530809626
10.35 0.540498710072 -122.667567063 0.265171335365 124.292006537 0.608468399377 132.144497865 0.51702177361 -104.886641027 0.265171335365 124.292006537 0.545232476617 -123.432674968 0.612855880626 132.106154317 0.506767578964 75.4740298136 0.608468399377 132.144497865 0.612855880626 132.106154317 0.504139851397 -123.654283565 0.00411059530548 176.328406131 0.51702177361 -104.886641027 0.506767578964 75.4740298136 0.00411059530548 176.328406131 0.689824767228 72.8546454389
10.375 0.538671308161 -125.279838887 0.265240845904 120.981096134 0.610430989854 128.051014965 0.516579637754 -107.405342211 0.265240845904 120.981096134 0.543385441072 -126.043064259 0.614844478594 128.012929199 0.506306056998 72.9574903914 0.610430989854 128.051014965 0.614844478594 128.012929199 0.499322719402 -129.080329133 0.00413540992548 172.026294514 0.516579637754 -107.405342211 0.506306056998 72.9574903914 0.00413540992548 172.026294513 0.690494426379 70.5583826271
10.4 0.536845398935 -127.87999343 0.26527761166 117.668393198 0.612395622356 123.957417378 0.516136036463 -109.920797213 0.26527761166 117.668393198 0.541538370529 -128.641364191 0.616835927942 123.919574198 0.505843276148 70.4440232951 0.612395622356 123.957417378 0.616835927942 123.919574198 0.494436782705 -134.523484662 0.00416038326637 167.725460274 0.516136036463 -109.920797213 0.505843276148 70.4440232951 0.00416038326637 167.725460274 0.691164859528 68.2642466274
10.425 0.535023878337 -130.467776266 0.265279489763 114.35385917 0.614360644195 119.86343027 0.515691032222 -112.43305268 0.265279489763 114.35385917 0.539694170886 -131.227316725 0.61882857977 119.825813098 0.505379246702 67.9335742972 0.614360644195 119.86343027 0.61882857977 119.825813098 0.489484081525 -139.985343657 0.00418550955097 163.425593746 0.515691032222 -112.43305268 0.505379246702 67.9335742972 0.00418550955097 163.425593746 0.691836005 65.972191891
10.45 0.533209853971 -133.042938127 0.265244308056 111.037465863 0.616324279624 115.76878374 0.515244690272 -114.94215476 0.265244308056 111.037465863 0.537855964471 -133.800668381 0.620820661306 115.731374606 0.504913977652 65.4260896414 0.616324279624 115.76878374 0.620820661306 115.731374606 0.484467080305 -145.467552396 0.00421078219461 159.126386546 0.515244690272 -114.94215476 0.504913977652 65.4260896414 0.00421078219461 159.126386546 0.692507800435 63.6821732083
10.475 0.531406649175 -135.605236729 0.265169866053 107.719195771 0.61828462932 111.673213037 0.514797078726 -117.448149139 0.265169866053 107.719195771 0.536027094475 -136.361172053 0.622810275367 111.635992565 0.504447476703 62.9215160225 0.61828462932 111.673213037 0.622810275367 111.635992565 0.479388699355 -150.9718119 0.00423619378809 154.827531623 0.514797078726 -117.448149139 0.504447476703 62.9215160225 0.00423619378809 154.827531623 0.693180182699 61.3941456973
10.5 0.529617806523 -138.154438779 0.265053936061 104.399042434 0.620239669987 107.576458775 0.514348268699 -119.951081082 0.265053936061 104.399042434 0.53421112884 -138.908588992 0.624795399959 107.539406174 0.503979750291 60.419800565 0.620239669987 107.576458775 0.624795399959 107.539406174 0.474252348848 -156.499879707 0.00426173608079 150.528723286 0.514348268699 -119.951081082 0.503979750291 60.419800565 0.00426173608079 150.528723287 0.693853087784 59.1080647923
10.525 0.527847090642 -140.690322145 0.26489426451 101.077010841 0.622187254126 103.478267152 0.513898334429 -122.450995469 0.26489426451 101.077010841 0.53241186346 -141.442690969 0.626773888024 103.441360205 0.503510803595 57.9208908034 0.622187254126 103.478267152 0.626773888024 103.441360205 0.469061965209 -162.053571358 0.00428739996395 146.229657238 0.513898334429 -122.450995469 0.503510803595 57.9208908034 0.00428739996395 146.229657238 0.69452645073 56.8238862329
10.55 0.526098490198 -143.212678216 0.264688573473 97.7531178833 0.624125109969 99.3783901733 0.513447353392 -124.947936838 0.264688573473 97.7531178833 0.530633324591 -143.963262628 0.628743467373 99.3416052249 0.503040640553 55.424734662 0.624125109969 99.3783901733 0.628743467373 99.3416052249 0.463822049943 -167.634761493 0.0043131754543 141.930030578 0.513447353392 -124.947936838 0.503040640553 55.424734662 0.0043131754543 141.930030578 0.695200205534 54.5415660523
10.575 0.524376218923 -145.721314433 0.26443456242 94.4273928524 0.626050841633 95.276585863 0.512995406424 -127.441949425 0.26443456242 94.4273928524 0.5288797703 -146.470104012 0.630701740821 95.2398978125 0.50256926388 52.9312804354 0.626050841633 95.276585863 0.630701740821 95.2398978125 0.458537710895 -173.245384426 0.0043390516782 137.629541812 0.512995406424 -127.441949425 0.50256926388 52.9312804354 0.0043390516782 137.629541812 0.695874285062 52.2610605673
10.6 0.522684715535 -148.216057002 0.264129910207 91.0998779932 0.627961929495 91.1726184878 0.512542577831 -129.933077206 0.264129910207 91.0998779932 0.52715569082 -148.963033286 0.632646186565 91.1360007761 0.502096675083 50.4404767692 0.627961929495 91.1726184878 0.632646186565 91.1360007761 0.453214705876 -178.887434049 0.00436501685644 133.327890831 0.512542577831 -129.933077206 0.502096675083 50.4404767692 0.00436501685644 133.327890831 0.696548620972 49.9823263669
10.625 0.521028642395 -150.696753782 0.263772277311 87.7706291039 0.629855730841 87.0662587706 0.512088955499 -132.421363939 0.263772277311 87.7706291039 0.525465807654 -151.441889637 0.634574158815 87.0296833705 0.501622874486 47.952272641 0.629855730841 87.0662587706 0.634574158815 87.0296833705 0.447859488556 175.437037115 0.00439105828989 129.024778884 0.512088955499 -132.421363939 0.501622874486 47.952272641 0.00439105828989 129.024778884 0.697223143627 47.7053203015
10.65 0.519412882741 -153.163277336 0.263359308328 84.4397161898 0.631729480799 82.9572841032 0.511634631004 -134.906853209 0.263359308328 84.4397161898 0.523815071249 -153.906536348 0.636482888737 82.9207215087 0.501147861254 45.4666173417 0.631729480799 82.9572841032 0.636482888737 82.9207215087 0.442479256415 169.725919917 0.00441716234626 124.719908521 0.511634631004 -134.906853209 0.501147861254 45.4666173417 0.00441716234626 124.719908521 0.697897782016 45.4299994728
10.675 0.517842536342 -155.615528137 0.262888634726 81.1072241724 0.6335802936 78.845478753 0.511179699715 -137.389588475 0.262888634726 81.1072241724 0.522208657096 -156.356864031 0.638369485701 78.8088979687 0.500671633417 42.9834604566 0.6335802936 78.845478753 0.638369485701 78.8088979687 0.437082000475 163.977051887 0.00444331444811 120.412983522 0.511179699715 -137.389588475 0.500671633417 42.9834604566 0.00444331444811 120.412983522 0.698572463674 43.1563212223
10.7 0.516322913405 -158.053437903 0.262357877874 77.7732536542 0.635405164177 74.7306340629 0.510724260893 -139.869613109 0.262357877874 77.7732536542 0.520651960064 -158.792794017 0.640230938897 74.6940025928 0.500194187909 40.5027518473 0.635405164177 74.7306340629 0.640230938897 74.6940025928 0.43167655641 158.188222127 0.00446949906245 116.103708791 0.510724260893 -139.869613109 0.500194187909 40.5027518473 0.00446949906245 116.103708791 0.699247114597 40.8842431212
10.725 0.514859526565 -160.476973054 0.261764652336 74.4379217432 0.637200970156 70.6125486403 0.51026841779 -142.34697045 0.261764652336 74.4379217432 0.519150586817 -161.214281854 0.642064119326 70.5758324762 0.499715520599 38.0244416331 0.637200970156 70.6125486403 0.642064119326 70.5758324762 0.42627265648 152.357178098 0.00449569969207 111.791790221 0.51026841779 -142.34697045 0.499715520599 38.0244416331 0.00449569969207 111.791790221 0.699921659167 38.6137229593
10.75 0.51345808083 -162.886138241 0.261106569426 71.1013629388 0.638964474236 66.4910285329 0.509812277744 -144.821703851 0.261106569426 71.1013629388 0.517710346141 -163.621320917 0.643865782198 66.4541921432 0.499235626338 35.5484801723 0.638964474236 66.4910285329 0.643865782198 66.4541921432 0.420880981606 146.481634678 0.00452189886903 107.47693452 0.509812277744 -144.821703851 0.499235626338 35.5484801723 0.00452189886902 107.47693452 0.700596020069 36.3447187342
10.775 0.512124461303 -165.280979935 0.260381241027 67.7637300836 0.640692327006 62.3658873897 0.509355952265 -147.293856722 0.260381241027 67.7637300836 0.516337237031 -166.01394607 0.645632569763 62.3288937062 0.498754499005 33.0748180439 0.640692327006 62.3658873897 0.645632569763 62.3288937062 0.415513212666 140.559285876 0.00454807815038 103.158848994 0.509355952265 -147.293856722 0.498754499005 33.0748180439 0.00454807815038 103.158848994 0.701270118207 34.0771886406
10.8 0.510864718574 -167.661590016 0.259586283656 64.425195385 0.642381070197 58.2369466003 0.508899557128 -149.76347259 0.259586283656 64.425195385 0.515037434402 -168.392237354 0.647361014594 58.1997570061 0.498272131564 30.6034060289 0.642381070197 58.2369466003 0.647361014594 58.1997570061 0.410182079887 134.587819646 0.00457421811654 98.8372412818 0.508899557128 -149.76347259 0.498272131564 30.6034060289 0.00457421811654 98.8372412818 0.701943872622 31.8110910586
10.825 0.50968505166 -170.028109324 0.258719322767 61.0859515116 0.644027140405 54.1040354123 0.508443212454 -152.230595143 0.258719322767 61.0859515116 0.513817272295 -170.75632365 0.649047543342 54.0666097275 0.497788516126 28.1341950908 0.644027140405 54.1040354123 0.649047543342 54.0666097275 0.404901408958 128.564936269 0.00460029837248 94.5118190287 0.508443212454 -152.230595143 0.497788516126 28.1341950908 0.00460029837248 94.5118190287 0.702617200404 29.5463845433
10.85 0.508591788415 -172.380731121 0.25777799727 57.7462127721 0.645626873283 49.9669910199 0.50798704279 -154.695268287 0.25777799727 57.7462127721 0.512683224483 -173.106386265 0.650688480968 49.9292874877 0.497303644022 25.6671363563 0.645626873283 49.9669910199 0.650688480968 49.9292874877 0.399686162156 122.488370769 0.00462629755202 90.1822894973 0.50798704279 -154.695268287 0.497303644022 25.6671363563 0.00462629755202 90.1822894974 0.703290016609 27.2830278126
10.875 0.507591363344 -174.719704396 0.256759964263 54.4062163827 0.647176508215 45.8256586208 0.507531177194 -157.1575362 0.256759964263 54.4062163827 0.511641882424 -175.442662375 0.652280055461 45.7876338921 0.496817505881 23.202181095 0.647176508215 45.8256586208 0.652280055461 45.7876338921 0.394552472504 116.355919847 0.0046521933254 85.8483591038 0.507531177194 -157.1575362 0.496817505881 23.202181095 0.0046521933254 85.8483591038 0.70396223416 25.0209797359
10.9 0.506690292815 -177.045336958 0.255662903937 51.0662238348 0.648672193466 41.6798914365 0.507075749308 -159.617443385 0.255662903937 51.0662238348 0.510699930505 -177.76544827 0.653818403057 41.6415005537 0.496330091716 20.7392806986 0.648672193466 41.6798914365 0.653818403057 41.6415005537 0.389517668586 110.165473777 0.00467796241032 81.5097328697 0.507075749308 -159.617443385 0.496330091716 20.7392806986 0.00467796241032 81.5097328697 0.704633763756 22.7601993223
10.925 0.505895147685 -179.357998235 0.254484524649 47.7265223722 0.650109991801 37.5295506909 0.506620897433 -162.075034729 0.254484524649 47.7265223722 0.509864118624 179.924897676 0.655299573922 37.4907470704 0.49584139103 18.2783866586 0.650109991801 37.5295506909 0.655299573922 37.4907470704 0.384600287314 103.915053621 0.00470358058659 77.1661137802 0.506620897433 -162.075034729 0.49584139103 18.2783866586 0.00470358058659 77.1661137803 0.705304513771 20.5006457079
10.95 0.505212523419 178.341878282 0.253222568131 44.3874265941 0.651485886568 33.374505543 0.50616676461 -164.53035556 0.253222568131 44.3874265941 0.509141232139 177.627952392 0.656719538314 33.3352409568 0.495351392915 15.8194505438 0.651485886568 33.374505543 0.656719538314 33.3352409568 0.379820071578 97.6028540162 0.00472902271434 72.8172020374 0.50616676461 -164.53035556 0.495351392915 15.8194505438 0.00472902271435 72.8172020375 0.705974390145 18.2422781441
10.975 0.504649007824 176.05379302 0.251874814826 41.049280198 0.652795788201 29.2146329684 0.50571349869 -166.983451708 0.251874814826 41.049280198 0.508538059328 175.343225907 0.658074193182 29.1748575239 0.49486008618 13.3624239756 0.652795788201 29.2146329684 0.658074193182 29.1748575239 0.375197949381 91.2272915996 0.00475426275598 68.4626941968 0.50571349869 -166.983451708 0.49486008618 13.3624239756 0.00475426275598 68.4626941969 0.706643296277 15.9850559841
11 0.504211146584 173.777178827 0.250439089317 37.7124578841 0.654035541124 25.0498175852 0.505261252412 -169.434369562 0.250439089317 37.7124578841 0.508061356523 173.070159663 0.659359369176 25.009479704 0.494367459474 10.9072586021 0.654035541124 25.0498175852 0.659359369176 25.009479704 0.370755990822 84.7870588727 0.00477927380148 64.1022821754 0.505261252412 -169.434369562 0.494367459474 10.9072586021 0.00477927380149 64.1022821755 0.707311132901 13.7289386701
11.025 0.503905406841 171.511400038 0.248913265843 34.3773674433 0.655200931012 20.8799514203 0.504810183479 -171.883156136 0.248913265843 34.3773674433 0.507717811156 170.808125394 0.660570838021 20.8389978142 0.493873501432 8.45390607036 0.655200931012 20.8799514203 0.660570838021 20.8389978142 0.366517339146 78.2811829727 0.00480402809711 59.7356521183 0.504810183479 -171.883156136 0.493873501432 8.45390607036 0.00480402809712 59.7356521184 0.70797779796 11.47388572
11.05 0.503738139131 169.255752197 0.247295273889 31.0444520563 0.656287692347 16.7049336105 0.504360454643 -174.329859129 0.247295273889 31.0444520563 0.507514003028 168.556424651 0.661704320208 16.663309256 0.493378200829 6.00231799659 0.656287692347 16.7049336105 0.661704320208 16.663309256 0.362506112095 71.7090883992 0.00482849707693 55.3624831107 0.504360454643 -174.329859129 0.493378200829 6.00231799659 0.00482849707694 55.3624831108 0.70864318647 9.21985671309
11.075 0.503715538041 167.009462466 0.245583103843 27.7141928362 0.65729151621 12.5246700364 0.503912233782 -176.77452699 0.245583103843 27.7141928362 0.507456364162 166.314289049 0.662755492932 12.4823181464 0.492881546737 3.55244593383 0.65729151621 12.5246700364 0.662755492932 12.4823181464 0.358747270071 65.0706622393 0.0048526513968 50.9824457219 0.503912233782 -176.77452699 0.492881546737 3.55244593383 0.00485265139681 50.982445722 0.70930719037 6.96681127615
11.1 0.503843602015 164.771690803 0.243774812722 24.3871116508 0.658208058244 8.33907288446 0.503465693993 -179.217208981 0.243774812722 24.3871116508 0.507551137677 164.080881254 0.663719998212 8.29593487692 0.492383528713 1.10424133702 0.658208058244 8.33907288446 0.663719998212 8.29593487692 0.355266448154 58.3663198703 0.0048764609701 46.5952003677 0.503465693993 -179.217208981 0.492383528713 1.10424133702 0.00487646097011 46.5952003678 0.709969698369 4.71470906864
11.125 0.504128092801 162.541531913 0.241868529982 21.0637742706 0.659032946688 4.14806013519 0.503021013687 178.342044752 0.241868529982 21.0637742707 0.507804336173 161.855296797 0.664593451103 4.10407559849 0.491884136978 -1.34234447496 0.659032946688 4.14806013519 0.664593451103 4.10407559849 0.35208974991 51.5970685274 0.00489989500432 42.2003954768 0.503021013687 178.342044752 0.491884136978 -1.34234447496 0.00489989500433 42.2003954768 0.710630595768 2.46350976768
11.15 0.504574495061 160.31801801 0.239862463434 17.7447938899 0.659761790408 -0.0484450239544 0.502578376688 175.903183118 0.239862463434 17.7447938899 0.50822170017 159.636566697 0.665371447907 -0.0933383700514 0.49138336262 -3.78736036073 0.659761790408 -0.048445023955 0.665371447907 -0.0933383700513 0.34924350225 44.764565552 0.00492292203762 37.7976654484 0.502578376688 175.903183118 0.49138336262 -3.78736036073 0.00492292203762 37.7976654483 0.711289764283 0.213173052512
11.175 0.505187976719 158.100122387 0.237754905308 14.4308350822 0.660390186817 -4.25051486258 0.502137972347 173.46615401 0.237754905308 14.4308350822 0.508808657182 157.423660927 0.666049574297 -4.29638121075 0.490881197805 -6.23085540153 0.660390186817 -4.25051486258 0.666049574297 -4.29638121075 0.346753972231 37.8711676524 0.00494550997391 33.386628387 0.502137972347 173.46615401 0.490881197805 -6.23085540153 0.0049455099739 33.3866283869 0.711947081838 -2.0363414114
11.2 0.505973350652 155.886763782 0.235544238518 11.1226182565 0.660913729574 -8.4582178475 0.501699995658 171.030904236 0.235544238518 11.1226182565 0.509570282054 155.215492702 0.666623413227 -8.50512335244 0.490377636001 -8.67287895065 0.660913729574 -8.4582178475 0.666623413227 -8.50512335244 0.34464704882 30.9199672001 0.0049676261151 28.9668836019 0.501699995658 171.030904236 0.490377636001 -8.67287895065 0.00496762611509 28.9668836018 0.712602422354 -4.28507398871
11.225 0.506935038314 153.676811488 0.233228943203 7.82092469427 0.661328015974 -12.6716194579 0.5012646474 168.597379454 0.233228943203 7.82092469426 0.510511259186 153.010923555 0.667088552537 -12.7196322927 0.489872672204 -11.1134806874 0.661328015974 -12.6716194579 0.667088552537 -12.7196322927 0.342947894936 23.9148115336 0.00498923718885 24.5380088582 0.5012646474 168.597379454 0.489872672204 -11.1134806874 0.00498923718883 24.5380088581 0.713255655511 -6.533065091
11.25 0.508077035925 151.469091172 0.230807603634 4.52660225554 0.661628653882 -16.8907830726 0.500832134272 166.165524098 0.230807603634 4.52660225553 0.511635847286 150.808769137 0.667440592127 -16.9399734931 0.489366303183 -13.5527106762 0.661628653882 -16.8907830726 0.667440592127 -16.9399734931 0.341680577598 16.8603015395 0.00501030936971 20.0995573695 0.500832134272 166.165524098 0.489366303183 -13.5527106762 0.00501030936968 20.0995573694 0.713906646496 -8.7803551939
11.275 0.509402883787 149.262391296 0.228278915615 1.24057186184 0.661811268139 -21.1157709259 0.500402669065 163.735281313 0.228278915615 1.24057186182 0.512947847258 148.607805686 0.667675150587 -21.1662113441 0.488858527729 -15.9906194314 0.661811268139 -21.1157709259 0.667675150587 -21.1662113441 0.340867686398 9.76176647655 0.00503080829157 15.6510545212 0.500402669065 163.735281313 0.488858527729 -15.9906194314 0.00503080829153 15.651054521 0.714555255732 -11.0269848547
11.3 0.510915639296 147.055470064 0.22564169452 -2.03616512512 0.661871506296 -25.346645125 0.499976470832 161.306592883 0.22564169452 -2.03616512515 0.514450573823 146.40677704 0.667787871176 -25.3984101938 0.488349346909 -18.427257988 0.661871506296 -25.346645125 0.667787871176 -25.3984101938 0.340529952567 2.62521312736 0.00505069904894 11.1919943166 0.499976470832 161.306592883 0.488349346909 -18.427257988 0.00505069904888 11.1919943165 0.715201338573 -13.2729947304
11.325 0.512617854114 144.847062766 0.22289488413 -5.30251848799 0.661805043594 -29.5834687239 0.499553765093 158.879399163 0.22289488413 -5.30251848803 0.516146831382 144.204402095 0.66777442704 -29.6366354335 0.487838764331 -20.8626779793 0.661805043594 -29.5834687239 0.66777442704 -29.6366354335 0.34068588237 -4.542751138 0.00506994618421 6.72183553967 0.499553765093 158.879399163 0.487838764331 -20.8626779793 0.00506994618414 6.72183553964 0.71584474499 -15.5184255956
11.35 0.514511555949 142.635889391 0.220037566494 -8.55729953983 0.661607587093 -33.8263068424 0.499134784047 156.453639008 0.220037566494 -8.55729953989 0.518038894591 141.999382564 0.667630525572 -33.8809546318 0.487326786405 -23.2969317215 0.661607587093 -33.8263068424 0.667630525572 -33.8809546318 0.341351419089 -11.7350200296 0.00508851365818 2.2399976292 0.499134784047 156.453639008 0.487326786405 -23.2969317215 0.00508851365809 2.23999762925 0.71648531922 -17.7633183619
11.375 0.516598235236 140.420662364 0.217068973035 -11.7992101241 0.661274878862 -38.0752278215 0.498719766815 154.029249709 0.217068973035 -11.7992101242 0.520128493986 139.790410902 0.667351911827 -38.1314387064 0.486813422614 -25.7300723065 0.661274878862 -38.0752278215 0.667351911827 -38.1314387064 0.342539647369 -18.9441115011 0.00510636480027 -2.2541437351 0.498719766815 154.029249709 0.486813422614 -25.7300723065 0.00510636480017 -2.25414373494 0.717122899395 -20.0077140959
11.4 0.518878836967 138.200094266 0.213988497198 -15.0268300108 0.660802698172 -42.3303044015 0.498308959703 151.606166922 0.213988497198 -15.0268300109 0.522416806949 137.576178238 0.666934370928 -42.3881631208 0.486298685778 -28.162153703 0.660802698172 -42.3303044015 0.666934370928 -42.3881631208 0.344260552056 -26.1623073981 0.00512346223541 -6.76126133364 0.498308959703 151.606166922 0.486298685778 -28.162153703 0.00512346223531 -6.76126133338 0.717757317131 -22.2516540389
11.425 0.521353757759 135.972905375 0.210795708943 -18.2386024366 0.660186862648 -46.5916149094 0.497902616499 149.184324605 0.210795708943 -18.2386024367 0.524904454115 135.355382147 0.666373729413 -46.6512090931 0.485782592319 -30.5932308671 0.660186862648 -46.5916149094 0.666373729413 -46.6512090931 0.346520840891 -33.3818031378 0.00513976778359 -11.2820813887 0.497902616498 149.184324605 0.485782592319 -30.5932308671 0.0051397677835 -11.2820813884 0.718388397101 -24.4951796259
11.45 0.524022848158 133.737830883 0.207490371464 -21.4328174936 0.659423228367 -50.8592444388 0.497500998783 146.763654952 0.207490371464 -21.4328174937 0.527591501264 133.126734129 0.665665855488 -50.9206648003 0.485265162518 -33.0233598622 0.659423228367 -50.8592444388 0.665665855488 -50.9206648003 0.349323836882 -40.5948600391 0.00515524232852 -15.8173888161 0.497500998782 146.763654952 0.485265162519 -33.0233598623 0.00515524232844 -15.8173888157 0.719015956559 -26.7383325053
11.475 0.526885420013 131.493627652 0.204072460539 -24.6075930262 0.658507688897 -55.1332860056 0.497104376286 144.344088332 0.204072460539 -24.6075930263 0.530477466555 130.888966621 0.664806658211 -55.1966265608 0.484746420763 -35.4525979908 0.658507688897 -55.1332860056 0.664806658211 -55.1966265608 0.352669442016 -47.7939526587 0.00516984565133 -20.3680327305 0.497104376286 144.344088332 0.484746420763 -35.4525979908 0.00516984565127 -20.3680327303 0.71963980484 -28.9811545577
11.5 0.529940258672 129.23908037 0.200542187002 -27.7608526339 0.657436173339 -59.4138416596 0.496713027267 141.925553227 0.200542187002 -27.7608526339 0.533561332865 128.640839429 0.663792085621 -59.4791999758 0.48422639578 -37.8810039359 0.657436173339 -59.4138416596 0.663792085621 -59.4791999758 0.356554169804 -54.9719039103 0.00518353622541 -24.934932183 0.496713027267 141.925553227 0.48422639578 -37.8810039359 0.00518353622541 -24.934932183 0.720259742818 -31.2236879161
