! Touchstone file exported from HFSS 2025.2.4
!        File:           C:/Users/chaoy/Documents/single_magictee_v2_stageA/g2_5p00mm_lt_4p50mm/single_magictee_v2.aedt
!        Generated:      02:57:33 PM Sep 19, 2026
!        Design:         SingleMagicT_v2
!        Project:        single_magictee_v2
!
! Variables:
!        f_adapt = 10.2GHz
!        ridge_g1 = 7.672mm
!        ridge_g2 = 5mm
!        ridge_l1 = 9.872mm
!        ridge_l2 = 8.857mm
!        ridge_w = 4.572mm
!        terminal_ridge_len = 4.5mm
!        wg_a = 22.86mm
!        wg_b = 10.16mm
!
!Data is not renormalized
# GHz S MA
! Terminal data exported
! Port[1] = P1_CollinearMinusX
! Port[2] = P2_CollinearPlusX
! Port[3] = P3_HArm_Ridged
! Port[4] = P4_EArm
9                              0.178142129870811 -152.695428037597 0.526335974611847 -157.703704664371 0.502280097201118 116.578908255465 0.66253341602528 45.1145715109971 
                               0.526335974611845 -157.703704664371 0.177684437437014 -152.769614882043 0.502446264562412 116.619265784496 0.662530326663894 -134.880717141734 
                               0.502280097201117 116.578908255465 0.502446264562414 116.619265784496 0.703748771170637 -150.353410899276 0.000349655161581876 105.185521564076 
                               0.662533416025279 45.1145715109971 0.662530326663896 -134.880717141734 0.000349655161581752 105.185521564006 0.349432277618676 -109.533676966857 
9.025                          0.178415808282381 -155.273802225221 0.528179403594703 -160.638319216566 0.500836133451704 113.566742341198 0.66208543400565 42.2053442835712 
                               0.528179403594704 -160.638319216566 0.177980582023848 -155.350057444492 0.501006539257298 113.607477830826 0.662073652554476 -137.790426837172 
                               0.500836133451707 113.566742341198 0.501006539257298 113.607477830826 0.705800354479775 -153.530486223344 0.000346302861894317 101.145171771096 
                               0.662085434005656 42.2053442835713 0.662073652554479 -137.790426837173 0.000346302861892417 101.145171771755 0.351141838443814 -112.246681031877 
9.05                           0.178689322294928 -157.84589363262 0.530018735314982 -163.563876290823 0.499389946275811 110.559109621539 0.661633879461465 39.3040239474839 
                               0.530018735314985 -163.563876290823 0.178276842721522 -157.924198381396 0.499564620448625 110.60022983705  0.661613293307913 -140.692207451761 
                               0.499389946275816 110.559109621538 0.499564620448623 110.600229837051 0.707843614360282 -156.706579658461 0.000342943550746326 97.1024447756128 
                               0.661633879461476 39.3040239474841 0.661613293307916 -140.692207451762 0.000342943550743226 97.1024447767797 0.352855946181821 -114.955458563839 
9.075                          0.17896311035071 -160.411928239177 0.531854442035617 -166.480571893373 0.497940882825073 107.555931301434 0.661178720957608 36.4104763596718 
                               0.531854442035621 -166.480571893372 0.178573648580881 -160.49226397656 0.498119851332554 107.597442774773 0.661149223490926 -143.586192793765 
                               0.49794088282508 107.555931301433 0.498119851332551 107.597442774775 0.709879425702747 -159.881657326456 0.000339580240994359 93.0573903131831 
                               0.661178720957622 36.4104763596721 0.661149223490929 -143.586192793765 0.000339580240990525 93.0573903146684 0.354574516950567 -117.660080462   
9.1                            0.17923757546327 -162.972134773198 0.53368698876294 -169.388600652062 0.4964883011401  104.557129740291 0.660719930395239 33.5245679517701 
                               0.533686988762945 -169.388600652061 0.17887139275458 -163.054483097047 0.496671585979938 104.599038790366 0.660681420964648 -146.472516116272 
                               0.496488301140107 104.557129740289 0.496671585979934 104.599038790368 0.711908641335879 -163.055682744996 0.000336215725114472 89.0100399708757 
                               0.660719930395254 33.5245679517704 0.660681420964652 -146.472516116272 0.000336215725110273 89.0100399725172 0.356297472740315 -120.360616408546 
9.125                          0.179513085457295 -165.526743822659 0.535516830889059 -172.288155482054 0.495031571966395 101.562628825052 0.660257482495505 30.6461660127115 
                               0.535516830889064 -172.288155482053 0.179170432767793 -165.611086313789 0.495219191150305 101.60494157778  0.660209866381792 -149.351309833266 
                               0.495031571966401 101.562628825051 0.4952191911503  101.604941577781 0.713932088611776 -166.228616608838 0.000332852595542901 84.9604110308181 
                               0.66025748249552 30.6461660127118 0.660209866381795 -149.351309833266 0.000332852595538624 84.9604110324802 0.358024740951795 -123.057134872973 
9.15                           0.179789973324454 -168.075986994447 0.537344412079592 -175.179427287679 0.493570080465426 98.5723542993187 0.659791354329243 27.7751389366092 
                               0.537344412079597 -175.179427287679 0.179471090902286 -168.162305070866 0.493762048001587 98.6150767074195 0.659734542728729 -152.222705270556 
                               0.493570080465432 98.5723542993175 0.493762048001583 98.6150767074206 0.715950566283898 -169.400416612316 0.000329493265513101 80.9085101253007 
                               0.659791354329257 27.7751389366094 0.659734542728733 -152.222705270556 0.000329493265508965 80.9085101268726 0.359756253972044 -125.749703120319 
9.175                          0.18006853768236 -170.620096121455 0.539170162396422 -178.062604698104 0.492103227820195 95.586234049976  0.659321524890636 24.9113564381127 
                               0.539170162396427 -178.062604698103 0.179773654681191 -170.708370902725 0.492299553694963 95.6293719125569 0.659255434910456 -155.086832449382 
                               0.4921032278202  95.586234049975  0.492299553694959 95.6293719125578 0.717964841677166 -172.571037312581 0.000326139989970679 76.8543366907791 
                               0.659321524890649 24.9113564381129 0.65925543491046 -155.086832449382 0.000326139989966844 76.8543366921732 0.361491948786473 -128.438387222779 
9.2                            0.180349043324819 -173.159302516653 0.540994496644693 179.062126165464 0.490630432734884 92.6041983529218 0.658847974712654 22.0546897374121 
                               0.540994496644697 179.062126165464 0.180078377442808 -173.249514698393 0.490831122894401 92.6477573348433 0.658772529376227 -157.94381990051 
                               0.490630432734887 92.604198352921  0.490831122894398 92.647757334844  0.719975648148232 -175.740430032959 0.000322794886191264 72.7978862126454 
                               0.658847974712664 22.0546897374122 0.65877252937623 -157.94381990051 0.000322794886187841 72.7978862137951 0.363231766625515 -131.123252074295 
9.225                          0.180631721852574 -175.69383627311 0.542817812932955 176.194581893234 0.489151132828383 89.6261800795556 0.658370685521998 19.2050117170274 
                               0.542817812932958 176.194581893235 0.180385478992855 -175.785966011578 0.48935618916071 89.6701657306185 0.658285813783589 -160.793794506672 
                               0.489151132828385 89.626180079555  0.489356189160707 89.670165730619  0.721983682832747 -178.908542805527 0.000319459953770758 68.7391532567017 
                               0.658370685522008 19.2050117170275 0.658285813783591 -160.793794506672 0.00031945995376782 68.7391532575597 0.364975652644169 -133.804361407711 
9.25                           0.180916772374751 -178.223925608762 0.544640491435187 173.33458196312  0.487664785921698 86.6521148658026 0.657889639931246 16.3621970524861 
                               0.54464049143519 173.33458196312  0.180695146325577 -178.31795241539 0.487874206240087 86.6965326397701 0.657795276698494 -163.636881371247 
                               0.487664785921699 86.6521148658022 0.487874206240084 86.6965326397705 0.723989604675302 177.924679648124 0.000316137093701713 64.6781342868999 
                               0.657889639931253 16.3621970524861 0.657795276698496 -163.636881371247 0.000316137093699303 64.6781342874363 0.366723555632701 -136.481777814135 
9.275                          0.181204362272211 179.250203745364 0.546462893343356 170.481948891896 0.486170871219438 83.6819412455005 0.657404821165787 13.526122318934  
                               0.546462893343359 170.481948891896 0.181007534405129 179.154301099656 0.486384649247365 83.7267965189759 0.657300907329116 -166.47320371112 
                               0.486170871219438 83.6819412455003 0.486384649247363 83.726796518976  0.725994032736647 174.759295899206 0.00031282812629314 60.6148302720854 
                               0.657404821165793 13.5261223189339 0.657300907329117 -166.47320371112 0.000312828126291276 60.6148302722852 0.368475427756757 -139.155562764186 
9.3                            0.181494628014915 176.728329114851 0.54828535999918 167.636508363232 0.484668890385784 80.7156007500338 0.656916212823203 10.6966660756703 
                               0.548285359999183 167.636508363232 0.18132276699955 176.630572685784 0.484887015744333 80.7608988412128 0.656802695291005 -169.302882771726 
                               0.484668890385783 80.7156007500338 0.484887015744331 80.7608988412127 0.727997544771825 171.59536775852  0.000309534807733459 56.5492490872307 
                               0.656916212823207 10.6966660756702 0.656802695291006 -169.302882771726 0.00030953480773214 56.5492490870925 0.370231224325091 -141.825776630801 
9.325                          0.181787676026309 174.210231410948 0.550108212193874 164.798089334489 0.483158368515527 77.7530379761428 0.656423798662695 7.87370893053052 
                               0.550108212193877 164.798089334489 0.181640937560561 174.110644157713 0.483380826713707 77.7987841634594 0.656300630401231 -172.126037762353 
                               0.483158368515525 77.753037976143  0.483380826713705 77.7987841634591 0.730000676071967 168.432960189284 0.000306258845137053 52.4814077169599 
                               0.656423798662697 7.87370893053036 0.656300630401231 -172.126037762353 0.000306258845136262 52.4814077164935 0.371990903583137 -144.492478713336 
9.35                           0.182083583588564 171.695695620448 0.551931749624816 161.966524124097 0.481638855000997 74.7942006238623 0.655927562422223 5.05713358596881 
                               0.551931749624819 161.966524124097 0.181962110143197 171.594301473527 0.481865627429544 74.8404001645437 0.655794702499185 -174.942785809831 
                               0.481638855000994 74.7942006238628 0.481865627429542 74.8404001645432 0.732003918561669 165.272141187689 0.000303001909953797 48.4113342710564 
                               0.655927562422224 5.0571335859686  0.655794702499185 -174.942785809831 0.000303001909953511 48.411334270281  0.373754426530639 -147.155727262707 
9.375                          0.182382399783228 169.184511257843 0.553756250498301 159.141648481231 0.480109924295866 71.8390395065625 0.655427487661053 2.24682486861775 
                               0.553756250498304 159.141648481231 0.182286320360058 169.081335178139 0.480340988225046 71.8856976551071 0.655284901291779 -177.75324192883 
                               0.480109924295863 71.8390395065631 0.480340988225045 71.8856976551064 0.734007720143093 162.112981633012 0.000299765649657755 44.3390698231291 
                               0.655427487661053 2.24682486861749 0.655284901291777 -177.75324192883 0.000299765649657941 44.3390698220717 0.375521756761575 -149.815579507329 
9.4                            0.182684146462588 166.676472781243 0.555581971267825 156.323301639413 0.478571176577061 68.8875085350694 0.654923557625465 -0.557330255976903 
                               0.555581971267829 156.323301639413 0.18261357636564 166.571540810844 0.478806505158969 68.9346305616622 0.65477121622082 179.442480992944 
                               0.478571176577058 68.8875085350702 0.478806505158968 68.9346305616614 0.736012484277283 158.955555109212 0.000296551697665735 40.2646700846797 
                               0.654923557625465 -0.557330255977205 0.654771216220818 179.442480992944 0.000296551697666358 40.264670083373  0.377292860324629 -152.472091679647 
9.425                          0.182988819247626 164.171379973484 0.55740914649763 153.511326355584 0.477022238306215 65.9395646778398 0.654415755135458 -3.35544268183138 
                               0.557409146497635 153.511326355584 0.182943859866822 164.064719278417 0.477261800582016 65.9871558867127 0.654253636350436 176.644272196271 
                               0.477022238306211 65.9395646778407 0.477261800582015 65.9871558867117 0.738018569792542 155.799937700033 0.000293361681468555 36.1882069274852 
                               0.654415755135458 -3.35544268183172 0.654253636350433 176.644272196271 0.000293361681469574 36.1882069259665 0.379067705602517 -155.125319043075 
9.45                           0.183296388549028 161.669038289855 0.559237988841599 150.705568936078 0.47546276269231 62.9951678991484 0.653904062490348 -6.14762117267608 
                               0.559237988841604 150.705568936078 0.183277127156123 161.560677195172 0.475706523604835 63.0432336468953 0.653732150272498 173.852023040211 
                               0.475462762692307 62.9951678991494 0.475706523604834 63.0432336468943 0.740026290909145 152.646207759707 0.000290197228987417 32.1097697674868 
                               0.653904062490347 -6.14762117267644 0.653732150272494 173.852023040211 0.000290197228988796 32.1097697657959 0.380846263208466 -157.775315919161 
9.475                          0.183606800608209 159.169259173802 0.561068689127961 147.905879250861 0.473892430057404 60.0542810772247 0.653388461391267 -8.93397238233981 
                               0.561068689127967 147.905879250861 0.183613310164843 159.059227191375 0.474140350469458 60.1028267910749 0.653206746028074 171.065626981608 
                               0.473892430057401 60.0542810772257 0.474140350469456 60.1028267910738 0.7420359174692  149.494445661405 0.000287059973194805 28.0294668232695 
                               0.653388461391265 -8.93397238234019 0.65320674602807 171.065626981608 0.000287059973196505 28.0294668214477 0.382628505898254 -160.422135714828 
9.5                            0.183919978555716 156.671860341956 0.562901416540612 145.112110737291 0.472310948107518 57.1168699042407 0.652868932878656 -11.7146008840051 
                               0.562901416540619 145.11211073729  0.183952317533583 156.560188191319 0.472562984826228 57.1659011002947 0.652677411043068 168.284979545688 
                               0.472310948107515 57.1168699042418 0.472562984826226 57.1659011002936 0.744047675360004 146.344733525657 0.000283951555063487 23.9474262617456 
                               0.652868932878655 -11.7146008840055 0.652677411043064 168.284979545689 0.000283951555065468 23.9474262598347 0.384414408496213 -163.065830949562 
9.525                          0.18423582348476 154.176666039737 0.564736318888277 142.324120394573 0.470718052111027 54.1829027700157 0.652345457282942 -14.4896092070609 
                               0.564736318888285 142.324120394573 0.184294035698028 154.063385662362 0.470974157918502 54.2324250714416 0.652144132076271 165.50997828902  
                               0.470718052111024 54.1829027700168 0.4709741579185  54.2324250714404 0.746061747118896 143.197154930934 0.000280873624928716 19.8637972428347 
                               0.652345457282941 -14.4896092070613 0.652144132076266 165.509978289021 0.000280873624930943 19.8637972408754 0.386203947833696 -165.70645328241 
9.55                           0.184554215537938 151.68350726879  0.566573522953155 139.541768769993 0.469113504987087 51.2523506312494 0.651818014186704 -17.2590978803664 
                               0.566573522953163 139.541768769993 0.184638329988132 151.568651836124 0.4693736286776  51.3023697864391 0.651606895178189 162.740522756039 
                               0.469113504987084 51.2523506312506 0.469373628677598 51.3023697864379 0.748078272707291 140.051794608655 0.000277827842367284 15.7787508737802 
                               0.651818014186704 -17.2590978803667 0.651606895178184 162.740522756039 0.000277827842369722 15.7787508718113 0.387997102698539 -168.344053538691 
9.575                          0.184875015005423 149.192221987393 0.568413134911033 136.764919937926 0.46749709730684 48.3251868680455 0.651286582396741 -20.0231654808222 
                               0.568413134911042 136.764919937926 0.1849850457391  149.075825903027 0.467761183730719 48.3757087687243 0.651065685659102 159.976514430244 
                               0.467497097306838 48.3251868680467 0.467761183730717 48.3757087687231 0.750097350441362 136.908738124826 0.000274815874712795 11.6924810823068 
                               0.651286582396741 -20.0231654808226 0.651065685659096 159.976514430244 0.000274815874715409 11.6924810803644 0.389793853794144 -170.97868173632 
9.6                            0.185198063433137 146.702655284974 0.570255240815346 133.993441472546 0.46586864721036 45.4013871294227 0.65075113992455 -22.7819086862339 
                               0.570255240815356 133.993441472546 0.185334009412741 146.584754181273 0.466136637324698 45.4524178287053 0.65052048806492 157.217856681089 
                               0.465868647210359 45.4013871294238 0.466136637324695 45.4524178287042 0.752119038066659 133.768071550531 0.000271839394339338 7.60520541611893 
                               0.650751139924551 -22.7819086862343 0.650520488064914 157.217856681089 0.000271839394342096 7.60520541423608 0.391594183706858 -173.610387111674 
9.625                          0.185523184739543 144.214659531789 0.572099907137993 131.227204415056 0.464228000242469 42.4809291694425 0.650211663973871 -25.5354223315311 
                               0.572099907138003 131.227204415056 0.18568502972788 144.095290261321 0.464499831168726 42.5324748998259 0.649971286159536 154.464454707513 
                               0.464228000242469 42.4809291694436 0.464499831168724 42.5324748998249 0.754143353963856 130.629881123438 0.000268900074855674 3.51716577432411 
                               0.650211663973873 -25.5354223315314 0.64997128615953 154.464454707514 0.000268900074858544 3.51716577252986 0.393398076880405 -176.239218144903 
9.65                           0.185850186339807 141.728094504778 0.573947181360157 128.466083236219 0.462575029110736 39.5637926755108 0.649668130934004 -28.2837994674921 
                               0.573947181360167 128.466083236219 0.18603789879863 141.607295126863 0.462850634199258 39.615859866791  0.649418062912452 151.716215478964 
                               0.462575029110736 39.5637926755118 0.462850634199255 39.61585986679   0.756170278472814 127.494252902431 0.000265999586359116 -0.571370925720107 
                               0.649668130934007 -28.2837994674924 0.649418062912447 151.716215478964 0.00026599958636207 -0.571370927400889 0.395205519596193 -178.865222584663 
9.675                          0.186178860276136 139.242827490575 0.575797092606778 125.709955794852 0.460909633369132 36.6499590903327 0.649120516377793 -31.0271314211973 
                               0.575797092606788 125.709955794852 0.186392393279362 139.120637253264 0.461188942270549 36.7025543874322 0.648860800490598 148.973047674694 
                               0.460909633369132 36.6499590903336 0.461188942270546 36.7025543874312 0.758199755322165 124.361272417441 0.000263139589902657 -4.66011214482439 
                               0.649120516377796 -31.0271314211976 0.648860800490592 148.973047674694 0.000263139589905663 -4.66011214637131 0.39701649995841 178.511552527821 
9.7                            0.186508984353138 136.758733366573 0.577649652318689 122.958703292915 0.459231739030942 33.7394114289114 0.648568795063203 -33.7655078575192 
                               0.5776496523187  122.958703292914 0.186748275515203 136.635192684369 0.459514677774374 33.7925417096018 0.648299480253342 146.234861622038 
                               0.459231739030943 33.7394114289123 0.459514677774371 33.7925417096009 0.760231693151756 121.231024316421 0.000260321731330522 -8.74873918259951 
                               0.648568795063206 -33.7655078575194 0.648299480253338 146.234861622038 0.000260321731333553 -8.74873918399682 0.398831007882884 175.891060835368 
9.725                          0.18684032327702 134.27569466096  0.579504854956836 120.212210227725 0.457541298114651 30.8321340919067 0.648012940937579 -36.4990168410242 
                               0.579504854956847 120.212210227725 0.187105294696914 134.150845088564 0.457827789192596 30.8858064844075 0.647734082749836 143.501569234289 
                               0.457541298114652 30.8321340919074 0.457827789192592 30.8858064844067 0.762265967115487 118.103592011372 0.000257547634636603 -12.8369067054707 
                               0.648012940937583 -36.4990168410244 0.647734082749832 143.501569234289 0.00025754763463963 -12.8369067067072 0.40064903508877 173.273256642193 
9.75                           0.187172629797448 131.793601592559 0.581362678733347 117.470364341796 0.455838288126615 27.928112676565  0.647452927143758 -39.2277448977399 
                               0.581362678733356 117.470364341795 0.187463188018906 131.667485794923 0.456128250586346 27.982334577002  0.647164587717888 140.773083948731 
                               0.455838288126617 27.9281126765657 0.456128250586343 27.9823345770013 0.764302420552315 114.97905732519  0.000254818894997033 -16.9242423474108 
                               0.647452927143762 -39.22774489774  0.647164587717885 140.773083948731 0.000254818895000028 -16.9242423484798 0.40247057509219 170.658094892003 
9.775                          0.187505645850785 129.312352091302 0.583223086364597 114.733056570698 0.45412271148439 25.0273337863533 0.64688872602729 -41.9517770763062 
                               0.583223086364607 114.733056570698 0.187821681839133 129.185013810273 0.454416061025658 25.082112876054  0.646590974083712 138.04932066531  
                               0.454122711484392 25.0273337863539 0.454416061025655 25.0821128760534 0.766340866713546 111.857500140998 0.000252137071622976 -21.0103463907384 
                               0.646888726027294 -41.9517770763063 0.646590974083709 138.049320665311 0.000252137071625912 -21.0103463916377 0.404295623201059 168.045531146876 
9.8                            0.187839103703407 126.831851800145 0.58508602584176 112.000180989326 0.45239459488463 22.1297848403246 0.646320309144159 -44.6711970080996 
                               0.585086025841768 112.000180989326 0.188180492839467 126.703335817958 0.452691243963416 22.1851291029319 0.646013219961954 135.330195686367 
                               0.452394594884632 22.1297848403251 0.452691243963413 22.1851291029314 0.768381090534904 108.738998055529 0.000249503680572562 -25.0947915361306 
                               0.646320309144164 -44.6711970080996 0.646013219961951 135.330195686367 0.000249503680575412 -25.094791536862 0.406124176510363 165.435521566924 
9.825                          0.18817272709367 124.35201405921  0.58695143121465 109.271634756867 0.450653988619474 19.2354538831549 0.645747647268456 -47.3860869659784 
                               0.586951431214658 109.271634756867 0.188539329185105 124.222366159087 0.450953846557511 19.2913716215355 0.645431302655518 132.61562665777  
                               0.450653988619477 19.2354538831552 0.450953846557509 19.2913716215351 0.770422850442335 105.623626037959 0.000246920187652153 -29.177122772535 
                               0.64574764726846 -47.3860869659784 0.645431302655516 132.61562665777  0.000246920187654892 -29.1771227731039 0.407956233897264 162.828022890754 
9.85                           0.188506232371015 121.872759872925 0.588819223385027 106.547318060735 0.448900965845348 16.3443293966877 0.645170710399546 -50.0965279213629 
                               0.588819223385034 106.547318060735 0.188897891681422 121.742026797037 0.449203938945078 16.400829249615  0.644845198654781 129.905532511757 
                               0.448900965845351 16.344329396688  0.449203938945075 16.4008292496146 0.772465880181014 102.511456095492 0.000244388001526957 -33.2568573588712 
                               0.645170710399551 -50.0965279213629 0.64484519865478 129.905532511757 0.00024438800152956 -33.2568573592865 0.409791796015476 160.222992416736 
9.875                          0.188839329630624 119.394017860939 0.5906893109058  103.827134059677 0.447135621808017 13.4564001137313 0.644589467768386 -52.8025995994177 
                               0.590689310905806 103.827134059676 0.189255874926596 119.262247265973 0.447441613472649 13.5134910723178 0.644254883635877 127.199833411711 
                               0.447135621808019 13.4564001137316 0.447441613472646 13.5134910723175 0.774509890657569 99.4025569468306 0.000241908467149746 -37.3334849302427 
                               0.644589467768391 -52.8025995994177 0.644254883635876 127.199833411711 0.000241908467152188 -37.333484930516 0.41163086528839 157.620387985072 
9.9                            0.1891717238419  116.915724193566 0.592561590782904 101.110988826226 0.445358073027708 10.5716548347545 0.644003887842682 -55.5043805321567 
                               0.59256159078291 101.110988826226 0.18961296845821 116.782964604147 0.445666983885991 10.6293462586132 0.643660332457813 124.498450699047 
                               0.445358073027711 10.5716548347547 0.445666983885988 10.629346258613  0.776554571786174 96.2969937045462 0.000239482859604254 -41.4064677417855 
                               0.644003887842686 -55.5043805321566 0.643660332457813 124.498450699047 0.000239482859606514 -41.4064677419308 0.413473445900553 155.020167960665 
9.925                          0.189503115968981 114.437822512546 0.594435949276873 98.3987912886244 0.443568456447999 7.69008224802883 0.643413938330691 -58.2019481093471 
                               0.594435949276878 98.3987912886242 0.18996885789194 114.304123272745 0.443880184483305 7.74838388114088 0.643061519158242 121.801306842348 
                               0.443568456448001 7.69008224802895 0.443880184483303 7.74838388114074 0.778599594329784 93.1948275671842 0.000237112378447082 -45.4752410632497 
                               0.643413938330695 -58.201948109347 0.643061519158242 121.801306842348 0.000237112378449139 -45.475241063283 0.415319543787112 152.42229121678  
9.95                           0.189833204081396 111.960263837891 0.596312262701433 95.6904531723027 0.441766928552035 4.81167075367693 0.642819586183523 -60.8953786271305 
                               0.596312262701436 95.6904531723025 0.190323226050337 111.825675061069 0.44208136923535 4.87059273994291 0.642458416947793 119.108325388823 
                               0.441766928552037 4.81167075367702 0.442081369235348 4.87059273994282 0.780644611728489 90.0961155218285 0.000234798142618712 -49.5392137369012 
                               0.642819586183527 -60.8953786271304 0.642458416947793 119.108325388823 0.000234798142620549 -49.5392137368398 0.417169166620937 149.826717119497 
9.975                          0.190161684452889 109.483006461607 0.59819039821667 92.985888940984  0.439953664449542 1.93640829198948 0.64222079759585 -63.5847473343258 
                               0.598190398216672 92.9858889409839 0.19067575407964 109.347578978826 0.4402707108759  1.99596119044361 0.641850998202913 116.419430918132 
                               0.439953664449543 1.93640829198951 0.440270710875899 1.99596119044357 0.782689261907682 87.0009100576723 0.000232541185980949 -53.5977689103554 
                               0.642220797595853 -63.5847473343257 0.641850998202914 116.419430918132 0.00023254118598255 -53.5977689102174 0.419022323797164 147.233405512922 
10                             0.190488252646402 107.0060158291   0.600070214614597 90.2850157374305 0.438128856937872 -0.935717823714883 0.641617538005016 -66.270128476418 
                               0.600070214614599 90.2850157374303 0.191026122552483 106.869801136353 0.438448399965815 -0.875523024047917 0.64123923445725 113.734548998564 
                               0.438128856937874 -0.935717823714864 0.438448399965813 -0.875523024047921 0.784733169059441 83.9092588910075 0.000230342453524741 -57.6502649545155 
                               0.641617538005018 -66.2701284764179 0.641239234457251 113.734548998563 0.000230342453526093 -57.6502649543192 0.420879026414981 144.642316705175 
10.025                         0.190812604583117 104.529264409091 0.601951563095135 87.587753323837  0.436292715540208 -3.80472106949822 0.641009772088574 -68.9515953372771 
                               0.601951563095136 87.5877533238369 0.191374012554317 104.392314613577 0.436614643933787 -3.74387293512386 0.640623096391624 111.053606145533 
                               0.43629271554021 -3.80472106949825 0.436614643933786 -3.74387293512385 0.786775945391319 80.8212047018957 0.000228202798279298 -61.696036574905 
                               0.641009772088577 -68.951595337277 0.640623096391626 111.053606145532 0.000228202798280393 -61.6960365746688 0.422739287256494 142.053411455109 
10.05                          0.191134437593486 102.052731552864 0.603834288030767 84.8940240218491 0.434445465523786 -6.67061586837489 0.64039746376034 -71.6292202786799 
                               0.603834288030766 84.894024021849  0.191719106751342 101.91509931858  0.434769666096666 -6.60910250724438 0.640002553822725 108.376529782321 
                               0.434445465523787 -6.67061586837494 0.434769666096665 -6.60910250724435 0.78881719283743 77.736784882644  0.000226122978940676 -65.7343961223911 
                               0.640397463760342 -71.6292202786799 0.640002553822728 108.376529782321 0.000226122978941507 -65.7343961221327 0.42460312076259 139.466650959762 
10.075                         0.191453451448142 99.5764033437338 0.605718227718321 82.2037526521595 0.432587346900834 -9.53341774302224 0.63978057616506 -74.3030747777427 
                               0.60571822771832 82.2037526521595 0.192061090437753 99.4381418366172 0.432913704662023 -9.47122679086064 0.639377575690676 105.703248202953 
                               0.432587346900835 -9.53341774302229 0.432913704662022 -9.47122679086058 0.790856504727519 74.6560312980654 0.000224103658225845 -69.764635106651 
                               0.639780576165062 -74.3030747777426 0.639377575690678 105.703248202953 0.000224103658226411 -69.7646351063868 0.426470543005729 136.881996842526 
10.1                           0.191769349366629 97.1002724375929 0.607603215116502 79.5168664736222 0.430718613414674 -12.3931434636783 0.639159071671896 -76.9732294623977 
                               0.6076032151165  79.5168664736222 0.192399652560116 96.9614352704765 0.431047011715417 -12.3302620707401 0.638748130045658 103.033690537068 
                               0.430718613414673 -12.3931434636783 0.431047011715416 -12.33026207074  0.792893467410419 71.578970057373  0.000222145401946741 -73.7860259127789 
                               0.639159071671898 -76.9732294623976 0.638748130045662 103.033690537068 0.000222145401947043 -73.7860259125243 0.428341571659634 134.299411141996 
10.125                         0.192081839001919 94.624337895446  0.60948907856797 76.833295121809  0.428839531513202 -15.2498111913473 0.638532911866885 -79.6397541450704 
                               0.609489078567968 76.833295121809  0.192734486716766 94.4849790730984 0.429169852194593 -15.1862260096136 0.638114184033834 100.367786716643 
                               0.428839531513201 -15.2498111913473 0.429169852194592 -15.1862260096135 0.794927661829014 68.5056212974304 0.000220248678788014 -77.7978237182571 
                               0.638532911866886 -79.6397541450704 0.638114184033837 100.367786716643 0.000220248678788058 -77.7978237180256 0.430216225965896 131.718856301514 
10.15                          0.192390633398805 92.1486050088579 0.61137564250495 74.1529705469182 0.42695037931174 -18.1034406164991 0.637902057544614 -82.3027178547352 
                               0.611375642504947 74.1529705469182 0.193065292130182 92.0087788733715 0.427282502852591 -18.0391377873279 0.637475703882791 97.7054674443769 
                               0.426950379311739 -18.1034406164991 0.427282502852591 -18.0391377873279 0.796958665044546 65.4359989769534 0.000218413860762328 -81.7992686041822 
                               0.637902057544615 -82.3027178547352 0.637475703882795 97.7054674443769 0.000218413860762124 -81.7992686039852 0.432094526697514 129.14029515936  
10.175                         0.19269545192431 89.6730851192457 0.613262728137434 71.475826950939  0.425051445546992 -20.9540530935083 0.637266468699365 -84.9621888675452 
                               0.613262728137431 71.475826950939  0.193391774590439 89.5328462960554 0.425385251211534 -20.8890182357487 0.636832654886821 95.0466641635432 
                               0.42505144554699 -20.9540530935084 0.425385251211534 -20.8890182357487 0.798986051708759 62.3701106811512 0.000216641224308052 -85.789587851237 
                               0.637266468699366 -84.9621888675452 0.636832654886823 95.0466641635432 0.000216641224307613 -85.7895878510839 0.433976496119411 126.563690939587 
10.2                           0.19299602116846 87.1977954319729 0.615150154123238 68.8018007239663 0.423143028523607 -23.801671771136 0.636626104515971 -87.6182347362452 
                               0.615150154123234 68.8018007239663 0.193713647367945 87.0571987767891 0.423478394508588 -23.7358899697137 0.63618500139227 92.391309029101  
                               0.423143028523605 -23.801671771136 0.423478394508588 -23.7358899697137 0.801009395482999 59.3079574361806 0.000214930951986243 -89.767998407522 
                               0.636626104515972 -87.6182347362452 0.636185001392274 92.3913090291011 0.000214930951985586 -89.76799840742  0.435862157946007 123.989007243491 
10.225                         0.193292075813872 84.7227588262084 0.617037737219233 66.1308303795586 0.421225435054619 -26.6463217194046 0.635980923360693 -90.2709223185895 
                               0.617037737219229 66.1308303795587 0.194030632093881 84.5818593731595 0.421562238635404 -26.5797775143861 0.635532706783328 89.7393348798402 
                               0.421225435054617 -26.6463217194046 0.421562238635404 -26.5797775143861 0.803028270404005 56.2495335326936 0.000213283134726881 -93.7337095120795 
                               0.635980923360693 -90.2709223185896 0.635532706783331 89.7393348798404 0.000213283134726027 -93.7337095120333 0.4377515372959  121.416208041685 
10.25                          0.193583359472846 82.2480036615233 0.618925292913197 63.4628564890269 0.419298979396788 -29.4880300532652 0.635330882772384 -92.9203178049942 
                               0.618925292913193 63.4628564890271 0.194342459606955 82.1068565728065 0.419637097072059 -29.4207074294028 0.634875733468502 87.090675211329  
                               0.419298979396786 -29.4880300532652 0.419637097072059 -29.4207074294028 0.805042252196616 53.1948263576661 0.000211697774568496 -97.6859254548619 
                               0.635330882772384 -92.9203178049943 0.634875733468505 87.0906752113292 0.000211697774567469 -97.6859254548738 0.439644660643736 118.84525766677  
10.275                         0.193869625490864 79.7735635822043 0.620812636035826 60.7978216145461 0.417363982181651 -32.3268260534894 0.634675939454266 -95.5664867456571 
                               0.620812636035822 60.7978216145463 0.194648870765309 79.6322240995511 0.417703289816355 -32.258708430251 0.634214042868153 84.4452641494281 
                               0.417363982181648 -32.3268260534894 0.417703289816355 -32.258708430251 0.807050919534174 50.1438162336122 0.00021017478783059 -101.623848451076 
                               0.634675939454266 -95.5664867456572 0.634214042868155 84.4452641494282 0.000210174787829417 -101.623848451146 0.441541555769347 116.276120806605 
10.3                           0.194150637715646 77.2994773202554 0.622699581352484 58.1356702409802 0.415420769342876 -35.1627412852571 0.634016049266598 -98.2094940773868 
                               0.622699581352481 58.1356702409804 0.194949617222689 77.1580007185252 0.415761142309059 -35.0938115073396 0.633547595403374 81.8030364241292 
                               0.415420769342874 -35.1627412852571 0.415761142309059 -35.0938115073396 0.80905385524779 47.0964762642196 0.000208714008654712 -105.54668160536 
                               0.634016049266599 -98.209494077387 0.633547595403376 81.8030364241294 0.000208714008653422 -105.546681605486 0.443442251704206 113.708762498131 
10.325                         0.194426171231186 74.8257884980586 0.624585944134386 55.4763487063204 0.413469671040318 -37.9958097149366 0.633351167220551 -100.849404150376 
                               0.624585944134382 55.4763487063205 0.195244462168269 74.6842300412762 0.413810984355534 -37.9260500432598 0.632876350486551 79.1639273434791 
                               0.413469671040315 -37.9958097149366 0.413810984355534 -37.9260500432599 0.811050647486033 44.0527721853736 0.00020731519284757 -109.453631939182 
                               0.633351167220551 -100.849404150376 0.632876350486553 79.1639273434793 0.000207315192846195 -109.45363193936 0.445346778675269 111.143148121779 
10.35                          0.194696013056497 72.3525454316485 0.626471540708887 52.8198051306388 0.411511020580961 -40.8260678255736 0.63268124747359 -103.486280755155 
                               0.626471540708885 52.819805130639  0.195533181029823 72.2109603318075 0.411853149043959 -40.7554599287517 0.632200266513919 76.5278727673489 
                               0.411511020580958 -40.8260678255736 0.411853149043959 -40.7554599287518 0.813040890826925 41.0126622204864 0.000205978021958291 -113.343913453224 
                               0.63268124747359 -103.486280755155 0.632200266513921 76.5278727673492 0.000205978021956864 -113.343913453447 0.447255168046228 108.579243396429 
10.375                         0.194959962809105 69.8798009355362 0.628356188988673 50.1659893434718 0.409545153336804 -43.6535547316279 0.632006243326657 -106.12018714996 
                               0.628356188988671 50.165989343472  0.195815562140286 69.7382443144907 0.409887971660215 -43.5820796779098 0.631519300860412 73.8948090808149 
                               0.409545153336801 -43.6535547316279 0.409887971660215 -43.5820796779099 0.815024187344372 37.9760969390001 0.000204702107521729 -117.216750195382 
                               0.632006243326657 -106.12018714996 0.631519300860413 73.8948090808151 0.000204702107520283 -117.216750195644 0.449167452256188 106.017014374927 
10.4                           0.195217833333659 67.4076121299946 0.630239708979581 47.5148528095537 0.407572405659543 -46.4783122935019 0.631326107223438 -108.751186088737 
                               0.63023970897958 47.5148528095539 0.19609140736806 67.2661389847644 0.407915788599335 -46.4059505431731 0.630833409877115 71.2646731669241 
                               0.407572405659541 -46.4783122935018 0.407915788599335 -46.4059505431732 0.817000147631346 34.9430191168961 0.000203486995400618 -121.07137930443 
                               0.631326107223439 -108.751186088737 0.630833409877116 71.2646731669244 0.000203486995399189 -121.071379304721 0.451083664755762 103.456427440146 
10.425                         0.195469451296395 64.9360402516832 0.632121923266881 44.8663485528388 0.405593113791809 -49.3003852324144 0.630640790751997 -111.379339849993 
                               0.63212192326688 44.866348552839  0.196360532711807 64.7947054234953 0.405936936273285 -49.2271166306483 0.63014254889161 68.6374023786269 
                               0.405593113791807 -49.3003852324143 0.405936936273284 -49.2271166306484 0.818968391782287 31.9133635980171 0.00020233217016128 -124.907053999258 
                               0.630640790751999 -111.379339849994 0.63014254889161 68.6374023786271 0.000202332170159902 -124.907053999569 0.453003839940535 100.897449301613 
10.45                          0.195714657746515 62.4651504684538 0.634002657479776 42.2204310787576 0.403607612774566 -52.119821246174 0.629950244649035 -114.004710266709 
                               0.634002657479776 42.2204310787578 0.196622768860813 62.3240086158414 0.403951750014732 -52.04562501632  0.629446672211473 66.0129345096687 
                               0.403607612774564 -52.1198212461739 0.403951750014731 -52.0456250163201 0.820928550337223 28.8870571549885 0.000201237059420481 -128.72304648407 
                               0.629950244649037 -114.00471026671 0.629446672211473 66.0129345096689 0.00020123705941919 -128.723046484389 0.454928013081813 98.3400469926812 
10.475                         0.195953308645938 59.9950116991293 0.635881740733945 39.5770562946704 0.401616235350215 -54.9366711264001 0.629254418807028 -116.62735875749 
                               0.635881740733946 39.5770562946706 0.196877961722408 59.8541172754067 0.401960562976346 -54.861525863694 0.628745733131197 63.3912077642482 
                               0.401616235350214 -54.9366711264001 0.401960562976345 -54.861525863694 0.822880265190136 25.8640183485121 0.000200201038104794 -132.518650740827 
                               0.62925441880703 -116.627358757491 0.628745733131197 63.3912077642485 0.000200201038103621 -132.518650741144 0.456856220254542 95.7841878682696 
10.5                           0.196185275369231 57.5256964390017 0.637759006051876 36.9361814284985 0.399619310860831 -57.750988877735 0.628553262284479 -119.247346359139 
                               0.637759006051878 36.9361814284987 0.19712597291828 57.3851036744238 0.399963705025119 -57.6748725434131 0.628039683942771 60.7721607252633 
                               0.39961931086083 -57.7509888777349 0.399963705025118 -57.6748725434132 0.824823190464027 22.84415738381   0.00019922343256838 -136.293185181646 
                               0.628553262284481 -119.247346359139 0.62803968394277 60.7721607252635 0.000199223432567356 -136.29318518195 0.458788498262228 93.2298396031684 
10.525                         0.196410445175903 55.0572805917316 0.639634290760761 34.2977649455272 0.397617164140935 -60.5628318395704 0.627846723319505 -121.864733760804 
                               0.639634290760763 34.2977649455274 0.197366680251911 54.9170434806422 0.397961501631113 -60.4857217553713 0.627328475950149 58.1557323209826 
                               0.397617164140934 -60.5628318395704 0.397961501631112 -60.4857217553714 0.826756993355022 19.827375962995  0.00019830352452038 -140.045995135672 
                               0.627846723319508 -121.864733760805 0.627328475950148 58.1557323209828 0.000198303524519534 -140.045995135952 0.460724884558651 90.6769701909304 
10.55                          0.196628721657611 52.5898433082711 0.641507436867662 31.6617664633971 0.395610114404149 -63.3722608108018 0.627134749346956 -124.47958133985 
                               0.641507436867665 31.6617664633972 0.197599978149726 52.4500156015321 0.395954272750024 -63.2941336538328 0.626612059487809 55.5418617900008 
                               0.395610114404149 -63.3722608108017 0.395954272750023 -63.2941336538329 0.828681354947671 16.8135671321626 0.00019744055471891 -143.776455147185 
                               0.627134749346958 -124.47958133985 0.626612059487808 55.541861790001  0.000197440554718269 -143.776455147431 0.462665417166113 88.1255479433589 
10.575                         0.196840025163191 50.1234668333609 0.64337829141165 29.028146665314  0.393598474123076 -66.1793401780959 0.62641728701925 -127.091949199552 
                               0.643378291411653 29.0281466653141 0.197825778078925 49.9841020363425 0.393942331698924 -66.1001719760447 0.625890383943585 52.9304886443522 
                               0.393598474123077 -66.1793401780959 0.393942331698923 -66.1001719760448 0.830595971003386 13.802615122016  0.00019663372639496 -147.483971064197 
                               0.626417287019253 -127.091949199552 0.625890383943583 52.9304886443523 0.000196633726394546 -147.483971064401 0.464610134589892 85.5755414906099 
10.6                           0.197044293204767 47.6582363600779 0.645246706792536 26.3968672115329 0.391582547901737 -68.9841380481343 0.6256942822311  -129.701897208738 
                               0.645246706792541 26.3968672115329 0.198044008945295 47.5193877364764 0.391925984024547 -68.9039041748013 0.625163397785942 50.321552630682  
                               0.391582547901737 -68.9841380481343 0.391925984024546 -68.9039041748014 0.832500552723623 10.7943951808695 0.000195882208376107 -151.167981899643 
                               0.625694282231103 -129.701897208738 0.62516339778594 50.3215526306821 0.00019588220837594 -151.167981899797 0.466559075728554 83.0269197819334 
10.625                         0.197241480848543 45.1942398928307 0.647112541075822 23.7678906491875 0.389562631339922 -71.7867263842643 0.624965680148264 -132.30948504343 
                               0.647112541075826 23.7678906491876 0.198254617474678 45.0559604745646 0.389905526363508 -71.7054015553922 0.624431048595852 47.7149936893955 
                               0.389562631339923 -71.7867263842643 0.389905526363507 -71.7054015553922 0.834394827489147 7.78877339890357 0.000195185137886794 -154.827961450218 
                               0.624965680148268 -132.30948504343 0.62443104859585 47.7149936893955 0.000195185137886889 -154.827961450315 0.468512279779672 80.4796520870759 
10.65                          0.197431561094206 42.7315681191184 0.648975658273369 21.1411803205608 0.387539009888883 -74.587181147957 0.624231425240467 -134.914772230553 
                               0.648975658273375 21.1411803205607 0.198457568582047 42.5939107225347 0.387881245293888 -74.5047394173324 0.623693283103372 45.1107519117277 
                               0.387539009888884 -74.587181147957 0.387881245293886 -74.5047394173324 0.836278539576262 4.78560652259293 0.00019454162300881 -158.463419661073 
                               0.624231425240471 -134.914772230553 0.62369328310337 45.1107519117276 0.000194541623009177 -158.463419661109 0.470469786140476 77.9337079983743 
10.675                         0.197614525247167 40.27031429028   0.650835928599312 18.5167002699108 0.385511957697803 -77.385582445434 0.623491461318588 -137.517818193728 
                               0.650835928599318 18.5167002699107 0.198652845732504 40.1333315388848 0.385853416177665 -77.3019972012357 0.622950047229067 42.5087674947039 
                               0.385511957697804 -77.385582445434 0.385853416177663 -77.3019972012357 0.838151450850511 1.78474175827282 0.000193950744792466 -162.073903727771 
                               0.623491461318592 -137.517818193728 0.622950047229065 42.5087674947038 0.000193950744793111 -162.073903727743 0.472431634302891 75.389057433573  
10.7                           0.197790383288187 37.8105741113764 0.652693228700603 15.8944151489894 0.383481736450591 -80.1820146797875 0.62274573157623 -140.118682301159 
                               0.652693228700609 15.8944151489893 0.198840451298751 37.6743184652822 0.383822301993564 -80.0972586411545 0.622201286130329 39.9089806939824 
                               0.383481736450593 -80.1820146797876 0.383822301993562 -80.0972586411545 0.840013341437832 -1.21398343613618 0.000193411559015675 -165.658998930109 
                               0.622745731576234 -140.118682301159 0.622201286130327 39.9089806939822 0.0001934115590166 -165.658998930017 0.474397863742332 72.8456706393989 
10.725                         0.197959164245169 35.352445640255  0.654547441861569 13.2742901214132 0.381448594192658 -82.9765667088716 0.62199417863573 -142.717423915586 
                               0.654547441861575 13.274290121413  0.199020406919878 35.2169694325154 0.38178815215998 -82.8906119226654 0.62144694425271 37.3113317746015 
                               0.38144859419266 -82.9765667088717 0.381788152159978 -82.8906119226653 0.841864010372672 -4.21074157216187 0.000192923097594559 -169.218329195588 
                               0.621994178635733 -142.717423915586 0.621446944252708 37.3113317746012 0.000192923097595761 -169.218329195432 0.476368513799603 70.303518195935  
10.75                          0.198120916572202 32.8960291957584 0.656398458181773 10.6562907660642 0.379412764147384 -85.7693320092022 0.621236744598693 -145.314102446255 
                               0.656398458181779 10.656290766064  0.199192753866572 32.7613846757375 0.37975120134774 -85.6821498469371 0.620686965386284 34.715760959674  
                               0.379412764147387 -85.7693320092023 0.379751201347739 -85.682149846937 0.843703276221991 -7.20571536542761 0.000192484369655294 -172.75155739335 
                               0.621236744598696 -145.314102446255 0.620686965386282 34.7157609596736 0.000192484369656763 -172.751557393134 0.478343623555158 67.7625710218329 
10.775                         0.198275708541133 30.4414272749483 0.658246174726405 8.04038297972659 0.377374463522191 -88.5604088460499 0.620473371101096 -147.908777402826 
                               0.658246174726411 8.04038297972629 0.199357553418035 30.3076666588505 0.377711668282606 -88.4719700009655 0.619921292727101 32.1222083771065 
                               0.377374463522194 -88.5604088460501 0.377711668282604 -88.4719700009654 0.845530977683485 -10.1990979846894 0.000192094362282527 -176.258385362351 
                               0.620473371101099 -147.908777402825 0.619921292727099 32.1222083771061 0.000192094362284251 -176.25838536208 0.480323231694918 65.2228003804139 
10.8                           0.198423628651213 27.9887444791282 0.660090495648371 5.42653287917859 0.375333892304203 -91.3499004498646 0.619703999372993 -150.501508451113 
                               0.660090495648377 5.42653287917823 0.199514887256148 27.8559200077856 0.375669754537538 -91.260174934116 0.619149868943763 29.5306140044403 
                               0.375333892304206 -91.3499004498647 0.375669754537537 -91.2601749341159 0.847346974155758 -13.1910933159668 0.000191752040964854 -179.738553680249 
                               0.619703999372996 -150.501508451113 0.619149868943762 29.5306140044398 0.000191752040966813 -179.738553679929 0.482307376366805 62.6841778867048 
10.825                         0.198564786062525 25.5380874483595 0.661931332281186 2.81470670298647 0.3732912320457  -94.1379151991123 0.618928570302871 -153.092355470533 
                               0.661931332281191 2.81470670298606 0.199664857882597 25.4062514523553 0.373625643314936 -94.0468723410554 0.618372636249125 26.9409176119439 
                               0.373291232045703 -94.1379151991125 0.373625643314934 -94.0468723410552 0.849151146277479 -16.1819162423822 0.000191456349762392 176.808158817968 
                               0.618928570302873 -153.092355470532 0.618372636249124 26.9409176119433 0.000191456349764564 176.808158818327 0.48429609502706 60.1466755154643 
10.85                          0.198699311059128 23.0895648040883 0.6637686032017  0.20487071326545 0.371246644639701 -96.9245668095543 0.618147024506656 -155.681378613084 
                               0.663768603201704 0.204870713265006 0.199807589064823 22.9587697762666 0.3715794982192  -96.8321752511024 0.617589536477128 24.353058704114  
                               0.371246644639704 -96.9245668095545 0.3715794982192  -96.8321752511022 0.850943396431888 -19.1717929402322 0.000191206211225508 173.381935760309 
                               0.618147024506658 -155.681378613083 0.617589536477127 24.3530587041133 0.000191206211227864 173.381935760698 0.486289424275375 57.610265610255  
10.875                         0.198827355548016 20.6432870994152 0.665602234261651 -2.40300890230883 0.36920027108622 -99.7099745299379 0.617359302401396 -158.268638363689 
                               0.665602234261655 -2.40300890230933 0.199943226316862 20.5135857748055 0.369531462020183 -99.6162022239727 0.616800511164774 21.7669764597647 
                               0.369200271086224 -99.709974529938 0.369531462020183 -99.6162022239726 0.852723649212267 -22.1609611917186 0.000191000526097081 169.982924183728 
                               0.617359302401397 -158.268638363689 0.616800511164773 21.7669764597641 0.000191000526099591 169.982924184135 0.488287399677826 55.0749208936226 
10.9                           0.198949093600183 18.1993667764717 0.667432158586946 -5.00896612793075 0.367152230249952 -102.494263344008 0.616565344283635 -160.854195601674 
                               0.667432158586949 -5.0089661279313 0.200071937421268 18.0708122196348 0.367481655408281 -102.399077551827 0.616005501639211 19.1826096709211 
                               0.367152230249955 -102.494263344008 0.367481655408281 -102.399077551827 0.854491851843248 -25.1496707146556 0.00019083817283348 166.611235690576 
                               0.616565344283636 -160.854195601674 0.616005501639211 19.1826096709204 0.000190838172836107 166.611235690988 0.490290055576502 52.5406144784442 
10.925                         0.199064722040248 15.7579181302971 0.669258316543557 -7.61303521621609 0.36510261761035 -105.277564178688 0.615765090412472 -163.43811166314 
                               0.66925831654356 -7.61303521621667 0.200193912998472 15.6305638300772 0.365430175742149 -105.180931467475 0.615204449109934 16.5998966807495 
                               0.365102617610353 -105.277564178689 0.365430175742149 -105.180931467475 0.856247974552013 -28.1381835093616 0.000190718006981514 163.266947798943 
                               0.615765090412472 -163.438111663139 0.615204449109934 16.5998966807487 0.000190718006984219 163.266947799347 0.492297424884729 50.0073198805129 
10.95                          0.199174461091284 13.3190572785513 0.671080655668836 -10.2152507835305 0.363051504005328 -108.060014118222 0.614958481097316 -166.020448403967 
                               0.671080655668838 -10.2152507835311 0.200309367130067 13.1929572501997 0.363377095790268 -107.961900358528 0.614397294766061 14.0187753207939 
                               0.363051504005331 -108.060014118222 0.363377095790269 -107.961900358527 0.857992010882606 -31.1267742228151 0.000190638860450148 159.950105469056 
                               0.614958481097316 -166.020448403966 0.614397294766061 14.0187753207931 0.00019063886045289 159.950105469437 0.494309538866704 47.4750110324289 
10.975                         0.199278555081691 10.8829021363433 0.672899130567024 -12.8156479037378 0.360998934370044 -110.841756623974 0.614145456790358 -168.601268263154 
                               0.672899130567026 -12.8156479037384 0.200418538042701 10.7581110309639 0.36132246246783 -110.74212698721 0.613583979878692 11.4391828478068 
                               0.360998934370046 -110.841756623974 0.361322462467831 -110.74212698721 0.859723977945721 -34.1157305300252 0.000190599540716698 156.660722786909 
                               0.614145456790358 -168.601268263154 0.613583979878692 11.439182847806  0.000190599540719434 156.660722787254 0.496326426900345 44.9436622988676 
11                             0.199377273221161 8.44957239541685 0.674713702767696 -15.4142621999915 0.358944926472542 -113.622941759565 0.613325958183749 -171.180634326169 
                               0.674713702767698 -15.4142621999921 0.200521688859405 8.32614561666774 0.359266295570713 -113.521760715501 0.612764445908311 8.86105588049196 
                               0.358944926472545 -113.622941759565 0.359266295570714 -113.521760715501 0.861443916595398 -37.1053535324216 0.000190598830007556 153.398784785608 
                               0.613325958183748 -171.180634326169 0.612764445908311 8.86105588049121 0.00019059883001024 153.398784785903 0.498348116222107 42.4132484933024 
11.025                         0.199470910453015 6.01918950689626 0.676524340545834 -18.0111299341807 0.356889469648317 -116.403726420897 0.61249992631152 -173.758610387965 
                               0.676524340545835 -18.0111299341813 0.200619108425406 5.89718333487207 0.357208586508603 -116.300957735172 0.611938634617232 6.28433033650175 
                               0.356889469648319 -116.403726420897 0.357208586508605 -116.300957735172 0.863151891523071 -40.0959581729128 0.000190635484493326 150.164249384427 
                               0.612499926311518 -173.758610387964 0.611938634617232 6.28433033650097 0.000190635484495914 150.164249384658 0.500374631652502 39.8837448962586 
11.05                          0.199559788390495 3.59187666677493 0.678331018702203 -20.6062880936238 0.354832523536199 -119.184274570587 0.611667302656257 -176.335261015298 
                               0.678331018702204 -20.6062880936244 0.200711112215693 3.47134838898705 0.355149297039673 -119.079881302247 0.611106488187071 3.7089413700542  
                               0.354832523536202 -119.184274570587 0.355149297039674 -119.079881302246 0.864847991258469 -43.0878736670913 0.00019070823353756 146.957049425335 
                               0.611667302656256 -176.335261015298 0.611106488187071 3.70894137005351 0.000190708233540005 146.957049425491 0.502405995301054 37.3551272751781 
11.075                         0.199644256344887 1.16775880331683 0.68013371830269 -23.1997744745946 0.352774016818334 -121.964757476234 0.610828029260583 -178.91065160795 
                               0.680133718302691 -23.1997744745951 0.200798043331921 1.04876685268589 0.353088358009545 -121.858701975309 0.610267949341261 1.13482331056062 
                               0.352774016818336 -121.964757476234 0.353088358009546 -121.858701975309 0.866532328065702 -46.0814439498788 0.000190815779037121 143.777094786726 
                               0.610828029260582 -178.91065160795 0.610267949341261 1.13482331055995 0.000190815779039378 143.777094786796 0.504442226249367 34.8273719059796 
11.1                           0.199724692453769 -1.25303743445972 0.681932426375244 -25.7916277622497 0.350713845967401 -124.74535395187 0.609982048843471 178.515151541557 
                               0.681932426375246 -25.7916277622501 0.20088027359652 -1.37043333468282 0.351025668097716 -124.637597857032 0.609422961472593 -1.43809039732572 
                               0.350713845967403 -124.74535395187 0.351025668097717 -124.637597857032 0.868205037721841 -49.0770281367031 0.000190956794890611 140.624274554231 
                               0.60998204884347 178.515151541558 0.609422961472593 -1.43809039732628 0.00019095679489264 140.624274554207 0.506483340211032 32.3004555963959 
11.125                         0.199801504918113 -3.67038368803145 0.683727135563063 -28.381887606518 0.348651874004679 -127.52625060187 0.609129304921462 175.942081190198 
                               0.683727135563065 -28.3818876065183 0.200958204752346 -3.78612237249267 0.348961092574993 -127.416754838192 0.60857146877584 -4.0098672518046 
                               0.348651874004681 -127.52625060187 0.348961092574994 -127.416754838191 0.869866279164002 -52.075000998071 0.000191129926629303 137.498459228852 
                               0.609129304921461 175.942081190199 0.608571468775839 -4.00986725180503 0.000191129926631064 137.498459228728 0.508529349167065 29.7743557111761 
11.15                          0.199875133357539 -6.08414990114322 0.685517843732668 -30.970594693503 0.346587929273017 -130.307642066508 0.608269741934868 173.370069089075 
                               0.685517843732671 -30.9705946935033 0.201032269776653 -6.19816860382389 0.346894462075993 -130.19636684338 0.607713416385459 -6.58057574971408 
                               0.346587929273018 -130.307642066508 0.346894462075994 -130.19636684338 0.87151623398976 -55.0757534461609 0.000191333791242631 134.399502953131 
                               0.608269741934867 173.370069089075 0.607713416385458 -6.58057574971443 0.00019133379124409 134.399502952903 0.510580260975606 27.2490501992393 
11.175                         0.199946050293671 -8.49420433285253 0.687304553535532 -33.5577908119393 0.344521804229285 -133.089731268262 0.607403305379041 170.799045930931 
                               0.687304553535536 -33.5577908119394 0.201102934318801 -8.60643852176381 0.344825571391262 -132.976636077524 0.60684875051846 -9.15028543953245 
                               0.344521804229286 -133.089731268262 0.344825571391262 -132.976636077524 0.873155105794311 -58.0796930317842 0.000191566977227611 131.327245736725 
                               0.60740330537904 170.799045930931 0.606848750518458 -9.15028543953267 0.000191566977228738 131.327245736391 0.512636078954609 24.7245176228693 
11.2                           0.200014762772325 -10.9004135725388 0.689087271921944 -36.1435189142403 0.342453254261469 -135.872729657885 0.606529941940823 168.228941301038 
                               0.689087271921949 -36.1435189142404 0.201170698271793 -11.0107967776898 0.342754178284129 -135.757773272238 0.605977418622471 -11.719066971106 
                               0.34245325426147 -135.872729657885 0.342754178284129 -135.757773272238 0.874783119326393 -61.0872444497696 0.000191828044888497 128.281515663511 
                               0.606529941940823 168.228941301038 0.605977418622467 -11.7190669711061 0.000191828044889271 128.281515663076 0.514696801436333 22.2007371890383 
11.225                         0.200081814136188 -13.3026425574966 0.69086600960583 -38.7278231716679 0.340381996536177 -138.65685745917 0.605649599640309 165.659683631959 
                               0.690866009605837 -38.7278231716679 0.201236097488622 -13.41110619212  0.340680002338033 -138.53999793095 0.605099369529106 -14.2869921415934 
                               0.340381996536177 -138.65685745917 0.340680002338034 -138.539997930949 0.876400519443456 -64.0988500504875 0.000192115526909717 125.262131063228 
                               0.60564959964031 165.659683631959 0.605099369529101 -14.2869921415934 0.000192115526910122 125.262131062697 0.516762421292427 19.6776887829497 
11.25                          0.200147785960756 -15.7007545936436 0.692640780479312 -41.3107490231483 0.338307708883008 -141.442343911231 0.604762227978062 163.091200162722 
                               0.69264078047932 -41.3107490231481 0.201299705655395 -15.8072277686215 0.338602723840741 -141.323538571652 0.604214553612728 -16.8541339371037 
                               0.338307708883008 -141.442343911232 0.338602723840741 -141.323538571652 0.878007569844919 -67.1149703548707 0.000192427929221506 122.268902631603 
                               0.604762227978063 163.091200162722 0.604214553612722 -16.8541339371035 0.000192427929221538 122.268902630987 0.518832925428522 17.155353003891  
11.275                         0.200213300167595 -18.0946113797691 0.694411600975803 -43.892343217261 0.336230028723013 -144.229427507059 0.603867778087957 160.523416902937 
                               0.694411600975813 -43.8923432172607 0.201362136334424 -18.1990207111499 0.336521982712611 -144.108632966027 0.603322922954715 -19.4205665694912 
                               0.336230028723013 -144.229427507059 0.336521982712611 -144.108632966027 0.87960455156067 -70.1360845698771 0.000192763732173912 119.301635483993 
                               0.603867778087959 160.523416902937 0.603322922954707 -19.4205665694909 0.000192763732173575 119.301635483306 0.520908294247273 14.6337112034833 
11.3                           0.200279021330494 -20.4840730356197 0.696178489380571 -46.4726538469211 0.334148552049265 -147.018356226971 0.602966202895844 157.956258602405 
                               0.696178489380583 -46.4726538469207 0.201424045191893 -20.5863424450576 0.334437377486893 -146.895528373603 0.60242443151338 -21.9863655077546 
                               0.334148552049265 -147.018356226972 0.334437377486892 -146.895528373602 0.881191761170106 -73.1626911008877 0.000193121392030785 116.360131128668 
                               0.602966202895845 157.956258602405 0.602424431513371 -21.9863655077542 0.000193121392030097 116.360131127929 0.522988501078902 12.11274552642   
11.325                         0.200345659191915 -22.8689981339773 0.697941465087725 -49.0517303762794 0.332062832468486 -149.809387765522 0.602057457284217 155.389648726794 
                               0.697941465087737 -49.0517303762789 0.201486132426374 -22.9690486418562 0.332348464350927 -149.684481769508 0.601519035299692 -24.5516075034828 
                               0.332062832468485 -149.809387765523 0.332348464350925 -149.684481769508 0.882769508725108 -76.1953080570365 0.000193499342791243 113.444189347035 
                               0.602057457284218 155.389648726794 0.601519035299682 -24.5516075034822 0.000193499342790232 113.444189346267 0.525073511578367 9.5924389537777  
11.35                          0.200413971409184 -25.2492437367156 0.699700547802704 -51.6296236593641 0.329972380313645 -152.602789750296 0.601141498263152 152.823509439932 
                               0.699700547802718 -51.6296236593636 0.20154914541642 -25.3469932476369 0.330254756258099 -152.475760064288 0.600606692558965 -27.1163706097728 
                               0.329972380313645 -152.602789750297 0.330254756258097 -152.475760064288 0.884338115348295 -79.2344737449055 0.000193895998341716 110.553609969341 
                               0.601141498263153 152.823509439931 0.600606692558953 -27.1163706097722 0.000193895998340428 110.553609968571 0.527163283088427 7.07277534898801 
11.375                         0.200484766552338 -27.6246654346319 0.701455756689481 -54.2063859499933 0.327876661838534 -155.39883995095 0.60021828514772 150.257761593311 
                               0.701455756689496 -54.2063859499927 0.201613881607756 -27.7200285148559 0.328155722121478 -155.269640314144 0.599687363958707 -29.6807341930466 
                               0.327876661838534 -155.39883995095 0.328155722121476 -155.269640314144 0.88589791047581 -82.2807471454081 0.000194309754937323 107.688194535639 
                               0.60021828514772 150.25776159331  0.599687363958693 -29.6807341930459 0.000194309754935818 107.688194534901 0.529257763967964 4.55373950655176 
11.4                           0.200558907378379 -29.9951173906362 0.703207109461769 -56.7820709024892 0.325775098506482 -158.197826476732 0.599287779742162 147.692324723385 
                               0.703207109461783 -56.7820709024886 0.20168119166324 -30.0880050369593 0.326050786101196 -158.066409919864 0.598761012782836 -32.2447789371767 
                               0.325775098506482 -158.197826476732 0.326050786101193 -158.066409919864 0.887449228711676 -85.3347083679946 0.000194738994006773 104.847747833126 
                               0.59928777974216 147.692324723384 0.598761012782819 -32.244778937176 0.000194738994005129 104.847747832456 0.531356892885103 2.03531720357742 
11.425                         0.200637314409966 -32.3604523856383 0.704954621417708 -59.3567335627344 0.323667066386632 -161.000047960642 0.598349946531092 145.127117057233 
                               0.704954621417721 -59.3567335627339 0.201751982901868 -32.450771785072 0.323939326998925 -160.866366812621 0.597827605132467 -34.8085868393373 
                               0.323667066386632 -161.000047960643 0.323939326998922 -160.86636681262 0.888992406258501 -88.3969590755608 0.000195182085270515 102.032079302229 
                               0.598349946531088 145.127117057232 0.59782760513245 -34.8085868393367 0.000195182085268827 102.032079301669 0.533460598074783 -0.482504745780839 
11.45                          0.200720969850427 -34.7205218661986 0.706698304417657 -61.930430349117 0.321551895672587 -163.805813728272 0.597404752878017 142.5620555272   
                               0.706698304417667 -61.9304303491165 0.201827223056666 -34.808176145686 0.321820677774137 -163.669819624705 0.596887110133517 -37.3722411969871 
                               0.321551895672586 -163.805813728272 0.321820677774134 -163.669819624704 0.890527776887038 -91.4681228726043 0.000195637390157366 99.2410043052181 
                               0.597404752878009 142.5620555272   0.596887110133498 -37.3722411969866 0.000195637390155749 99.2410043048148 0.535568796560659 -2.99973843291118 
11.475                         0.200810921871387 -37.0751759927033 0.708438165804881 -64.5032190229185 0.319428870339676 -166.61544394929 0.596452169231468 139.997055795087 
                               0.708438165804887 -64.5032190229182 0.201907944385514 -37.1600639579587 0.319694125198277 -166.477087843186 0.595939500151331 -39.9358265853925 
                               0.319428870339675 -166.615443949291 0.319694125198275 -166.477087843186 0.892055667404808 -94.5488456482474 0.000196103265500435 96.4743452524149 
                               0.596452169231454 139.997055795087 0.595939500151311 -39.9358265853922 0.000196103265499024 96.4743452522185 0.537681393341363 -5.51639479429007 
11.5                           0.200908289314487 -39.4242636864796 0.710174207269146 -67.0751586477154 0.317297227958673 -169.42926976945 0.595492169339045 137.432032286483 
                               0.710174207269146 -67.0751586477155 0.20199524817372 -39.5062795488764 0.31755890966458 -169.288501944399 0.594984751012606 -42.499428825104 
                               0.317297227958672 -169.42926976945 0.317558909664579 -169.288501944399 0.89357639258177 -97.6397958647398 0.000196578067488928 93.73193258244   
                               0.595492169339023 137.432032286483 0.594984751012586 -42.4994288251042 0.000196578067487881 93.7319325825052 0.539798280541383 -8.032483547924  
