! Generated from PyAEDT SolutionData; AEDT ExportNetworkData workaround
# GHz S MA R 50
9 0.586322077398 31.9598680783 0.318069345438 -62.4986649547 0.540686062319 -5.07523838218 0.5125591625 43.3380468296 0.318069345438 -62.4986649547 0.585895122532 31.9676002629 0.540348060589 -5.08213509743 0.513403126504 -136.699514865 0.540686062319 -5.07523838218 0.540348060589 -5.08213509743 0.644734432614 167.340384958 0.000258522960824 165.209158644 0.5125591625 43.3380468296 0.513403126504 -136.699514865 0.000258522960824 165.209158644 0.688258866851 -152.759788928
9.025 0.585516886055 28.8908288556 0.317388061526 -66.0460362493 0.542703404543 -9.60872804757 0.511768575395 40.5468017601 0.317388061526 -66.0460362493 0.585086887514 28.8994737273 0.542363726508 -9.61577299789 0.512619880625 -139.491338268 0.542703404543 -9.60872804756 0.542363726508 -9.6157729979 0.641335419179 161.422874045 0.000260764729419 162.581534455 0.511768575395 40.5468017601 0.512619880625 -139.491338268 0.00026076472936 162.581534453 0.6894299956 -155.139545814
9.05 0.584733143145 25.8302028406 0.316735377884 -69.5790785889 0.544666259845 -14.1277841065 0.510982811597 37.7640987702 0.316735377884 -69.5790785889 0.584299740084 25.839698407 0.544325287339 -14.1349778916 0.511841402282 -142.274648144 0.544666259845 -14.1277841065 0.544325287339 -14.1349778916 0.637999180014 155.523969865 0.000263350194733 159.943571313 0.510982811596 37.7640987702 0.511841402282 -142.274648144 0.000263350194636 159.943571311 0.690590240902 -157.512824732
9.075 0.583968708894 22.7777141182 0.316112271271 -73.0981584143 0.546577006058 -18.6324507546 0.510201905413 34.989790979 0.316112271271 -73.0981584143 0.583531546555 22.7879939437 0.546235120879 -18.6397957786 0.511067730271 -145.049593289 0.546577006058 -18.6324507546 0.546235120879 -18.6397957786 0.634723459178 149.644306101 0.000266283368604 157.287675864 0.510201905413 34.989790979 0.511067730271 -145.049593289 0.000266283368487 157.287675864 0.691739636707 -159.87975135
9.1 0.583221380224 19.7331065957 0.315519564035 -76.6036613888 0.548438138554 -23.122800552 0.509425891673 32.2237344612 0.315519564035 -76.6036613889 0.582780110791 19.7441000299 0.548095721566 -23.1303010056 0.510298900216 -147.816319148 0.548438138554 -23.122800552 0.548095721566 -23.1303010056 0.631505649067 143.784404637 0.00026956310278 154.606700297 0.509425891673 32.2237344612 0.510298900215 -147.816319148 0.000269563102657 154.606700299 0.692878218123 -162.240448552
9.125 0.582488906418 16.6961439421 0.314957930125 -80.0959891018 0.550252246695 -27.598932083 0.508654805483 29.4657882149 0.314957930124 -80.0959891018 0.582043189891 16.7077763531 0.549909676933 -27.6065939211 0.509534944952 -150.574967912 0.550252246695 -27.5989320829 0.549909676933 -27.6065939211 0.628342832822 137.944683448 0.000273183521704 151.894179638 0.508654805483 29.4657882149 0.509534944951 -150.574967912 0.000273183521586 151.894179642 0.694006021335 -164.595036533
9.15 0.581769003731 13.6666094475 0.3144279013 -83.5755560128 0.552021991837 -32.060967763 0.507888682024 26.7158141215 0.3144279013 -83.5755560128 0.581318508814 13.6788024577 0.551679645612 -32.0687986785 0.508775894868 -153.325678597 0.552021991837 -32.060967763 0.551679645612 -32.0687986785 0.625231824459 132.125464165 0.000277134607917 149.144505437 0.507888682024 26.7158141215 0.508775894868 -153.325678597 0.000277134607812 149.144505443 0.695123083512 -166.94363289
9.175 0.581059368991 10.6443058082 0.31392987342 -87.0427866323 0.553750086922 -36.5090517943 0.507127556375 23.9736768992 0.313929873419 -87.0427866323 0.580603773992 10.6569775345 0.553408336938 -36.5170611869 0.508021778206 -156.06858714 0.553750086922 -36.5090517942 0.553408336938 -36.517061187 0.622169206491 126.32697923 0.000281402878813 146.353032346 0.507127556375 23.9736768992 0.508021778206 -156.06858714 0.000281402878725 146.353032353 0.696229442732 -169.286352708
9.2 0.580357692261 7.62905484752 0.313464112728 -90.4981129315 0.555439277662 -40.943348266 0.506371463368 21.2392440514 0.313464112728 -90.4981129315 0.579896685971 7.64212014556 0.555098492145 -40.9515472089 0.507272621324 -158.803826479 0.555439277662 -40.943348266 0.555098492145 -40.9515472089 0.619151364949 120.549378606 0.000285972096811 143.516121109 0.506371463368 21.2392440514 0.507272621324 -158.803826479 0.000285972096743 143.516121116 0.697325137894 -171.623308649
9.225 0.579661668584 4.62069717887 0.313030762088 -93.9419719741 0.557092325309 -45.3640393985 0.505620437471 18.5123858107 0.313030762088 -93.9419719741 0.579194951151 4.63406789213 0.556752867145 -45.3724405991 0.50652844893 -161.531526645 0.557092325309 -45.3640393985 0.556752867145 -45.3724405991 0.616174521751 114.792736004 0.000290823963875 140.631126689 0.505620437471 18.5123858107 0.50652844893 -161.531526645 0.000290823963826 140.631126696 0.698410208641 -173.95461103
9.25 0.578969008877 1.61909181932 0.312629847085 -97.3748037597 0.558711990951 -49.7713239242 0.504874512684 15.7929750788 0.312629847085 -97.3748037597 0.578496292651 1.63267703259 0.558374216852 -49.7799416817 0.505789284284 -164.251814842 0.558711990951 -49.7713239242 0.558374216852 -49.7799416817 0.613234764466 109.057054613 0.000295938763182 137.696343278 0.504874512684 15.7929750788 0.505789284284 -164.251814842 0.000295938763151 137.696343283 0.699484695279 -176.280367912
9.275 0.578277450003 -1.37588424026 0.312261281966 -100.797049269 0.560301021307 -54.1654156001 0.504133722468 13.0808873645 0.312261281966 -100.797049269 0.577798460348 -1.36217794243 0.559965280986 -54.1742657594 0.505055149379 -166.964815535 0.560301021307 -54.1654156001 0.559965280985 -54.1742657594 0.610328073551 103.34227233 0.000301295923523 134.710918902 0.504133722468 13.0808873645 0.505055149379 -166.964815535 0.000301295923507 134.710918905 0.700548638703 -178.600685168
9.3 0.577584764067 -4.36433650173 0.311924875387 -104.209148703 0.561862135928 -58.5465418447 0.50339809968 10.3760007186 0.311924875387 -104.209148703 0.577099240136 -4.35060477148 0.561528771305 -58.5556417459 0.5043260651 -169.670650527 0.561862135928 -58.5465418447 0.561528771305 -58.5556417459 0.607450347188 97.648266512 0.000306874493767 131.674751744 0.503398099679 10.3760007186 0.5043260651 -169.670650527 0.000306874493763 131.674751746 0.70160208032 179.08433343
9.325 0.576888766976 -7.34635345663 0.311620335932 -107.611539892 0.563398015747 -62.9149424927 0.502667676527 7.67819566797 0.311620335932 -107.611539892 0.57639646244 -7.33269391413 0.563067360184 -62.9243109166 0.503602051364 -172.369439042 0.563398015747 -62.9149424927 0.563067360184 -62.9243109166 0.604597423853 91.9748582487 0.000312653524508 128.588378575 0.502667676527 7.67819566797 0.503602051364 -172.369439042 0.000312653524512 128.588378575 0.702645061976 176.774586146
9.35 0.576187326297 -10.3220071079 0.311347277389 -111.004656889 0.564911292889 -67.2708686569 0.501942484538 4.98735514816 0.311347277389 -111.004656889 0.575688010028 -10.3085190675 0.564583670446 -67.2805257671 0.502883127245 -175.061297803 0.564911292889 -67.2708686569 0.564583670446 -67.2805257671 0.601765102789 86.3218162055 0.000318612361284 125.452863482 0.501942484538 4.98735514816 0.502883127245 -175.061297803 0.000318612361294 125.452863481 0.703677625881 174.469973203
9.375 0.575478368455 -13.2913535108 0.311105223779 -114.388928703 0.566404541651 -71.6145816923 0.50122255454 2.30336443609 0.311105223779 -114.388928703 0.574971825147 -13.2781377019 0.566080266378 -71.6245489733 0.502169311087 -177.74634111 0.566404541651 -71.6145816923 0.566080266378 -71.6245489733 0.598949162544 80.6888600504 0.00032473085849 122.269692784 0.50122255454 2.30336443609 0.502169311087 -177.74634111 0.000324730858502 122.269692782 0.704699814543 172.170396715
9.4 0.574759885299 -16.2544333276 0.310893614128 -117.764778189 0.56788027057 -75.946352251 0.500507916645 -0.373888917814 0.310893614128 -117.764778189 0.57424591604 -16.2415916106 0.567559645833 -75.9566524425 0.501460620601 179.575319091 0.56788027057 -75.946352251 0.567559645833 -75.9566524425 0.59614537773 75.0756635073 0.00033098952573 119.040679865 0.500507916645 -0.373888917816 0.501460620601 179.575319091 0.000330989525743 119.040679862 0.705711670696 169.875760622
9.425 0.574029940083 -19.2112723917 0.310711806972 -121.132621067 0.569340915483 -80.2664594212 0.499798600249 -3.04451515687 0.310711806972 -121.132621067 0.573508362859 -19.1989074688 0.569024233327 -80.2771164486 0.50075707296 176.903573128 0.569340915483 -80.2664594212 0.569024233327 -80.2771164486 0.593349534186 69.4818570693 0.000337369619197 115.76788193 0.49979860025 -3.04451515688 0.50075707296 176.903573128 0.000337369619209 115.767881927 0.706713237231 167.58597062
9.45 0.573286672891 -22.1618822756 0.310559084617 -124.492865065 0.570788833498 -84.5751899412 0.499094634036 -5.70862238483 0.310559084617 -124.492865065 0.572757323031 -22.1500973969 0.570476374044 -84.5862288435 0.500058684881 174.238313539 0.570788833498 -84.5751899412 0.570476374044 -84.5862288435 0.59055744268 63.907030408 0.000343853190319 112.453529312 0.499094634036 -5.70862238483 0.500058684881 174.238313539 0.000343853190329 112.453529309 0.707704557133 165.300934104
9.475 0.57252830554 -25.1062608601 0.310434657139 -127.845909175 0.572226297786 -88.8728374816 0.498396045983 -8.36631663158 0.310434657139 -127.845909175 0.571991036094 -25.0951595249 0.571918328672 -88.8842843347 0.499365472698 171.579434997 0.572226297786 -88.8728374816 0.571918328672 -88.8842843347 0.587764951306 58.350734512 0.000350423102789 109.099967 0.498396045983 -8.36631663158 0.499365472698 171.579434997 0.000350423102797 109.099966997 0.708685673417 163.020560103
9.5 0.571753146013 -28.0443928988 0.310337666145 -131.192143013 0.573655493111 -93.1597019865 0.497702863376 -11.0177019177 0.310337666145 -131.192143013 0.571207828062 -28.034078553 0.573352268972 -93.1715838245 0.498677452439 168.92683425 0.573655493111 -93.1597019865 0.573352268972 -93.1715838245 0.58496795671 52.8124835901 0.000357063027529 105.709607463 0.497702863376 -11.0177019177 0.498677452439 168.92683425 0.000357063027534 105.70960746 0.70965662906 160.744759224
9.525 0.570959592437 -30.9762505762 0.310267188299 -134.53194627 0.575078512023 -97.4360890685 0.497015112829 -13.6628803177 0.310267188299 -134.53194627 0.570406115342 -30.9668263058 0.574780274015 -97.4484338013 0.49799463989 166.28041005 0.575078512023 -97.4360890685 0.574780274015 -97.4484338013 0.582162414274 47.2917567673 0.000363757423449 102.284893497 0.497015112829 -13.6628803177 0.49799463989 166.28041005 0.000363757423451 102.284893495 0.710617466946 158.473443591
9.55 0.570146136669 -33.9017940551 0.310222238624 -137.865688252 0.576497351639 -101.70230945 0.496332820298 -16.3019520216 0.310222238624 -137.865688252 0.569584408245 -33.8933622761 0.576204327008 -101.715145778 0.497317050657 163.640063091 0.576497351639 -101.70230945 0.576204327008 -101.715145778 0.579344347367 41.7879996023 0.000370491510205 98.8282696802 0.496332820298 -16.3019520216 0.497317050657 163.640063091 0.000370491510206 98.8282696786 0.7115682298 156.206526795
9.575 0.569311367512 -36.8209720117 0.310201773591 -141.193727487 0.577913910937 -105.958678443 0.495656011109 -18.9350153949 0.310201773591 -141.193727487 0.568741314141 -36.8136341569 0.577626312635 -105.97203577 0.496644700231 161.005695952 0.577913910937 -105.958678443 0.577626312635 -105.97203577 0.576509855776 36.30062545 0.000377251237626 95.3421610305 0.495656011109 -18.9350153949 0.496644700231 161.005695952 0.000377251237626 95.3421610296 0.712508960134 153.943923836
9.6 0.568453973606 -39.7337221544 0.310204694007 -144.516411409 0.579329988513 -110.205515469 0.494984709978 -21.5621670373 0.310204694007 -144.516411409 0.567875540285 -39.7275783588 0.579048014854 -110.21942381 0.495977604041 158.37721303 0.579329988513 -110.205515469 0.579048014854 -110.21942381 0.57365512341 30.8290166912 0.000384023255168 91.8289575576 0.494984709978 -21.5621670373 0.495977604041 158.37721303 0.000384023255167 91.8289575572 0.713439700188 151.685551076
9.625 0.567572746045 -42.6399717273 0.310229847711 -147.834076099 0.580747280722 -114.4431436 0.49431894104 -24.1835018384 0.310229847711 -147.834076099 0.566985896363 -42.6351205104 0.580471115094 -114.457633493 0.495315777516 155.754520486 0.580747280722 -114.4431436 0.580471115094 -114.457633493 0.570776425368 25.3725258445 0.000390794883673 88.2910035289 0.49431894104 -24.1835018384 0.495315777516 155.754520486 0.000390794883671 88.2910035291 0.714360491875 149.431326185
9.65 0.566666580738 -45.5396379937 0.310276032096 -151.147046074 0.582167380164 -118.671889137 0.493658727871 -26.7991130333 0.310276032096 -151.147046074 0.566071296804 -45.5361759419 0.581897190787 -118.686991545 0.494659236134 153.137526189 0.582167380164 -118.671889137 0.581897190787 -118.686991545 0.567870134462 19.9304765773 0.000397554090823 84.7305904398 0.493658727871 -26.7991130333 0.494659236134 153.137526189 0.000397554090821 84.7305904403 0.715271376726 147.181168097
9.675 0.565734480589 -48.432628702 0.310341996461 -154.455634134 0.583591774465 -122.892081197 0.493004093518 -29.4090922545 0.310341996461 -154.455634134 0.565130762879 -48.4306501503 0.583327714195 -122.907827415 0.494007995479 150.526139656 0.583591774465 -122.892081197 0.583327714195 -122.907827415 0.564932727266 14.5021646238 0.000404289471023 81.1499528389 0.493004093518 -29.4090922545 0.494007995479 150.526139656 0.000404289471022 81.1499528398 0.716172395838 144.934996958
9.7 0.564775557495 -51.318842532 0.310426444207 -157.760141232 0.585021845298 -127.104051335 0.492355060527 -32.0135295837 0.310426444207 -157.760141232 0.564163424663 -51.318439246 0.584764051487 -127.12047289 0.493362071291 147.920272003 0.585021845298 -127.104051335 0.584764051487 -127.12047289 0.561960789759 9.08685862068 0.000410990229948 77.5512663156 0.492355060527 -32.0135295837 0.493362071291 147.920272003 0.000410990229949 77.5512663167 0.717063589821 142.692734089
9.725 0.563789034244 -54.1981695219 0.310528034888 -161.060856399 0.586458867615 -131.308133167 0.491711650968 -34.6125136003 0.310528034888 -161.060856399 0.563168522862 -54.1994303817 0.586207462017 -131.325261721 0.49272147952 145.31983589 0.586458867615 -131.308133167 0.586207462017 -131.325261721 0.558951022658 3.68380086329 0.000417646173664 73.9366470946 0.491711650968 -34.6125136003 0.49272147952 145.31983589 0.000417646173666 73.9366470958 0.717944998751 140.454301934
9.75 0.562774246325 -57.0704914781 0.310645386125 -164.358056679 0.587904009054 -135.504662015 0.491073886471 -37.2061314291 0.310645386125 -164.358056679 0.562145410572 -57.0735021637 0.587659097783 -135.522529266 0.492086236368 142.724745469 0.587904009054 -135.504662015 0.587659097783 -135.522529266 0.555900246484 -1.70779201369 0.000424247702012 70.3081528048 0.491073886471 -37.2061314291 0.492086236368 142.724745469 0.000424247702015 70.308152806 0.718816662119 138.219624024
9.775 0.561730643693 -59.935682368 0.310777075398 -167.652007104 0.589358329483 -139.693974564 0.490441788246 -39.7944687861 0.310777075398 -167.652007104 0.561093555002 -59.9405250485 0.589120003024 -139.712612147 0.491456358343 140.134916334 0.589358329483 -139.693974564 0.589120003024 -139.712612147 0.55280540644 -7.08872843095 0.000430785805842 66.6677840884 0.490441788246 -39.7944687861 0.491456358343 140.134916334 0.000430785805846 66.6677840896 0.719678618785 135.988624934
9.8 0.560657792533 -62.7936086981 0.310921641713 -170.942960673 0.590822780661 -143.876408531 0.489815377123 -42.3776100219 0.310921641713 -170.942960673 0.560012539181 -62.8003617249 0.590591113934 -143.895847915 0.490831862303 137.550265472 0.590822780661 -143.876408531 0.590591113934 -143.895847915 0.549663577171 -12.4598413357 0.000437252067642 63.0174868007 0.489815377123 -42.3776100219 0.490831862303 137.550265472 0.000437252067647 63.0174868018 0.720530906929 133.761230242
9.825 0.559555377049 -65.6441298808 0.31107758717 -174.231158358 0.592298205994 -148.052302337 0.489194673576 -44.9556381648 0.31107758717 -174.231158358 0.558902063708 -65.6528674857 0.592073258471 -148.072574729 0.4902127655 134.970711215 0.592298205994 -148.052302337 0.592073258471 -148.072574729 0.546471967463 -17.8219877522 0.000443638665152 59.3591546146 0.489194673576 -44.9556381649 0.4902127655 134.970711215 0.000443638665157 59.3591546155 0.72137356401 131.537366496
9.85 0.55842320131 -68.487098592 0.311243378422 -177.516829115 0.593785340361 -152.221994801 0.488579697759 -47.5286349615 0.311243378422 -177.516829115 0.557761948555 -68.4978905916 0.59356715623 -152.24313104 0.48959908562 132.396173194 0.593785340361 -152.221994801 0.59356715623 -152.24313104 0.543227924959 -23.1760484149 0.000449938377598 55.6946318948 0.488579697759 -47.5286349615 0.48959908562 132.396173194 0.000449938377603 55.6946318954 0.722206626721 129.316961172
9.875 0.557261191185 -71.3223611231 0.311417448047 179.199810099 0.595284809995 -156.385824826 0.487970469537 -50.0966809162 0.311417448047 179.199810099 0.556592134961 -71.3352726307 0.595073418386 -156.407855291 0.488990840828 129.826572289 0.595284809995 -156.385824826 0.595073418386 -156.407855291 0.539928940947 -28.5229274894 0.000456144594303 52.0257167439 0.487970469537 -50.0966809162 0.488990840828 129.826572289 0.000456144594309 52.0257167443 0.723030130946 127.099942641
9.9 0.556069396377 -74.1497577334 0.311598195828 175.918554305 0.596797132412 -160.544131114 0.487367008523 -52.6598553292 0.311598195828 175.918554305 0.555392687434 -74.1648488787 0.596592547674 -160.56708562 0.4883880498 127.261830587 0.596797132412 -160.544131114 0.596592547674 -160.56708562 0.536572655295 -33.8635523865 0.000462251325527 48.354164149 0.487367008523 -52.6598553292 0.4883880498 127.261830587 0.000462251325532 48.3541641492 0.723844111718 124.886240133
9.925 0.554847992596 -76.9691230049 0.311783989967 172.639210481 0.59832271637 -164.697251869 0.486769334111 -55.2182363339 0.311783989967 172.639210481 0.554163795884 -76.9864486636 0.5981249384 -164.721159572 0.487790731762 124.701871335 0.59832271637 -164.697251869 0.5981249384 -164.721159572 0.533156861601 -39.1988736736 0.000468253215508 44.6816891743 0.486769334111 -55.2182363339 0.487790731762 124.701871335 0.000468253215512 44.6816891742 0.724648603182 122.675783705
9.95 0.553597283867 -79.7802862072 0.311973168217 169.36159755 0.59986186185 -168.845524529 0.486177465516 -57.7719009323 0.311973168217 169.36159755 0.552905777907 -79.7998957407 0.59967087648 -168.87041383 0.487198906519 122.146618901 0.59986186185 -168.845524529 0.59967087648 -168.87041383 0.529679512628 -44.5298650911 0.000474145557794 41.0099701548 0.486177465516 -57.7719009323 0.487198906519 122.146618901 0.000474145557798 41.0099701546 0.725443638554 120.468504209
9.975 0.552317704989 -82.5830716761 0.312164038958 166.085546371 0.601414760065 -172.989285491 0.485591421813 -60.3209250301 0.312164038958 166.085546371 0.551619081211 -82.6050086832 0.601230539502 -173.01518394 0.486612594487 119.595998723 0.601414760065 -172.989285491 0.601230539502 -173.01518394 0.526138726084 -49.8575236769 0.000479924313061 37.3406518524 0.485591421813 -60.3209250301 0.486612594487 119.595998723 0.000479924313064 37.340651852 0.726229250085 118.264333258
10 0.551009824158 -85.3772992143 0.312354882219 162.810899741 0.602981493475 -177.128869853 0.485011221977 -62.8653834705 0.312354882219 162.810899741 0.55030428621 -85.401601295 0.602803996801 -177.155804061 0.486031816716 117.049937273 0.602981493475 -177.128869853 0.602803996801 -177.155804061 0.522532790836 -55.1828700048 0.000485586129672 33.6753485315 0.485011221977 -62.8653834705 0.486031816716 117.049937273 0.000485586129674 33.6753485311 0.727005469021 116.063203198
10.025 0.549674345741 -88.1627845179 0.312543950651 159.537512418 0.60456203582 178.735388831 0.484436884929 -65.4053500672 0.312543950651 159.537512418 0.548962108775 -88.1894830516 0.604391209542 178.707393287 0.485456594915 114.508362015 0.60456203582 178.735388831 0.604391209542 178.707393287 0.518860173619 -60.5069485415 0.000491128367332 30.0156469126 0.484436884929 -65.4053500672 0.485456594915 114.508362015 0.000491128367333 30.0156469121 0.727772325572 113.865047078
10.05 0.548312113197 -90.9393396381 0.312729470466 156.265251155 0.606156252165 174.60315879 0.483868429581 -67.9408976368 0.312729470466 156.265251155 0.547593403132 -90.968459576 0.605992030833 174.574077453 0.484886951467 111.971201361 0.606156252165 174.60315879 0.605992030833 174.574077453 0.51511952632 -65.8308281238 0.000496549124213 26.3631089504 0.483868429581 -67.9408976368 0.484886951467 111.971201361 0.000496549124213 26.3631089498 0.728529848874 111.669798621
10.075 0.546924112142 -93.7067734836 0.312909642346 152.993994756 0.607763898968 170.474110268 0.483305874884 -70.4720980309 0.312909642346 152.993994756 0.546199164904 -93.7383331573 0.607606205833 170.443919883 0.484322909448 109.438384634 0.607763898968 170.474110268 0.607606205833 170.443919883 0.511309693901 -71.1556025606 0.000501847267934 22.7192743808 0.483305874884 -70.4720980309 0.484322909448 109.438384634 0.000501847267933 22.7192743803 0.729278066957 109.477392196
10.1 0.54551147353 -96.4648923714 0.31308264234 149.723634161 0.609384624148 166.347915732 0.482749239879 -72.9990221666 0.31308264234 149.723634161 0.544780534267 -96.4989033186 0.609233371899 166.316594331 0.483764492634 106.909842026 0.609384624148 166.347915732 0.609233371899 166.316594331 0.507429723053 -76.4823913578 0.000507022470788 19.0856629687 0.482749239879 -72.9990221666 0.483764492634 106.909842026 0.000507022470786 19.0856629682 0.730017006714 107.287762792
10.125 0.544075476931 -99.2135006343 0.313246622746 146.454072548 0.611017967198 162.224250081 0.48219854375 -75.5217400581 0.313246622746 146.454072548 0.54333879921 -99.2499674417 0.610873058737 162.191777059 0.483211725514 104.385504561 0.611017967198 162.224250081 0.610873058737 162.191777059 0.503478871648 -81.8123405683 0.000512075249547 15.4637763797 0.48219854375 -75.5217400581 0.483211725514 104.385504561 0.000512075249545 15.4637763793 0.730746693866 105.100845989
10.15 0.542617553871 -101.952401292 0.313399713009 143.185225481 0.612663359304 158.102790834 0.481653805884 -78.0403208463 0.313399713009 143.185225481 0.541875398858 -101.991321458 0.612524688597 158.069147026 0.482664633287 101.865304056 0.612663359304 158.102790834 0.612524688597 158.069147026 0.499456619063 -87.1466237625 0.000517007010134 11.8550995926 0.481653805884 -78.0403208463 0.482664633287 101.865304056 0.000517007010132 11.8550995923 0.731467152935 102.916577939
10.175 0.541139291213 -104.681396793 0.313540020636 139.917021075 0.614320123513 153.983218315 0.481115045924 -80.5548328299 0.313540020636 139.917021075 0.540391926826 -104.722760608 0.614187576486 153.948386064 0.482123241868 99.3491730864 0.614320123513 153.983218315 0.614187576486 153.948386064 0.495362677466 -92.486443116 0.000521820097337 8.26110175756 0.481115045924 -80.5548328299 0.482123241868 99.3491730864 0.000521820097335 8.26110175727 0.732178407213 100.734895331
10.2 0.539642434516 -107.400289839 0.313665632145 136.649400206 0.615987474932 149.865215814 0.480582283833 -83.0653434945 0.313665632145 136.649400206 0.538890134564 -107.444080289 0.615860930437 149.829179039 0.48158757788 96.8370449436 0.615987474932 149.865215814 0.615860930437 149.829179039 0.491197004121 -97.8330306073 0.000526517849648 4.68323639939 0.480582283833 -83.0653434945 0.48158757788 96.8370449436 0.000526517849646 4.68323639919 0.732880478732 98.5557353784
10.225 0.538128891345 -110.108884293 0.313774614065 133.382316768 0.617664520982 145.748469741 0.480055539957 -85.5719195431 0.313774614065 133.382316768 0.537371934651 -110.155076982 0.617543851817 145.711214003 0.481057668648 94.3288536036 0.617664520982 145.748469741 0.617543851817 145.711214003 0.486959814816 -103.187649316 0.000531104659169 1.12294085862 0.480055539957 -85.5719195431 0.481057668648 94.3288536036 0.000531104659166 1.12294085851 0.733573388239 96.3790357853
10.25 0.536600734472 -112.806986181 0.313865014011 130.115737958 0.619350261705 141.632669772 0.479534835095 -88.0746269258 0.313865014011 130.115737958 0.535839403964 -112.855549281 0.619235335695 141.594182325 0.480533542187 91.8245336903 0.619350261705 141.632669772 0.619235335695 141.594182325 0.482651598464 -108.55159481 0.000535586036364 -2.41836514247 0.479534835095 -88.0746269258 0.480533542187 91.8245336903 0.000535586036362 -2.41836514252 0.734257155166 94.2047347302
10.275 0.535060204905 -115.494404809 0.313934861834 126.849644623 0.621043590149 137.517508969 0.479020190557 -90.5735308694 0.313934861834 126.849644623 0.534294786702 -115.54529902 0.620934271284 137.477778821 0.480015227189 89.3240204405 0.621043590149 137.517508969 0.620934271284 137.477778821 0.478273132962 -113.9261966 0.0005399686793 -5.93928192372 0.479020190557 -90.5735308694 0.480015227189 89.3240204405 0.000539968679299 -5.93928192371 0.734931797604 92.0327708411
10.3 0.533509714691 -118.170953968 0.313982170897 123.584031651 0.622743292817 133.402683901 0.478511628247 -93.0686959078 0.313982170897 123.584031651 0.532740497162 -118.22413252 0.622639442456 133.361701858 0.479502753004 86.82724967 0.622743292817 133.402683901 0.622639442456 133.361701858 0.473825502381 -119.312819652 0.000544260546791 -9.43843337663 0.478511628247 -93.0686959078 0.479502753004 86.82724967 0.00054426054679 -9.43843337658 0.735597332281 89.8630831739
10.325 0.531951849427 -120.836453279 0.314004939465 120.318908421 0.624448050222 129.287894741 0.478009170724 -95.5601859118 0.314004939465 120.318908421 0.531179122227 -120.891861939 0.624349528346 129.245653451 0.478996149625 84.3341577407 0.624448050222 129.287894741 0.624349528346 129.245653451 0.469310115549 -124.712865912 0.000548470934718 -12.9144717132 0.478009170724 -95.5601859118 0.478996149625 84.3341577407 0.000548470934717 -12.9144717132 0.736253774532 87.6956111913
10.35 0.530389370389 -123.490729643 0.314001152265 117.054299306 0.626156437536 125.172845355 0.477512841281 -98.0480641199 0.314001152265 117.054299306 0.529613423482 -123.548306764 0.626063104071 125.129339346 0.478495447656 81.8446815274 0.626156437536 125.172845355 0.626063104071 125.129339346 0.464728726083 -130.127775837 0.000552610554558 -16.366083542 0.477512841281 -98.0480641199 0.478495447656 81.8446815274 0.000552610554557 -16.3660835419 0.736901138276 85.5302947419
10.375 0.528825216222 -126.133618834 0.313968782212 113.790244252 0.627866925366 121.057243374 0.477022664018 -100.532393168 0.313968782212 113.790244252 0.528046338876 -126.193295412 0.62777864155 121.012469086 0.478000678298 79.3587583867 0.627866925366 121.057243374 0.62777864155 121.012469086 0.460083453938 -135.55902987 0.000556691612971 -19.7919973694 0.477022664018 -100.532393168 0.478000678298 79.3587583867 0.000556691612971 -19.7919973693 0.737539435994 83.3670740395
10.4 0.527262504096 -128.764967217 0.313905792354 110.526799407 0.629577880647 116.940800252 0.476538663916 -103.013235122 0.313905792354 110.526799407 0.526480983853 -128.826666987 0.629494510468 116.894756066 0.477511873315 76.8763261249 0.629577880647 116.940800252 0.629494510468 116.894756066 0.455376808496 -141.008149821 0.000560727891082 -23.1909926103 0.476538663916 -103.013235122 0.477511873315 76.8763261249 0.000560727891082 -23.1909926103 0.738168678703 81.2058896435
10.425 0.525704530234 -131.384633608 0.313810138046 107.264037845 0.631287567704 112.823231313 0.476060866915 -105.490651506 0.313810138046 107.264037845 0.524920651865 -131.448273159 0.631208979382 112.775917571 0.477029065012 74.3973229683 0.631287567704 112.823231313 0.631208979382 112.775917571 0.450611713247 -146.476700101 0.00056473482186 -26.5619101736 0.476060866915 -105.490651506 0.477029065012 74.3973229683 0.00056473482186 -26.5619101736 0.738788875935 79.0466824391
10.45 0.524154769734 -133.992491279 0.313679769394 104.002050348 0.632994149459 108.704255778 0.475589299987 -107.964703338 0.313679769394 104.002050348 0.52336881416 -134.057980197 0.632920216988 108.655674798 0.476552286203 71.9216875332 0.632994149459 108.704255778 0.632920216988 108.655674798 0.445791532052 -151.966288737 0.000568729563822 -29.9036646583 0.475589299987 -107.964703338 0.476552286203 71.9216875332 0.000568729563822 -29.9036646582 0.739400035711 76.889393618
10.475 0.522616875569 -136.588430107 0.31351263399 100.740946288 0.634695688838 104.583596776 0.475123991215 -110.435451159 0.31351263399 100.740946288 0.521829118757 -136.655671139 0.634626293576 104.53375286 0.476081570185 69.4493587963 0.634695688838 104.583596776 0.634626293576 104.53375286 0.440920097003 -157.47856808 0.000572731069063 -33.2152581671 0.475123991215 -110.435451159 0.476081570185 69.4493587963 0.000572731069062 -33.2152581671 0.740002164519 74.7339646594
10.5 0.521094676671 -139.17235886 0.313306679986 97.4808545873 0.636390150364 100.460981339 0.474664969866 -112.902955065 0.313306679986 97.4808545873 0.520305388502 -139.241248111 0.636325182681 100.409880779 0.475616950708 66.9802760671 0.636390150364 100.460981339 0.636325182681 100.409880779 0.436001737832 -163.015235125 0.0005767601434 -36.4957957003 0.474664969866 -112.902955065 0.475616950708 66.9802760671 0.0005767601434 -36.4957957003 0.740595267296 72.5803373115
10.525 0.519592174975 -141.744207639 0.31305985953 94.2219247855 0.638075401986 96.336140377 0.474212266465 -115.367274745 0.31305985953 94.2219247855 0.518801618083 -141.81463479 0.638014762952 96.2837914479 0.475158461951 64.5143789596 0.638075401986 96.336140377 0.638014762952 96.2837914479 0.431041312811 -168.578031311 0.000580839496279 -39.7445020407 0.474212266465 -115.367274745 0.475158461951 64.5143789596 0.000580839496278 -39.7445020407 0.741179347395 70.428453573
10.55 0.518113541327 -144.303930453 0.312770132598 90.9643282037 0.639749217143 92.2088086283 0.473765912867 -117.828469507 0.312770132598 90.9643282037 0.517321969895 -144.375779003 0.639692820267 92.155221582 0.474706138492 62.0516073648 0.639749217143 92.2088086283 0.639692820267 92.155221582 0.426044241032 -174.168741686 0.000584993777867 -42.9607399838 0.473765912867 -117.828469507 0.474706138492 62.0516073648 0.000584993777866 -42.9607399838 0.741754406572 68.2782556749
10.575 0.516663110104 -146.851507931 0.312435471275 87.7082592243 0.641409277099 88.078724591 0.473325942332 -120.286598318 0.312435471275 87.7082592243 0.515870768636 -146.924655468 0.641357050104 88.023911638 0.474260015287 59.5919014249 0.641409277099 88.078724591 0.641357050104 88.023911638 0.421016535911 -179.789193269 0.000589249600683 -46.1440296948 0.473325942332 -120.286598318 0.474260015287 59.5919014249 0.000589249600682 -46.1440296948 0.742320444954 66.129686063
10.6 0.515245372447 -149.386950161 0.312053864508 84.4539366919 0.643053173556 83.9456304223 0.472892389587 -122.741719838 0.312053864508 84.4539366919 0.514452494492 -149.461268655 0.643005060207 83.8896057099 0.473820127646 57.1352015065 0.643053173556 83.9456304223 0.643005060207 83.8896057099 0.415964839707 174.558747571 0.000593635542964 -49.2940688959 0.472892389587 -122.741719838 0.473820127646 57.1352015065 0.000593635542962 -49.2940688959 0.742877461022 63.9826873793
10.625 0.513864967958 -151.910299648 0.31162332338 81.2016054446 0.644678411597 79.8092718088 0.472465290901 -125.193892452 0.31162332338 81.2016054446 0.513071774796 -151.985655764 0.644634373551 79.7520513918 0.473386511219 54.6814481753 0.644678411597 79.8092718088 0.644634373551 79.7520513918 0.410896458755 168.873178911 0.000598182130958 -52.4107535014 0.472465290901 -125.193892452 0.473386511219 54.6814481753 0.000598182130957 -52.4107535014 0.743425451577 61.8372024453
10.65 0.512526674728 -154.421634371 0.311141886949 77.9515379891 0.646282412945 75.6693978005 0.47204468414 -127.643174308 0.311141886949 77.9515379891 0.511733374012 -154.497889807 0.646242431648 75.6109996058 0.472959201974 52.2305821705 0.646282412945 75.6693978005 0.646242431648 75.6109996058 0.405819399043 163.152168503 0.000602921797359 -55.4941982253 0.47204468414 -127.643174308 0.472959201974 52.2305821705 0.000602921797358 -55.4941982253 0.743964411722 59.6931742439
10.675 0.511235397562 -156.921070916 0.310607628697 74.7040363305 0.6478625196 71.5257606039 0.471630608837 -130.089623355 0.310607628697 74.7040363305 0.510442181915 -156.998082764 0.647826598202 71.4662043884 0.472538236196 49.7825443805 0.6478625196 71.5257606039 0.647826598202 71.4662043884 0.400742401653 157.393760677 0.000607888813174 -58.5447565924 0.471630608837 -130.089623355 0.472538236196 49.7825443805 0.000607888813173 -58.5447565924 0.744494334831 57.5505459025
10.7 0.509996154269 -159.408767683 0.310018663643 71.4594339717 0.649415997849 67.378115328 0.471223106243 -132.533297378 0.310018663643 71.4594339717 0.509203199837 -159.486388804 0.649384163154 67.3174226297 0.472123650473 47.3372758179 0.649415997849 67.378115328 0.649384163154 67.3174226297 0.395674977444 151.595985227 0.000613119190592 -61.5630396935 0.471223106243 -132.533297378 0.472123650473 47.3372758179 0.000613119190592 -61.5630396935 0.745015212518 55.4092606754
10.725 0.508814059886 -161.884928111 0.309373156164 68.2180980993 0.650940042693 63.2262196758 0.470822219385 -134.974254037 0.309373156164 68.2180980993 0.508021524837 -161.96300753 0.650912347127 63.1644137586 0.4717154817 44.8947175951 0.650940042693 63.2262196758 0.650912347127 63.1644137586 0.390627440248 145.756868603 0.0006186505547 -64.549932944 0.470822219385 -134.974254037 0.4717154817 44.8947175951 0.0006186505547 -64.549932944 0.745527034609 53.2692619265
10.75 0.507694308705 -164.349803914 0.308669328597 64.980431973 0.652431782701 59.069833573 0.470427993119 -137.412550905 0.308669328597 64.980431973 0.506902331698 -164.42818723 0.652408306296 59.0069393652 0.471313767085 42.4548108996 0.652431782701 59.069833573 0.652408306296 59.0069393652 0.385610937645 139.874447739 0.000624521982416 -67.5066100418 0.470427993119 -137.412550905 0.471313767085 42.4548108996 0.000624521982416 -67.5066100417 0.746029789109 51.1304931123
10.775 0.506642154022 -166.803698269 0.307905470683 61.7468775412 0.653888285316 54.9087187256 0.470040474178 -139.848245505 0.307905470683 61.7468775412 0.505850852623 -166.88222808 0.653869137714 54.8447627515 0.470918544161 40.0174969701 0.653888285316 54.9087187256 0.653869137714 54.8447627515 0.38063747822 133.946786898 0.000630773807618 -70.4345432823 0.470040474178 -139.848245505 0.470918544161 40.0174969701 0.000630773807619 -70.4345432822 0.746523462164 48.9928977648
10.8 0.505662885506 -169.246968936 0.30707994993 58.5179183045 0.655306562634 50.7426380945 0.469659711217 -142.281395357 0.30707994993 58.5179183045 0.50487235458 -169.325485271 0.655291885094 50.6776484 0.470529850802 37.5827170716 0.655306562634 50.7426380945 0.655291885094 50.6776484 0.375719953988 127.971997888 0.000637447392246 -73.335509386 0.469659711217 -142.281395357 0.470529850802 37.5827170716 0.000637447392247 -73.3355093859 0.747008038026 46.8564194737
10.825 0.504761804152 -171.680031248 0.306191222987 55.2940824563 0.65668357767 46.5713552763 0.469285754855 -144.712058009 0.306191222987 55.2940824563 0.503972114221 -171.758372014 0.656673545082 46.5053613481 0.470147725254 35.1504124702 0.65668357767 46.5713552763 0.656673545082 46.5053613481 0.370872156447 121.948264011 0.000644584864062 -76.2115900328 0.469285754855 -144.712058009 0.470147725254 35.1504124702 0.000644584864064 -76.2115900327 0.74748349901 44.7210018697
10.85 0.503944194789 -174.10336093 0.305237848125 52.0759463294 0.658016251121 42.3946337768 0.468918657722 -147.140291087 0.305237848125 52.0759463294 0.503155390384 -174.181362361 0.658011074024 42.3276664554 0.469772206167 32.7205244078 0.658016251121 42.3946337768 0.658011074024 42.3276664554 0.366108784469 115.873868064 0.000652228822873 -79.0651663896 0.468918657722 -147.140291087 0.469772206167 32.7205244078 0.000652228822874 -79.0651663894 0.74794982545 42.5865886065
10.875 0.503215296207 -176.517496694 0.304218498962 48.8641381846 0.659301468629 38.2122361621 0.468558474489 -149.566152329 0.304218498962 48.8641381846 0.502427394215 -176.59499381 0.659301395223 38.144327549 0.469403332635 30.2929940762 0.659301468629 38.2122361621 0.659301395223 38.144327549 0.361445442029 109.74722465 0.000660422018126 -81.8989070605 0.468558474489 -149.566152329 0.469403332635 30.2929940762 0.000660422018127 -81.8989070603 0.74840699565 40.4531233438
10.9 0.502580268974 -178.923042564 0.303131979566 45.6593423801 0.660536088564 34.023923072 0.468205261916 -151.989699634 0.303131979566 45.6593423801 0.501793256994 -178.999869632 0.660541406713 33.9551064311 0.469041144248 27.8677625899 0.660536088564 34.023923072 0.660541406713 33.9551064311 0.356898623499 103.566916958 0.00066920700207 -84.7157490883 0.468205261916 -151.989699634 0.469041144248 27.8677625899 0.00066920700207 -84.7157490881 0.748854985831 38.3205497292
10.925 0.502044161113 178.679330125 0.301977241128 42.4623039657 0.661716950292 29.8294520769 0.46785907888 -154.410991101 0.301977241128 42.4623039657 0.501257995846 178.603339126 0.661727989523 29.7597617301 0.468685681151 25.4447709582 0.661716950292 29.8294520769 0.661727989523 29.7597617301 0.352485684063 97.3317380123 0.000678625763885 -87.5188718839 0.46785907888 -154.410991101 0.468685681151 25.4447709582 0.000678625763885 -87.5188718836 0.749293770073 36.1888113807
10.95 0.501611871864 176.288881082 0.300753400408 39.2738337521 0.662840882939 25.6285763593 0.467519986417 -156.830085075 0.300753400408 39.2738337521 0.500826477544 176.213891992 0.66285801642 25.5580475768 0.468336984108 23.0239600562 0.662840882939 25.6285763593 0.66285801642 25.5580475768 0.348224792658 91.0407362112 0.000688719351346 -90.3116642474 0.467519986417 -156.830085075 0.468336984108 23.0239600562 0.000688719351345 -90.311664247 0.749723320251 34.0578518686
10.975 0.501288113838 173.904799814 0.299459760242 36.09481391 0.663904714619 21.4210431979 0.467188047763 -159.247040186 0.299459760242 36.09481391 0.500503380713 173.830977817 0.663928361129 21.3497120834 0.467995094579 20.6052705941 0.663904714619 21.4210431979 0.663928361129 21.3497120834 0.344134864774 84.6932646981 0.000699527487644 -93.097684959 0.467188047763 -159.247040186 0.467995094579 20.6052705941 0.000699527487642 -93.0976849585 0.750143605968 31.9276146973
11 0.5010773739 171.52620478 0.298095832407 32.9262041604 0.664905282097 17.2065922308 0.466863328387 -161.661915402 0.298095832407 32.9262041604 0.500293156778 171.453713922 0.664935907968 17.1344956021 0.467660054799 18.1886430845 0.664905282097 17.2065922308 0.664935907968 17.1344956021 0.340235472522 78.2890337984 0.000711088191823 -95.8806177326 0.466863328387 -161.661915402 0.467660054799 18.1886430845 0.00071108819182 -95.8806177319 0.750554594476 29.7980432867
11.025 0.500983873191 169.152142949 0.296661363281 29.7690486228 0.665839440841 12.9849534735 0.466545896046 -164.074770063 0.296661363281 29.7690486228 0.500199990039 169.081145655 0.665877561889 12.9121287382 0.467331907874 15.774017809 0.665839440841 12.9849534735 0.665877561889 12.9121287382 0.336546729599 71.8281653839 0.00072343741188 -98.6642216255 0.466545896046 -164.074770063 0.467331907874 15.774017809 0.000723437411877 -98.6642216247 0.750956250597 27.6690809537
11.05 0.501011526683 166.78158973 0.295156362755 26.624483393 0.666704075412 8.75584506171 0.466235820825 -166.485663935 0.295156362755 26.624483393 0.500227757284 166.712246301 0.666750258846 8.68233008967 0.467010697874 13.361334781 0.666704075412 8.75584506171 0.666750258846 8.68233008967 0.333089149197 65.3112476095 0.000736608679859 -101.452278258 0.466235820825 -166.485663935 0.467010697874 13.361334781 0.000736608679856 -101.452278257 0.751348536628 25.5406708933
11.075 0.501163902632 164.413449208 0.293581137036 23.4937449284 0.667496110132 4.51897069181 0.465933175198 -168.894657248 0.293581137036 23.4937449285 0.500379987263 164.345917313 0.66755097644 4.44480368325 0.466696469939 10.9505337068 0.667496110132 4.51897069181 0.66755097644 4.44480368325 0.329883473587 58.7393880306 0.000750632798242 -104.248537395 0.465933175198 -168.894657248 0.466696469939 10.9505337068 0.00075063279824 -104.248537394 0.751731412246 23.4127561589
11.1 0.501444182158 162.046554586 0.29193632607 20.3781793172 0.668212519939 0.274016723869 0.465638034087 -171.301810743 0.29193632607 20.3781793172 0.500659820274 161.980988736 0.668276744762 0.199236074967 0.46638927039 8.54155394447 0.668212519939 0.274016723868 0.668276744762 0.199236074967 0.326950475013 52.1142626909 0.000765537566553 -107.056662556 0.465638034087 -171.301810743 0.46638927039 8.54155394447 0.000765537566552 -107.056662555 0.752104834396 21.2852796434
11.125 0.501855118985 159.679668702 0.290222946511 17.2792525121 0.668850341351 -3.97935108637 0.465350474939 -173.707185715 0.290222946511 17.2792525121 0.501069967881 159.61621972 0.668924657338 -4.05470692051 0.466089146842 6.13433445849 0.668850341351 -3.97935108637 0.668924657338 -4.05470692051 0.32431072876 45.4381584083 0.000781347556401 -109.880178369 0.465350474939 -173.707185715 0.466089146842 6.13433445849 0.000781347556402 -109.880178368 0.752468757175 19.158184059
11.15 0.502398999032 157.31148445 0.288442441361 14.1985616018 0.669406683422 -8.24149126538 0.465070577809 -176.110844059 0.288442441361 14.1985616018 0.50161267244 157.25029892 0.66949188208 -8.31738390943 0.465796148327 3.72881377173 0.669406683422 -8.24149126538 0.66949188208 -8.31738390943 0.321984360686 38.7140052404 0.000798083942216 -112.722421302 0.465070577809 -176.110844059 0.465796148327 3.72881377172 0.000798083942219 -112.722421301 0.752823131704 17.0314119167
11.175 0.503077599062 154.940624883 0.286596737681 11.137847181 0.669878738584 -12.5127907508 0.464798425453 -178.512848308 0.286596737681 11.137847181 0.502289665694 154.881844608 0.669975672121 -12.589182049 0.465510325411 1.32492991347 0.669878738584 -12.5127907508 0.669975672121 -12.589182049 0.319990773176 31.9453960437 0.000815764393692 -115.586495281 0.464798425453 -178.512848308 0.465510325411 1.32492991347 0.000815764393698 -115.586495281 0.753167905985 14.9049055063
11.2 0.503892142957 152.56564279 0.284688314053 8.09900685864 0.670263793236 -16.7936695165 0.464534103446 179.086738323 0.284688314053 8.09900685864 0.503102125008 152.509404248 0.670373376409 -16.8705216723 0.465231730321 -1.07737963662 0.670263793236 -16.7936695165 0.670373376409 -16.8705216723 0.318348355206 25.1365902016 0.000834403034536 -118.47523349 0.464534103446 179.086738323 0.465231730321 -1.07737963662 0.000834403034544 -118.47523349 0.753503024751 12.7786068751
11.225 0.504843253344 150.185019482 0.282720279897 5.08410990858 0.670559237944 -21.0845857423 0.464277700305 176.687851897 0.282720279897 5.08410990857 0.50405062505 150.131453303 0.670682449921 -21.1618614576 0.464960417064 -3.47817800905 0.670559237944 -21.0845857423 0.670682449921 -21.1618614576 0.31707418393 18.2924990374 0.000854010470528 -121.391167351 0.464277700305 176.687851897 0.464960417064 -3.47817800905 0.000854010470537 -121.391167352 0.753828429297 10.6524578068
11.25 0.505930895318 147.797162599 0.280696469166 2.09541300586 0.670762577091 -25.3860415819 0.46402930764 174.290427718 0.280696469166 2.09541300585 0.505135081759 147.746393065 0.670900463336 -25.4637041939 0.464696441551 -5.8775290098 0.670762577091 -25.3860415818 0.670900463336 -25.4637041939 0.316183726743 11.4186511658 0.000874593888247 -124.336503424 0.46402930764 174.290427718 0.464696441551 -5.87752900979 0.000874593888257 -124.336503425 0.754144057302 8.52639979987
11.275 0.507154307834 145.400402738 0.278621551542 -0.86462309257 0.670871437822 -29.698589587 0.463789020318 171.894400296 0.278621551542 -0.864623092599 0.506354684267 145.352547321 0.671025112022 -29.7766032026 0.464439861703 -8.27549719088 0.670871437822 -29.698589587 0.671025112022 -29.7766032026 0.315690553869 4.52113705116 0.000896157224045 -127.313108602 0.463789020318 171.894400296 0.464439861703 -8.27549719088 0.000896157224054 -127.313108604 0.754449842635 6.40037404541
11.3 0.508511917081 142.992988844 0.276501164882 -3.79331619471 0.670883578103 -34.0228398524 0.463556936659 169.499703313 0.276501164882 -3.79331619475 0.507707809263 142.948157775 0.671054224147 -34.1011694767 0.464190737568 -10.6721479265 0.670883578103 -34.0228398523 0.671054224147 -34.1011694767 0.31560607219 -2.39346672156 0.00091870140107 -130.32250371 0.463556936659 169.499703313 0.464190737568 -10.6721479265 0.000918701401075 -130.322503713 0.754745715138 4.27432140489
11.325 0.510001224853 140.573082421 0.274342073511 -6.68774510607 0.67079689373 -38.35946795 0.463333158644 167.106269594 0.274342073511 -6.68774510612 0.509191910948 140.531378271 0.670985767756 -38.4380796103 0.463949131409 -13.0675474952 0.67079689373 -38.35946795 0.670985767756 -38.4380796103 0.315939290864 -9.31819159614 0.000942224630339 -133.365865308 0.463333158644 167.106269594 0.463949131409 -13.0675474952 0.00094222463034 -133.365865312 0.755031600405 2.14818238742
11.35 0.511618663743 138.138750831 0.27215235786 -9.5447325724 0.670609424086 -42.7092237331 0.46311779216 164.714031078 0.272152357859 -9.54473257247 0.510803378562 138.100268052 0.67081785662 -42.7880845936 0.463715107791 -15.4617631684 0.670609424086 -42.7092237331 0.670817856619 -42.7880845936 0.316696628492 -16.2457864047 0.000966722770067 -136.444035264 0.46311779216 164.714031078 0.463715107791 -15.4617631684 0.00096672277006 -136.444035269 0.755307419528 0.0218971266071
11.375 0.513359410031 135.687960197 0.269941642079 -12.3608298309 0.670319356479 -47.0729410938 0.462910947264 162.322918801 0.269941642079 -12.360829831 0.512537352437 135.65278454 0.670548754681 -47.1520195607 0.463488733645 -17.8548633059 0.670319356479 -47.0729410938 0.670548754681 -47.1520195607 0.317881769925 -23.1688375431 0.000992189735655 -139.557537469 0.462910947264 162.322918801 0.463488733645 -17.8548633059 0.000992189735639 -139.557537474 0.755573088834 -2.10459464278
11.4 0.515217144665 133.218568753 0.267721367509 -15.1323043886 0.669925028871 -51.4515487711 0.462712738483 159.932862874 0.267721367509 -15.1323043887 0.514387488965 133.186776432 0.670176878915 -51.5308145856 0.463270078312 -20.2469174582 0.669925028871 -51.4515487711 0.670176878915 -51.5308145856 0.319495578569 -30.0798946926 0.00101861795106 -142.706600894 0.462712738483 159.932862874 0.463270078312 -20.2469174581 0.00101861795104 -142.7066009 0.7558285196 -4.23135360861
11.425 0.51718375295 130.728321853 0.265505121291 -17.8551333579 0.669424930812 -55.8460823173 0.462523285138 157.543792475 0.26550512129 -17.855133358 0.516345664932 130.699978246 0.669700800412 -55.9255066327 0.463059213563 -22.6379964771 0.669424930812 -55.8460823173 0.669700800412 -55.9255066327 0.321536067278 -36.971596365 0.00104599883063 -145.891188116 0.462523285138 157.543792475 0.463059213563 -22.6379964771 0.0010459988306 -145.891188121 0.756073617741 -6.3584409054
11.45 0.519248954881 128.21485026 0.26330903092 -20.5250056486 0.668817702417 -60.2576973415 0.4623427117 155.155635839 0.263309030919 -20.5250056487 0.518401612696 128.190007896 0.66911924353 -60.3372527821 0.462856213584 -25.0281726342 0.668817702417 -60.2576973415 0.66911924353 -60.3372527821 0.323998427962 -43.83678957 0.00107432327886 -149.111028344 0.4623427117 155.155635839 0.462856213584 -25.0281726342 0.00107432327883 -149.111028348 0.756308283482 -8.48591813865
11.475 0.521399860624 125.675673762 0.261152237044 -23.1373376 0.668102131212 -64.6876841656 0.462171148182 152.768320265 0.261152237043 -23.1373376001 0.520542480003 125.654369278 0.668431082932 -64.7673448639 0.462661154934 -27.4175197471 0.668102131212 -64.6876841656 0.668431082932 -64.7673448639 0.326875117122 -50.6686384102 0.00110358219443 -152.365653989 0.462171148182 152.768320265 0.462661154934 -27.4175197471 0.0011035821944 -152.365653991 0.756532411 -10.6138474093
11.5 0.523620450095 123.108212584 0.259057458138 -25.6873083293 0.667277146706 -69.1374840455 0.462008730556 150.381772117 0.259057458138 -25.6873083293 0.522752312242 123.090462278 0.66763533837 -69.2172256519 0.462474116452 -29.806113316 0.667277146706 -69.1374840455 0.66763533837 -69.2172256519 0.330155991945 -57.4607173186 0.00113376696334 -155.654439796 0.462008730556 150.381772117 0.462474116452 -29.806113316 0.00113376696334 -155.654439796 0.756745888046 -12.7422913387
