! Touchstone file exported from HFSS 2025.2.4
!        File:           C:/Users/chaoy/Documents/single_magictee_v2_stageA/g2_5p40mm_lt_6p00mm/single_magictee_v2.aedt
!        Generated:      03:01:38 PM Sep 19, 2026
!        Design:         SingleMagicT_v2
!        Project:        single_magictee_v2
!
! Variables:
!        f_adapt = 10.2GHz
!        ridge_g1 = 7.672mm
!        ridge_g2 = 5.4mm
!        ridge_l1 = 9.872mm
!        ridge_l2 = 8.857mm
!        ridge_w = 4.572mm
!        terminal_ridge_len = 6mm
!        wg_a = 22.86mm
!        wg_b = 10.16mm
!
!Data is not renormalized
# GHz S MA
! Terminal data exported
! Port[1] = P1_CollinearMinusX
! Port[2] = P2_CollinearPlusX
! Port[3] = P3_HArm_Ridged
! Port[4] = P4_EArm
9                              0.159590131729192 -159.532471748511 0.508960739159105 -160.369586647641 0.525674496274455 108.395597255612 0.662688674881254 45.1493235331715 
                               0.508960739159104 -160.369586647641 0.160086945113729 -159.37132241023 0.525732815941581 108.328165462491 0.662522559797705 -134.862738162706 
                               0.525674496274457 108.395597255611 0.525732815941584 108.328165462491 0.668783372425635 -163.126021677764 0.000361905685205794 -112.157534742947 
                               0.662688674881256 45.1493235331719 0.662522559797708 -134.862738162706 0.000361905685204985 -112.157534742478 0.349152469513672 -108.923666180745 
9.025                          0.159619262511415 -161.913915885596 0.510660266062447 -163.248811693029 0.52458843371282 105.295192155492 0.662235654693044 42.2395048431709 
                               0.510660266062325 -163.248811693018 0.160116664090042 -161.75300395936 0.524646217877561 105.227294723646 0.662069788153134 -137.77234201759 
                               0.524588433712762 105.295192155491 0.524646217877628 105.227294723647 0.670486121312848 -166.566337559757 0.000362658389145501 -115.803209137218 
                               0.662235654693139 42.2395048431586 0.662069788153431 -137.772342017577 0.000362658389187478 -115.803209134368 0.350865745972116 -111.638881020361 
9.05                           0.159664871467928 -164.288579567977 0.512363888231992 -166.119452594476 0.523489121893809 102.198556080895 0.661779130627863 39.3375781937216 
                               0.512363888231793 -166.119452594459 0.160162765811553 -164.127974039319 0.52354635154165 102.13020296947  0.661613534619318 -140.674054412222 
                               0.523489121893713 102.198556080893 0.523546351541758 102.130202969471 0.672202149235255 -170.006656102543 0.0003633361961592 -119.443630929353 
                               0.661779130628015 39.3375781937013 0.661613534619796 -140.674054412201 0.000363336196229555 -119.443630924992 0.352583015553808 -114.34988126827 
9.075                          0.159727556501684 -166.656925614267 0.51407220484505 -168.981714310258 0.522375797865466 99.1056524807347 0.661319070877868 36.4434092129711 
                               0.514072204844811 -168.981714310237 0.160225843873657 -166.496695400195 0.522432456741145 99.0368536379706 0.661153766385591 -143.568009775775 
                               0.52237579786535 99.1056524807328 0.522432456741274 99.0368536379728 0.673932302855745 -173.446826125209 0.000363936631386938 -123.078709018946 
                               0.661319070878052 36.4434092129466 0.661153766386163 -143.56800977575 0.000363936631473819 -123.078709013772 0.354304220346473 -117.056734051293 
9.1                            0.159807820545699 -169.019420239296 0.51578578528625 -171.835802548864 0.521247721267533 96.0164453727251 0.660855446452769 33.5568640396762 
                               0.515785785285997 -171.835802548842 0.160306397003957 -168.859634029088 0.521303795621765 95.9472108070233 0.660690453625965 -146.454342018065 
                               0.52124772126741 96.0164453727232 0.5213037956219  95.9472108070255 0.675677388579825 -176.886693308844 0.000364457331038317 -126.708367622502 
                               0.660855446452963 33.5568640396504 0.660690453626566 -146.454342018038 0.000364457331132184 -126.708367617059 0.356029308859142 -119.759505415985 
9.125                          0.159906075499011 -171.376530874704 0.517505167488187 -174.681923168768 0.52010417670005 92.9308997771619 0.660388230697899 30.6778096153318 
                               0.517505167487941 -174.681923168747 0.160404833006091 -171.217256980447 0.520159655065626 92.8612396223357 0.660223569002098 -149.333184239137 
                               0.520104176699931 92.9308997771601 0.520159655065757 92.8612396223377 0.677438167780432 179.673899900517 0.000364896037331018 -130.332544788118 
                               0.660388230698088 30.6778096153068 0.660223569002678 -149.333184239112 0.000364896037424412 -130.332544782817 0.35775823553741 -122.458260333821 
9.15                           0.160022646167983 -173.72872413963 0.519230856517697 -177.520281623391 0.518944475972916 89.8489820977046 0.659917398856435 27.8061139409781 
                               0.519230856517473 -177.520281623371 0.160521472709265 -173.570030356409 0.518999348968689 89.7789066726467 0.65975308721077 -152.20466847407 
                               0.518944475972806 89.8489820977031 0.518999348968808 89.7789066726484 0.679215352390785 176.235114328432 0.000365250593224372 -133.951190973454 
                               0.659917398856608 27.8061139409553 0.659753087211297 -152.204668474047 0.000365250593311684 -133.951190968589 0.359490960313312 -125.153062709737 
9.175                          0.160157774181017 -176.076463954769 0.520963323395693 179.648917550386 0.517767960229681 86.7706604503365 0.659442927673863 24.9416463008783 
                               0.520963323395499 179.648917550403 0.160656553891732 -175.918417430385 0.517822220390801 86.7001803133625 0.659278984573986 -155.06892547079 
                               0.517767960229586 86.7706604503352 0.517822220390902 86.7001803133639 0.68100960088118 172.797114049006 0.000365518937036913 -137.564267692901 
                               0.659442927674014 24.9416463008587 0.659278984574438 -155.06892547077 0.000365518937114156 -137.564267688668 0.361227448188387 -127.843975393602 
9.2                            0.16031162185194 -178.420209792895 0.522703004138497 176.825471201862 0.516574001939195 83.6959049419171 0.658964795042634 22.0842774552448 
                               0.52270300413834 176.825471201876 0.160810235153601 -178.262876907061 0.516627643571883 83.6250309400683 0.658801238669672 -157.926084498729 
                               0.516574001939118 83.6959049419161 0.516627643571965 83.6250309400694 0.682821514633071 169.360066303674 0.000365699097028554 -141.171746239258 
                               0.658964795042757 22.0842774552289 0.658801238670038 -157.926084498713 0.000365699097093144 -141.171746235772 0.362967668848428 -130.531060194259 
9.225                          0.160484275973584 179.239584940955 0.524450299008665 174.009177996107 0.515362006749092 80.624687899948  0.658482979684873 19.2338798041627 
                               0.524450299008547 174.009177996118 0.160982599720585 179.396138687999 0.515415025808173 80.5534312135515 0.658319828000858 -160.776273186173 
                               0.515362006749033 80.6246878999472 0.515415025808234 80.5534312135523 0.684651634721312 165.924141363605 0.000365789186019024 -144.773606484556 
                               0.658482979684969 19.2338798041508 0.658319828001135 -160.776273186161 0.000365789186069574 -144.773606481864 0.364711596308378 -133.21437789575 
9.25                           0.1606757515287  176.902474406295 0.526205571963463 171.199838805294 0.514131415195553 77.5569840553572 0.657997460870955 16.3903275248252 
                               0.526205571963383 171.199838805302 0.161173659165844 177.058184495778 0.514183809182911 77.4853562381617 0.657834731701136 -163.619617384185 
                               0.514131415195512 77.5569840553567 0.514183809182953 77.4853562381622 0.686500439112786 162.489512337958 0.000365787396104843 -148.369835764055 
                               0.657997460871022 16.3903275248171 0.657834731701325 -163.619617384176 0.000365787396140962 -148.36983576215 0.36645920858579 -135.893988275422 
9.275                          0.160885995310064 174.568021707342 0.52796915028943 168.397257063607 0.512881704264265 74.492770680275  0.657508218171669 13.5534966841406 
                               0.527969150289386 168.397257063611 0.161383357041828 174.722824694561 0.512933472146376 74.420783695487  0.657345929274178 -166.456241055042 
                               0.512881704264241 74.4927706802747 0.512933472146398 74.4207836954873 0.688368340287105 159.056354930562 0.000365691993527499 -151.960427846833 
                               0.65750821817171 13.5534966841359 0.657345929274286 -166.456241055038 0.000365691993549605 -151.960427845667 0.368210487401241 -138.569950123606 
9.3                            0.16111488944578 172.235800162464 0.529741324411726 165.601239087552 0.511612388798029 71.4320276829149 0.657015231241742 10.723265328721  
                               0.529741324411715 165.601239087553 0.161611572418066 172.389633759988 0.511663530940701 71.359693935473  0.656853400365044 -169.286266183194 
                               0.511612388798021 71.4320276829147 0.511663530940706 71.359693935473  0.690255683282426 155.624847147938 0.000365501313735837 -155.545381995777 
                               0.657015231241759 10.7232653287195 0.656853400365081 -169.286266183193 0.000365501313744984 -155.545381995273 0.369965417904084 -141.242321264597 
9.325                          0.16136225482913 169.905394468476 0.531522347867327 162.811594363496 0.510323022747073 68.3747376617987 0.656518479632438 7.89951355419442 
                               0.531522347867343 162.811594363495 0.161858123324207 170.058197619913 0.51037354086556 68.3020700272269 0.656357124561033 -172.109812706776 
                               0.510323022747078 68.3747376617987 0.510373540865552 68.3020700272267 0.692162744166833 152.1951689619   0.000365213756676176 -159.124702119203 
                               0.656518479632434 7.89951355419548 0.65635712456101 -172.109812706777 0.000365213756673892 -159.124702119264 0.37172398842191 -143.911158578683 
9.35                           0.161627854455149 167.576401764818 0.533312437431486 160.028135804221 0.50901320025875 65.3208859216709 0.656017942631014 5.08212355571423 
                               0.533312437431524 160.028135804218 0.162122770100417 167.728114709112 0.509063097381435 65.2478977718553 0.655857081219843 -174.92699846783 
                               0.509013200258765 65.3208859216709 0.509063097381415 65.2478977718551 0.694089728933083 148.767501930219 0.000364827782334403 -162.698396015747 
                               0.656017942630995 5.08212355571737 0.655857081219772 -174.926998467833 0.000364827782322545 -162.698396016264 0.37348619023212 -146.576518025007 
9.375                          0.161911396668253 165.248432602199 0.53511177338727 157.250679976253 0.507682556604015 62.2704604535267 0.655513599124824 2.27097966146584 
                               0.535111773387325 157.250679976249 0.162405218659327 165.398996928428 0.507731837047891 62.1971656797618 0.655353249322839 -177.737939179423 
                               0.507682556604036 62.2704604535269 0.507731837047863 62.1971656797614 0.696036772811998 145.342028779095 0.000364341906545467 -166.266474713637 
                               0.655513599124793 2.27097966147052 0.655353249322733 -177.737939179428 0.000364341906526092 -166.266474714495 0.375252017354   -149.238454665044 
9.4                            0.162212538326951 162.921111819795 0.536920499928375 154.479047299699 0.506330768938786 59.2234518812524 0.655005427487925 -0.534031649108252 
                               0.53692049992844 154.479047299694 0.16270512366546 163.070470512411 0.50637943829506 59.1498649148976 0.654845607351286 179.457251592047 
                               0.506330768938813 59.2234518812526 0.506379438295026 59.1498649148973 0.698003939997186 141.918932951328 0.000363754697077361 -169.828951904871 
                               0.655005427487885 -0.534031649102578 0.654845607351157 179.457251592041 0.000363754697052607 -169.828951905958 0.377021466359728 -151.897022686521 
9.425                          0.16253088789282 160.594079334586 0.538738725685798 151.713062222236 0.504957556899086 56.1798533774168 0.654493405488107 -3.33302174072548 
                               0.538738725685869 151.71306222223  0.163022091639147 160.742176809086 0.505005622027273 56.1059892085047 0.654334133183466 176.658462431003 
                               0.504957556899116 56.1798533774171 0.505005622027236 56.1059892085043 0.699991223771333 138.498398124298 0.000363064769988963 -173.385843474376 
                               0.654493405488062 -3.3330217407193 0.654334133183325 176.658462430997 0.000363064769960951 -173.385843475587 0.378794536202788 -154.552275427602 
9.45                           0.162866008451685 158.266990846008 0.540566524369365 148.952553368895 0.503562683029637 53.1396605507897 0.653977510212338 -6.12609982976503 
                               0.540566524369437 148.952553368889 0.16335568399273 158.413772975013 0.503610152058636 53.0655347449157 0.653818804010653 173.865584064847 
                               0.503562683029667 53.1396605507899 0.503610152058599 53.0655347449153 0.701998547021905 135.080607701898 0.000362270786254076 -176.937167123675 
                               0.653977510212292 -6.12609982975876 0.653818804010511 173.86558406484  0.000362270786224824 -176.937167124913 0.38057122806228 -157.204265401202 
9.475                          0.163217420675279 155.939518458645 0.54240393551544 146.197353669176 0.502145953046423 50.1028713081718 0.653457718008691 -8.91337300238414 
                               0.542403935515509 146.19735366917  0.163705420007135 156.084932588397 0.502192835381141 50.0285000219906 0.653299596270037 171.078509345582 
                               0.502145953046452 50.1028713081721 0.502192835381106 50.0285000219902 0.704025763131813 131.665744284691 0.000361371448637706 179.517057911812 
                               0.653457718008647 -8.91337300237819 0.653299596269902 171.078509345576 0.000361371448609059 179.51705791063  0.382351545201691 -159.853044319289 
9.5                            0.16358460573166 153.611351225327 0.544250965332547 143.447300462986 0.500707215934554 47.0694856931208 0.652934004442922 -11.6949462418635 
                               0.544250965332609 143.447300462981 0.164070779756914 153.755346182643 0.500753522266766 46.9948856887624 0.652776485592737 168.297133222303 
                               0.50070721593458 47.069485693121  0.500753522266734 46.9948856887621 0.70607265722845 128.253989122553 0.000360365498805141 175.976811053152 
                               0.652934004442882 -11.6949462418582 0.652776485592616 168.297133222297 0.000360365498778717 175.976811052095 0.38413549284071 -162.498663117053 
9.525                          0.163967008152338 151.282195612681 0.546107587636938 140.70223558684  0.499246363883614 44.0395057041358 0.652406344267948 -14.4709224638829 
                               0.54610758763699 140.702235586836 0.164451206991537 151.42472170243  0.499292106205853 43.964694362844  0.652249446765164 165.521352705821 
                               0.499246363883635 44.0395057041359 0.499292106205826 43.9646943628437 0.708138947772476 124.845521554072 0.000359251714639665 172.442070477624 
                               0.652406344267913 -14.4709224638785 0.652249446765063 165.521352705816 0.000359251714616813 172.442070476747 0.385923078038767 -165.141171976853 
9.55                           0.164364038663503 148.951775890898 0.547973744870472 137.962005441669 0.497763332063486 41.0129350948302 0.651874711404585 -17.2414025585157 
                               0.547973744870513 137.962005441665 0.164846111980112 149.092784884108 0.497808523684884 40.937930430112  0.651718453702081 162.751066826659 
                               0.497763332063502 41.0129350948304 0.497808523684862 40.9379304301118 0.710224288465909 121.440518436899 0.00035802890774094 168.912813129777 
                               0.651874711404558 -17.2414025585123 0.651718453702002 162.751066826656 0.000358028907722709 168.912813129117 0.387714309589002 -167.780620351844 
9.575                          0.164775076987907 146.619834449283 0.549849349193486 135.226461043531 0.496258098244482 37.9897791585725 0.651339078932002 -20.0064854378164 
                               0.549849349193514 135.226461043528 0.165254874325912 146.759279562035 0.496302753807589 37.9145998291329 0.651183479429813 159.986176587512 
                               0.496258098244492 37.9897791585727 0.496302753807574 37.9145998291328 0.712328270457436 118.039153573166 0.000356695921073016 165.389014646046 
                               0.651339078931983 -20.0064854378141 0.651183479429759 159.98617658751  0.000356695921060145 165.389014645627 0.389509197921444 -170.417056989192 
9.6                            0.165199474622969 144.286132038979 0.551734283645583 132.495458058456 0.494730682266356 34.9700445000114 0.650799419086448 -22.7662680879598 
                               0.551734283645597 132.495458058454 0.165676845756094 144.423967902283 0.494774817764114 34.8947098227335 0.650644496078158 157.22658491123  
                               0.49473068226636 34.9700445000115 0.494774817764105 34.8947098227334 0.714450424821393 114.641597133965 0.000355251626728775 161.870649195354 
                               0.650799419086438 -22.7662680879587 0.65064449607813 157.226584911229 0.000355251626721684 161.870649195183 0.391307755014274 -173.050529952844 
9.625                          0.165636557599499 141.950447944197 0.553628403367537 129.768856822567 0.493181145361569 31.9537387958246 0.650255703266915 -25.5208456249761 
                               0.553628403367539 129.768856822567 0.166111352890847 142.086630565103 0.493224778153699 31.8782687590384 0.650101474879669 154.472196585267 
                               0.493181145361567 31.9537387958247 0.493224778153696 31.8782687590383 0.716590225285685 111.248015086701 0.000353694923776166 158.357689238214 
                               0.650255703266915 -25.5208456249762 0.650101474879666 154.472196585267 0.000353694923774964 158.357689238289 0.393109994312065 -175.681086645754 
9.65                           0.16608562922418 139.612580083218 0.555531536877748 127.046522348578 0.491609589338816 28.9408705469442 0.649707902046515 -28.2703113532063 
                               0.555531536877738 127.046522348579 0.166557699994918 139.747066797451 0.491652738167043 28.8652858242089 0.649554386175056 151.722918203462 
                               0.491609589338809 28.9408705469443 0.491652738167046 28.8652858242088 0.718747091182895 107.85856862896  0.000352024736150993 154.850105206908 
                               0.649707902046522 -28.2703113532075 0.649554386175076 151.722918203463 0.000352024736155493 154.850105207214 0.394915930650008 -178.308773831557 
9.675                          0.166545972807565 137.272345040486 0.557443487396888 124.328324319682 0.490016155633533 25.9314488244109 0.649155985188431 -31.0147568256831 
                               0.557443487396865 124.328324319683 0.16701517171317 137.405094456976 0.490058840635147 25.8557707890218 0.649003199423589 148.978658105957 
                               0.490016155633521 25.931448824411  0.490058840635155 25.8557707890218 0.720920390598148 104.473413632305 0.000350240010561063 151.347865109212 
                               0.649155985188446 -31.0147568256851 0.64900319942363 148.978658105959 0.000350240010570806 151.347865109723 0.396725580183196 179.066362344384 
9.7                            0.167016854377981 134.929578031171 0.559364034214571 121.614137071801 0.488401024232621 22.9254830108962 0.648599921665434 -33.7542719057242 
                               0.55936403421454 121.614137071804 0.167483035790399 135.060549968869 0.488443266952014 22.8497337513064 0.64844788321747 146.239326317946 
                               0.488401024232606 22.9254830108963 0.488443266952027 22.8497337513064 0.723109443686764 101.092700099178 0.000348339714367276 147.850934057994 
                               0.648599921665454 -33.7542719057271 0.648447883217528 146.239326317949 0.00034833971438156 147.850934058678 0.398538960320073 176.444276334556 
9.725                          0.167497525380273 132.584132799746 0.561292934092092 118.903839565091 0.48676441248118 19.9229825398195 0.648039679682029 -36.4889448290953 
                               0.561292934092054 118.903839565094 0.167960545774275 132.713288217192 0.486806235879089 19.8471848761508 0.647888405299248 143.504834487902 
                               0.486764412481161 19.9229825398197 0.486806235879106 19.8471848761508 0.72531352613455 97.7165716358001 0.0003463228334086 144.359273728734 
                               0.648039679682055 -36.4889448290987 0.647888405299319 143.504834487906 0.000346322833426517 144.359273729554 0.400356089659303 173.824923169552 
9.75                           0.167987225356982 130.235881454269 0.563229922695385 116.197315345536 0.485106573779442 16.923956633854  0.647475226698429 -39.2188622661772 
                               0.563229922695343 116.197315345539 0.168446943698901 130.36318237241  0.48514800223974 16.8481341356537 0.647324732581453 140.775095825845 
                               0.485106573779422 16.9239566338542 0.485148002239759 16.8481341356536 0.727531872733598 94.3451649437236 0.000344188369739766 140.872841746568 
                               0.647475226698457 -39.218862266181 0.647324732581532 140.775095825849 0.00034418836976024 140.872841747483 0.402176987929295 171.208258439006 
9.775                          0.168485184608184 127.884714238319 0.565174716052579 113.494452497431 0.48342779617849 13.9284140444848 0.646906529455595 -41.9441093836421 
                               0.565174716052534 113.494452497434 0.16894146274516 128.010123657135 0.483468855512433 13.8525910498671 0.646756831167713 138.050025042129 
                               0.483427796178469 13.928414044485  0.483468855512453 13.8525910498671 0.729763681046734 90.978609332354  0.00034193533925294 137.391591003961 
                               0.646906529455625 -41.9441093836461 0.646756831167795 138.050025042133 0.00034193533927477 137.391591004929 0.404001675929785 168.594238273221 
9.8                            0.168990626824982 125.530539242773 0.567127012030609 110.795143587469 0.481728400883559 10.9363627941425 0.646333554000756 -44.664769905211 
                               0.567127012030565 110.795143587472 0.169443329872834 125.654021052291 0.481769118331519 10.8605644304391 0.64618466637472 135.329538287197 
                               0.481728400883539 10.9363627941427 0.481769118331539 10.860564430439  0.73200811513429 87.6170262544825 0.000339562769157385 133.915468909349 
                               0.646333554000786 -44.6647699052149 0.646184666374801 135.329538287201 0.000339562769179292 133.915468910328 0.405830175474858 165.982819325505 
9.825                          0.169502771690523 123.173282059913 0.569086491825532 108.099285601119 0.480008740673964 7.94780992229234 0.645756265712814 -47.3809261711275 
                               0.569086491825491 108.099285601122 0.169951768418348 123.294800946242 0.480049144904714 7.87206212831725 0.645608202754502 132.613553092635 
                               0.480008740673945 7.94780992229256 0.480049144904732 7.87206212831714 0.734264309317645 84.2605288665535 0.000337069695294277 130.444416566259 
                               0.645756265712842 -47.3809261711311 0.645608202754577 132.613553092639 0.000337069695314944 130.444416567209 0.407662509336937 163.373958755213 
9.85                           0.170020837441415 120.812885382652 0.57105282146128 105.406779871924 0.478269198248733 4.96276123671228 0.645174629327221 -50.0926591960502 
                               0.571052821461245 105.406779871927 0.170466000651047 120.932406729685 0.478309319356447 4.88709078673497 0.645027404116531 129.901988313847 
                               0.478269198248716 4.9627612367125  0.478309319356462 4.88709078673485 0.736531371954929 80.909221615079  0.000334455159267204 126.978367881287 
                               0.645174629327247 -50.0926591960533 0.645027404116596 129.90198831385  0.000334455159285323 126.978367882172 0.409498701191281 160.767614211491 
9.875                          0.170544043381612 118.449308552008 0.573025653291764 102.717532004304 0.476510184507096 1.98122107104311 0.644588608959918 -52.8000487251189 
                               0.573025653291738 102.717532004306 0.17098525028013 118.56679833946  0.476550054006251 1.9056556005475  0.644442233549288 127.19476407457  
                               0.476510184507083 1.98122107104334 0.476550054006262 1.90565560054737 0.738808389205487 77.563199850302  0.000331718205372441 123.517248598035 
                               0.644588608959938 -52.8000487251214 0.644442233549338 127.194764074572 0.000331718205386756 123.517248598824 0.411338775560612 158.163743817727 
9.9                            0.171071612340193 116.082527056252 0.57500462750132 100.031451790411 0.474732136772851 -0.996807950451171 0.643998168130047 -55.5031732880069 
                               0.575004627501304 100.031451790413 0.17150874490374 116.197951754718 0.474771787591299 -1.07223991715538 0.643852653440987 124.491801713429 
                               0.474732136772843 -0.996807950450944 0.474771787591307 -1.07223991715555 0.74109442876104 74.2225494679051 0.000328857877316765 120.06097525252  
                               0.643998168130061 -55.5031732880085 0.643852653441019 124.491801713431 0.000328857877326107 120.060975253188 0.413182757759575 155.562306156683 
9.925                          0.171602773064046 113.712531985504 0.576989373598666 97.3484531215357 0.472935516971506 -3.9713251401293 0.643403269781209 -58.2021102508272 
                               0.576989373598663 97.3484531215363 0.172035718391327 113.825858449227 0.472974983442   -4.04659416038795 0.643258625499222 121.793023732656 
                               0.472935516971504 -3.97132514012907 0.472974983442002 -4.04659416038812 0.743388543523003 70.8873465792571 0.000325873214714282 116.609454043703 
                               0.643403269781216 -58.2021102508279 0.643258625499233 121.793023732657 0.000325873214717612 116.60945404423  0.415030673838745 152.963260256327 
9.95                           0.172136762536239 111.339329445857 0.578979511899648 94.6684538945313 0.47112080976887 -6.94233196558345 0.642803876301109 -60.8969358658037 
                               0.578979511899659 94.6684538945308 0.172565413190184 111.450524803863 0.471160127619351 -7.01740764692618 0.642660110769371 119.098353749053 
                               0.471120809768873 -6.94233196558324 0.471160127619347 -7.01740764692635 0.745689775207078 67.5576572104008 0.000322763249357448 113.162579610553 
                               0.642803876301107 -60.8969358658033 0.642660110769359 119.098353749053 0.000322763249353882 113.162579610929 0.416882550528   150.366565576325 
9.975                          0.172672828210898 108.962939937357 0.5809746549942  91.9913759136979 0.469288520679424 -9.90983225912045 0.642199949539471 -63.5877253186671 
                               0.580974654994226 91.9913759136962 0.173097082547117 109.071971483652 0.469327727022424 -9.98468322579789 0.642057069651663 116.407716447249 
                               0.469288520679433 -9.90983225912028 0.469327727022414 -9.98468322579803 0.747997157857999 64.2335370297053 0.000319527001261057 109.72023370445  
                               0.64219994953946 -63.5877253186656 0.642057069651627 116.407716447248 0.000319527001249896 109.720233704668 0.418738415179087 147.772181995193 
10                             0.173210230155614 106.583397700492 0.582974409193086 89.3171447885161 0.467439174152488 -12.8738324177591 0.64159145082421 -66.2745527737763 
                               0.582974409193129 89.3171447885132 0.173629992636426 106.690232783918 0.467478307473985 -12.9484262752569 0.641449461916861 113.721037535236 
                               0.467439174152504 -12.873832417759 0.467478307473968 -12.948426275257 0.750309721259147 60.915031103839  0.000316163474481513 106.282283742548 
                               0.64159145082419 -66.2745527737736 0.6414494619168  113.721037535233 0.000316163474462264 106.282283742612 0.420598295707282 145.180069798098 
10.025                         0.173748243092876 104.200750035976 0.584978375950171 86.6456898276098 0.465573311643714 -15.8343415935265 0.640978340975844 -68.9574914170055 
                               0.58497837595023 86.6456898276058 0.17416342458585 104.30535595037  0.4656124117918  -15.9086448910278 0.640837246720563 111.038243702143 
                               0.465573311643736 -15.8343415935264 0.465612411791778 -15.9086448910279 0.752626494223686 57.6021736814673 0.000312671652717028 102.848581224059 
                               0.640978340975815 -68.9574914170016 0.640837246720475 111.038243702139 0.000312671652689416 102.848581223978 0.422462220532069 142.590189665283 
10.05                          0.17428615833271 101.815056602865 0.586986153256099 83.9769439292838 0.463691489679002 -18.7913718739631 0.64036058032023 -71.6366134964694 
                               0.586986153256174 83.9769439292785 0.174696676392824 101.917400478048 0.46373059785272 -18.8653500647328 0.640220382616194 108.359262578188 
                               0.46369148967903 -18.7913718739631 0.463730597852691 -18.8653500647328 0.754946507755797 54.2949880038495 0.000309050494697562 99.4189599869338 
                               0.640360580320191 -71.6366134964644 0.640220382616082 108.359262578182 0.000309050494661544 99.4189599867217 0.424330218516807 140.002502661102 
10.075                         0.174823285589525 99.4263887001027 0.588997336999472 81.3108434689549 0.461794277917382 -21.7449384528767 0.639738128699704 -74.3119903611944 
                               0.588997336999562 81.3108434689484 0.175229064724227 99.5264373942334 0.461833436656064 -21.8185558525404 0.639598827566782 105.68402269667  
                               0.461794277917417 -21.7449384528768 0.46183343665603 -21.8185558525403 0.757268798072552 50.9934861412846 0.000305298929376361 95.993234277108  
                               0.639738128699657 -74.3119903611883 0.639598827566647 105.684022696664 0.000305298929332125 95.9932342767852 0.426202318907392 137.41697022366  
10.1                           0.175358954677286 97.0348285367035 0.591011522291787 78.64732818378   0.459882257218845 -24.6950597914961 0.639110945482787 -76.9836924978692 
                               0.591011522291892 78.6473281837724 0.175759926593874 97.1325485304475 0.459921510392296 -24.7682795341841 0.638972538955649 103.012453457899 
                               0.459882257218886 -24.6950597914963 0.459921510392256 -24.768279534184 0.759592409478894 47.6976688541676 0.000301415850937716 92.57119659612   
                               0.639110945482731 -76.9836924978621 0.638972538955492 103.012453457891 0.00030141585088568 92.5711965957109 0.428078551269928 134.833554155024 
10.125                         0.175892517078264 94.6404684957597 0.593028304752601 75.9863410547582 0.45795601772253 -27.6417577702893 0.638478989572607 -79.6517895658341 
                               0.593028304752719 75.9863410547497 0.1762886209132  94.7358257886683 0.45799541052236 -27.714541762611 0.638341473596199 100.344485094866 
                               0.457956017722576 -27.6417577702895 0.457995410522315 -27.7145417626108 0.76191639709012 44.4075254772321 0.000297400113638305 89.1526152851459 
                               0.638478989572544 -79.651789565826 0.638341473596023 100.344485094858 0.000297400113579103 89.1526152846782 0.429958945427473 132.252216612007 
10.15                          0.176423347382025 92.2434103974262 0.595047281751611 73.3278281865693 0.456016156940038 -30.5850578318107 0.63784221941427 -82.3163504304904 
                               0.59504728175174 73.32782818656   0.176814529911894 92.3363704068587 0.456055735872446 -30.6573667046177 0.637705587741006 97.6800486405094 
                               0.456016156940088 -30.585057831811 0.456055735872397 -30.6573667046175 0.764239829398083 41.123033825401  0.000293250526502026 85.7372317941348 
                               0.6378422194142  -82.3163504304815 0.637705587740815 97.6800486405005 0.000293250526436499 85.7372317936382 0.431843531395912 129.672920097499 
10.175                         0.176950844592711 89.8437647659079 0.597068053604567 70.6717386853937 0.454063277868046 -33.5249891150348 0.637200593001367 -84.9774431953295 
                               0.597068053604704 70.6717386853837 0.177337060426679 89.9342922287629 0.454103090748316 -33.5967821729203 0.63706483709042 95.0190758963442 
                               0.454063277868099 -33.5249891150352 0.454103090748264 -33.59678217292  0.766561790679109 37.8441601195283 0.000288965847890873 82.3247575732357 
                               0.637200593001293 -84.97744319532  0.637064837090217 95.0190758963347 0.000288965847820042 82.3247575727407 0.433732339319044 127.095627452334 
10.2                           0.177474433304198 87.4416501053072 0.599090224720164 68.0180245349434 0.452097987123743 -36.4615845817179 0.636554067881912 -87.6351352327961 
                               0.599090224720308 68.0180245349328 0.177855645057926 87.5297089827555 0.452138083072695 -36.5328197501896 0.636419176800933 92.3614994022535 
                               0.4520979871238  -36.4615845817184 0.452138083072641 -36.5328197501893 0.768881383243279 34.5708589301939 0.000284544779977006 78.9148705095837 
                               0.636554067881833 -87.6351352327862 0.636419176800721 92.3614994022436 0.000284544779902053 78.9148705091206 0.435625399402968 124.520301847687 
10.225                         0.17799356474426 85.0371921889462 0.601113404695333 65.3666404709203 0.450120893105993 -39.3948811354046 0.635902601163926 -90.2894932142126 
                               0.601113404695482 65.3666404709094 0.178369743195297 85.1227455742957 0.450161322548606 -39.4655149056524 0.635768561493581 89.7072524072131 
                               0.450120893106051 -39.3948811354051 0.450161322548552 -39.465514905652 0.771197729526319 31.3030731376186 0.000279985963144216 75.507210815011  
                               0.635902601163845 -90.2894932142025 0.635768561493364 89.7072524072029 0.000279985963066447 75.5072108146084 0.437522741849855 121.946906777979 
10.25                          0.178507717690402 82.6305233664896 0.603137209356606 62.7175438541076 0.448132604184504 -42.32491973376  0.635246149520986 -92.9405831390026 
                               0.603137209356757 62.7175438540966 0.178878841915145 82.7135333962412 0.448173418850906 -42.394907104924 0.63511294526264 87.0562688407074 
                               0.448132604184563 -42.3249197337606 0.448173418850853 -42.3949071049235 0.773509974026732 28.0407339056835 0.000275287970350284 72.1013762484253 
                               0.635246149520904 -92.9405831389924 0.635112945262421 87.0562688406972 0.000275287970271099 72.1013762481091 0.43942439679119 119.375406054291 
10.275                         0.179016399261556 80.2217818928455 0.605161261745503 60.0706945422861 0.446133726918696 -45.2517454949665 0.634584669197989 -95.5884703634532 
                               0.605161261745652 60.0706945422751 0.179382456753872 80.3022096609393 0.446174979847676 -45.3210399137907 0.634452281684908 84.4084832845964 
                               0.446133726918754 -45.2517454949672 0.446174979847623 -45.3210399137902 0.775817285092144 24.7837606679801 0.000270449301485971 68.6969165291922 
                               0.634584669197907 -95.5884703634431 0.634452281684692 84.4084832845864 0.000270449301406829 68.6969165289847 0.441330394220552 116.805763798275 
10.3                           0.179519145591259 77.8111112824297 0.607185193046193 57.4260547611598 0.444124864307353 -48.175407798969 0.633918116017439 -98.2332196292657 
                               0.607185193046339 57.4260547611491 0.179880132362871 77.8889167576204 0.444166609852536 -48.2439610967061 0.63378652382985 81.7638309451841 
                               0.44412486430741 -48.1754077989696 0.444166609852486 -48.2439610967055 0.778118856559972 21.5320611237717 0.000265468377771584 65.2933267631955 
                               0.633918116017359 -98.233219629256 0.633786523829642 81.7638309451743 0.000265468377693961 65.2933267631145 0.443240763926017 114.237944436557 
10.325                         0.180015522389272 75.3986596919445 0.609208643453974 54.7835889744658 0.442106614069627 -51.0959603843908 0.633246445386544 -100.87489509214 
                               0.609208643454114 54.7835889744556 0.180371443051977 75.4738016381947 0.442148907908432 -51.1637227107978 0.633115624270903 79.1222476252424 
                               0.442106614069682 -51.0959603843915 0.442148907908385 -51.1637227107972 0.780413909258537 18.2855312417248 0.000260343536238931 61.8900396590872 
                               0.633246445386468 -100.874895092131 0.633115624270706 79.1222476252331 0.000260343536164282 61.890039659145  0.4451555354222  111.671912695631 
10.35                          0.180505125399828 72.9845793343571 0.611231262983402 52.1432637534347 0.440079566957399 -54.0134614419696 0.632569612305412 -103.513560350636 
                               0.611231262983533 52.1432637534252 0.180855993229552 73.0570152340913 0.440122466102867 -54.0803811962096 0.632439535098217 76.4836696957445 
                               0.44007956695745 -54.0134614419703 0.440122466102824 -54.080381196209 0.782701692375584 15.0440552692573 0.000255073024355592 58.4864162555439 
                               0.632569612305341 -103.513560350627 0.632439535098033 76.4836696957359 0.000255073024285312 58.4864162557471 0.447074737881975 109.107633597244 
10.375                         0.18098758076574 70.5690259262675 0.613252712215249 49.505047645761  0.438044305098541 -56.9279737053831 0.631887571376626 -106.149278475559 
                               0.613252712215368 49.5050476457523 0.181333417748353 70.6387119062933 0.438087867914127 -56.9939974636201 0.631758207933121 73.8480340670652 
                               0.438044305098587 -56.9279737053838 0.438087867914089 -56.9939974636196 0.784981484701895 11.8075057453591 0.000249654994860684 55.0817348069906 
                               0.631887571376561 -106.149278475551 0.631758207932955 73.8480340670574 0.000249654994796067 55.0817348073397 0.448998400067861 106.545072454265 
10.4                           0.181462545308475 68.1521581703471 0.615272662981758 46.8689110442352 0.436001400370178 -59.839564540343 0.63120027681649 -108.782112040093 
                               0.615272662981864 46.8689110442275 0.181803382167186 68.2190489302239 0.436045686587558 -59.9046369797857 0.631071593944588 71.2152781594148 
                               0.43600140037022 -59.8395645403436 0.436045686587526 -59.9046369797852 0.787252595758174 8.57574351476135 0.000244087500897898 51.6751773795637 
                               0.631200276816432 -108.782112040086 0.631071593944441 71.2152781594079 0.000244087500840102 51.6751773800528 0.450926550263034 103.984194867064 
10.425                         0.181929706735001 65.7341372740093 0.617290798989992 44.2348260551869 0.433951412800626 -62.7483060328377 0.630507682468208 -111.412123150919 
                               0.617290798990084 44.2348260551802 0.18226558293902 65.7981860166255 0.433996483540587 -62.8123698519569 0.630379643867959 68.5853398722813 
                               0.433951412800663 -62.7483060328382 0.433996483540561 -62.8123698519564 0.789514366813804 5.34861774136699 0.000238368491554204 48.265813583191  
                               0.630507682468157 -111.412123150914 0.630379643867832 68.5853398722754 0.000238368491504215 48.2658135838087 0.452859216201898 101.424966720384 
10.45                          0.182388783782675 63.3151265049533 0.619306816383403 41.6027663668758 0.431894888998319 -65.6542750773972 0.629809741817253 -114.039373480522 
                               0.619306816383479 41.6027663668704 0.182719747536702 63.3762848690675 0.43194080679479 -65.7172709120071 0.629682308026185 65.9581575526668 
                               0.43189488899835 -65.6542750773977 0.43194080679477 -65.7172709120066 0.791766171806285 2.12596591890312 0.000232495807943609 44.852580698555  
                               0.629809741817211 -114.039373480517 0.629682308026081 65.958157552662  0.000232495807902209 44.8525806992842 0.454796425000079 98.867354180735  
10.475                         0.182839526313704 60.8952907837096 0.621320424242061 38.9727071179706 0.429832360605747 -68.5575534662404 0.629106408009193 -116.663924300888 
                               0.621320424242121 38.9727071179665 0.183165634527645 60.9535087782133 0.429879189433023 -68.6194198010974 0.628979536353836 63.3336699619176 
                               0.429832360605773 -68.5575534662408 0.42987918943301 -68.619419801097 0.794007418170228 -1.09238612318326 0.000226467180017939 41.4342592337631 
                               0.62910640800916 -116.663924300884 0.628979536353756 63.3336699619138 0.000226467179985682 41.4342592345817 0.456738203083708 96.3113236943158 
10.5                           0.18328171537077 58.4747963128225 0.623331345022307 36.3446247662434 0.427764342776125 -71.4582279801393 0.628397633870183 -119.285836518784 
                               0.623331345022349 36.3446247662405 0.183603033608926 58.5300222524945 0.427812148079354 -71.5189010556755 0.628271278424087 60.7118162409623 
                               0.427764342776144 -71.4582279801396 0.427812148079347 -71.5189010556752 0.796237547584732 -4.30662422049128 0.000220280224345586 38.0094426424725 
                               0.628397633870159 -119.285836518781 0.62827127842403 60.7118162409597 0.000220280224322773 38.0094426433548 0.458684576117768 93.7568419854815 
10.525                         0.183715163205209 56.0538102418315 0.625339314936906 33.7184969576077 0.425691332670304 -74.3563904818078 0.627683371930363 -121.905170712783 
                               0.625339314936931 33.7184969576061 0.184031765614034 56.1059906843781 0.425740181399316 -74.4158041955755 0.62755748347891 58.0925358737915 
                               0.425691332670317 -74.356390481808 0.425740181399315 -74.4158041955752 0.79845603664775 -7.51694588291744 0.000213932443181235 34.5764995206366 
                               0.627683371930348 -121.905170712781 0.627557483478877 58.0925358737901 0.000213932443167902 34.5764995215541 0.460635568933249 91.2038760557797 
10.55                          0.18413971328879 53.632500366774  0.627344084277099 31.0943023956239 0.423613807971258 -77.2521380125825 0.626963574450367 -124.521987172178 
                               0.627344084277108 31.0943023956235 0.184451682502157 53.68158005098   0.423663768617836 -77.3102238149465 0.626838100462665 55.4757686490286 
                               0.423613807971266 -77.2521380125826 0.423663768617841 -77.3102238149464 0.800662397485702 -10.7235603141201 0.000207421225264844 31.1335260255172 
                               0.62696357445036 -124.521987172177 0.626838100462654 55.4757686490281 0.000207421225260752 31.1335260264401 0.462591205452809 88.6523931835775 
10.575                         0.184555240319542 51.2110348625263 0.629345417678228 28.4720207115868 0.421532225413351 -80.1455728931245 0.626238193451112 -127.136345937926 
                               0.629345417678222 28.4720207115875 0.184862667340313 51.2569566473845 0.42158336805207 -80.2022596766953 0.626113078059262 52.8614546194623 
                               0.421532225413353 -80.1455728931244 0.421583368052079 -80.2022596766953 0.802856178306144 -13.9266884428254 0.000200743848951386 27.6782854575379 
                               0.626238193451114 -127.136345937927 0.62611307805927 52.8614546194628 0.00020074384895602 27.6782854584366 0.464551508614559 86.1023609243048 
10.6                           0.184961650231317 48.789582045943  0.631343094330934 25.8516323353143 0.419447019323491 -83.0368028288131 0.625507180747074 -129.748306845721 
                               0.631343094330913 25.851632335316  0.185264634287891 48.8322868506756 0.419499415656288 -83.0920168110713 0.625382364733066 50.249534059436  
                               0.419447019323488 -83.0368028288129 0.419499415656302 -83.0920168110714 0.805036963900683 -17.1265629674868 0.000193897488506719 24.2081308063948 
                               0.625507180747083 -129.748306845723 0.625382364733093 50.2495340594373 0.000193897488519294 24.2081308072414 0.466516500293554 83.553747111349  
10.625                         0.185358880215886 46.3683101674391 0.633336908140175 23.2331183667457 0.417358600171272 -85.9259410204534 0.624770487983166 -132.357929571279 
                               0.633336908140143 23.2331183667483 0.185657528592283 46.4077369123804 0.41741232357594 -85.97960561897  0.62464590877369 47.6399474200079 
                               0.417358600171265 -85.9259410204532 0.417412323575957 -85.9796056189702 0.807204376104663 -20.3234284156931 0.000186879224743948 20.7199044241634 
                               0.624770487983181 -132.357929571281 0.624645908773732 47.6399474200099 0.000186879224763423 20.7199044249333 0.468486201220505 81.00651985763   
10.65                          0.185746898765286 43.947387228396  0.635326667834613 20.6164604484595 0.415267353125164 -88.8131062808537 0.624028066675397 -134.965273677901 
                               0.63532666783457 20.6164604484628 0.186041326603229 43.9834727767659 0.415322478708026 -88.8651419804654 0.623903658344795 45.0326352818232 
                               0.415267353125154 -88.8131062808533 0.415322478708047 -88.8651419804657 0.809358074219314 -23.5175412195869 0.000179686061673058 17.2098065950618 
                               0.624028066675417 -134.965273677903 0.623903658344849 45.0326352818258 0.000179686061698159 17.2098065957355 0.470460630897151 78.4606475578983 
10.675                         0.186125705740964 41.5269808215675 0.63731219702913 18.0016406392157 0.413173636611912 -91.6984231577595 0.623279868255414 -137.570398666345 
                               0.637312197029081 18.0016406392196 0.186416035812389 41.5596599222277 0.41323024126497 -91.7487473690112 0.623155561537023 42.4275383056638 
                               0.413173636611899 -91.6984231577591 0.413230241264992 -91.7487473690114 0.811497755401151 -26.7091698084203 0.000172314951580905 13.6732212190663 
                               0.623279868255438 -137.570398666348 0.623155561537085 42.4275383056668 0.000172314951610159 13.6732212196304 0.472439807507701 75.916098891793  
10.7                           0.186495332475037 39.1072579915032 0.639293334243515 15.3886412886238 0.41107778087636 -94.5820220635638 0.622525844119039 -140.173364027017 
                               0.639293334243462 15.388641288628  0.186781694923375 39.1364632228541 0.411135943339285 -94.6305489716802 0.622401566425146 39.8245971806662 
                               0.411077780876345 -94.5820220635633 0.411135943339308 -94.6305489716805 0.813623155022438 -29.8985947192259 0.000164762832089568 10.1044814582943 
                               0.622525844119064 -140.17336402702 0.622401566425212 39.8245971806694 0.000164762832121337 10.1044814587425 0.474423747825652 73.3728428277081 
10.725                         0.186855841907624 36.6883851119124 0.641269932880535 12.7774449130387 0.408980086539082 -97.4640394121256 0.621765945678898 -142.77422929446 
                               0.64126993288048 12.7774449130429 0.187138373956251 36.7140468271549 0.409039887466473 -97.5106798157295 0.621641621129528 37.2237525702276 
                               0.408980086539067 -97.464039412125 0.409039887466495 -97.5106798157299 0.815734047005409 -33.0861087264249 0.00015702668049316 6.49654992378493 
                               0.621765945678924 -142.774229294464 0.621641621129594 37.223752570231  0.000157026680525691 6.49654992411876 0.476412467115262 70.8308486275126 
10.75                          0.187207328762903 34.2705277768445 0.643241861166837 10.1680340727793 0.406880823149353 -100.344617762955 0.621000124421231 -145.373054104101 
                               0.643241861166784 10.1680340727834 0.187486174389129 34.2925740508963 0.406942345183776 -100.389278901696 0.620875673881939 34.6249450556445 
                               0.406880823149338 -100.344617762955 0.406942345183796 -100.389278901697 0.81783024413181 -36.2720169910327 0.000149103593446591 2.84057496219719 
                               0.621000124421256 -145.373054104105 0.620875673882003 34.6249450556476 0.00014910359347807 2.84057496242489 0.478405979026868 68.2900858521786 
10.775                         0.187549919765161 31.853850702575  0.645209002060296 7.56039125076919 0.40478022773124 -103.223905972927 0.620228331966932 -147.969898251174 
                               0.645209002060248 7.56039125077285 0.18782522933822 31.8722072809954 0.404843555582634 -103.266491343138 0.620103673095817 32.0281150775586 
                               0.404780227731226 -103.223905972926 0.404843555582651 -103.266491343138 0.819911598328038 -39.4566372299426 0.000140990904576266 -0.874736371450435 
                               0.620228331966956 -147.969898251177 0.620103673095875 32.0281150775615 0.000140990904604877 -0.874736371315375 0.480404295485194 65.7505243683714 
10.8                           0.187883773894791 29.4385176371465 0.647171253127559 4.95449873268896 0.402678503320833 -106.102059355595 0.619450520136901 -150.564821751726 
                               0.647171253127519 4.95449873269202 0.188155703776365 29.45310788748   0.40274372385297 -106.142468513038 0.619325567440969 29.4332028753131 
                               0.402678503320822 -106.102059355594 0.402743723852985 -106.142468513038 0.82197800092487 -42.6402999055876 0.000132686360069927 -4.66402274078477 
                               0.61945052013692 -150.564821751729 0.619325567441015 29.4332028753156 0.00013268636009392 -4.66402274072782 0.48240742656973 63.2121343560611 
10.825                         0.188209082682923 27.0246912746223 0.649128526395712 2.35033848873581 0.400575817492963 -108.979239848083 0.618666641021732 -153.15788490557 
                               0.649128526395683 2.35033848873805 0.188477794788837 27.0354361406277 0.400643019817733 -109.01736819681 0.618541305922786 26.8401484243481 
                               0.400575817492954 -108.979239848083 0.400643019817743 -109.01736819681 0.824029382889358 -45.8233484360828 0.000124188385147949 -8.54660341492982 
                               0.618666641021745 -153.157884905572 0.61854130592282 26.8401484243499 0.00012418838516571 -8.54660341494216 0.4844153803862  60.6748863172173 
10.85                          0.188526070542143 24.6125331712674 0.65108074818206 -0.25210794291965 0.398472300876072 -111.855616185425 0.6178766470558  -155.749148361027 
                               0.651080748182044 -0.252107942918357 0.188791731864035 24.6193511305463 0.398541576456483 -111.891354751702 0.617750837965979 24.248891371797  
                               0.398472300876067 -111.855616185424 0.398541576456487 -111.891354751702 0.826065715024994 -49.0061394257384 0.000115496497106071 -12.5485002083147 
                               0.617876647055808 -155.749148361028 0.617750837965997 24.2488913717981 0.000115496497116197 -12.548500208405 0.486428162928084 58.1387510856533 
10.875                         0.188834995129684 22.2022036610631 0.653027858906145 -2.85285957088978 0.396368045654334 -114.731364082108 0.617080491095767 -158.338673181266 
                               0.653027858906143 -2.8528595708896 0.189097777215598 22.2050106866376 0.396439488417212 -114.76459927234 0.616954113502841 21.6593709704709 
                               0.396368045654333 -114.731364082108 0.396439488417212 -114.76459927234 0.828087008134744 -52.1890429156183 0.000106611962602811 -16.7055913255585 
                               0.617080491095768 -158.338673181266 0.616954113502842 21.6593709704712 0.000106611962604183 -16.7055913257723 0.488445777927109 55.6036998380878 
10.9                           0.189136147738473 19.7938617681931 0.654969812888144 -5.45193606344779 0.394263104056519 -117.60666642049 0.616278126503538 -160.926520912035 
                               0.654969812888157 -5.45193606344879 0.189396226131497 19.7925712946182 0.394336810516036 -117.63727976199 0.616151083066066 19.0715260114486 
                               0.394263104056522 -117.60666642049 0.39433681051603 -117.637279761989 0.830093313139875 -55.3724426535722 9.75388775966336E-05 -21.0686979131228 
                               0.616278126503532 -160.926520912034 0.616151083066048 19.071526011448  9.75388775884988E-05 -21.0686979135743 0.490468226691575 53.0697041064962 
10.925                         0.189429853710554 17.3876651143959 0.656906578137879 -8.0493578594393 0.392157486831621 -120.481713445605 0.615469507233698 -163.512753650523 
                               0.656906578137909 -8.04935785944152 0.189687407344848 17.3821880090074 0.392233556224869 -120.509581309042 0.615341697886123 16.4852947555167 
                               0.392157486831629 -120.481713445605 0.392233556224857 -120.509581309042 0.832084721145867 -58.5567363829222 8.82860113293353E-05 -25.7121068121237 
                               0.615469507233684 -163.512753650522 0.615341697886086 16.4852947555152 8.82860113113811E-05 -25.7121068130499 0.492495507931335 50.5367357918269 
10.95                          0.189716472866727 14.9837698193647 0.658838136138646 -10.6451462771361 0.390051161711796 -123.356702965787 0.614654587925459 -166.097434115095 
                               0.658838136138692 -10.6451462771395 0.189971683420459 14.9740143592767 0.39012969614778 -123.381696268076 0.614525909993195 13.9006148637346 
                               0.390051161711809 -123.356702965787 0.390129696147763 -123.381696268075 0.8340613634449  -61.7423361487065 7.88701036049269E-05 -30.7484869427713 
                               0.614654587925437 -166.097434115092 0.61452590999314 13.9006148637324 7.88701035773603E-05 -30.7484869446261 0.494527617568203 48.0047671791587 
10.975                         0.189996399945675 12.5823303926732 0.660764481630083 -13.2393236209423 0.387944051863752 -126.231840558388 0.613833323999132 -168.680625715582 
                               0.660764481630142 -13.2393236209468 0.190249451150623 12.5682022481368 0.388025156487302 -126.253824444742 0.613703672323686 11.317423327424  
                               0.387944051863769 -126.231840558388 0.388025156487281 -126.253824444742 0.83602341144254 -64.9296686200887 6.9322095322507E-05 -36.3563162776764 
                               0.613833323999104 -168.680625715579 0.613703672323615 11.317423327421  6.93220952861393E-05 -36.356316281304 0.496564548530551 45.4737709543817 
11                             0.190270065045506 10.1834996160237 0.662685622394261 -15.8319132858613 0.385836034330409 -129.107339779751 0.613005671757173 -171.262392623823 
                               0.662685622394333 -15.8319132858666 0.190521141953253 10.1649018407475 0.385919817502632 -129.12617328359 0.612874938831325 8.73565639791083 
                               0.385836034330429 -129.107339779751 0.385919817502607 -129.126173283589 0.837971076494313 -68.119175427224 5.96997006824394E-05 -42.833118891873 
                               0.61300567175714 -171.262392623819 0.61287493883124 8.73565639790718 5.96997006387919E-05 -42.8331188988399 0.49860629053079 42.9437202224824 
11.025                         0.190537934060387 7.78742841493292 0.664601579049145 -18.4229398596281 0.383726938465366 -131.983422378459 0.61217158848982 -173.842799844073 
                               0.664601579049226 -18.4229398596341 0.190787222265268 7.76426144393895 0.383813511962426 -131.99895805779 0.612039664602844 6.15524951637533 
                               0.383726938465389 -131.98342237846 0.383813511962398 -131.998958057789 0.839904609635811 -71.3113135105251 5.0114794025386E-05 -50.7044891568917 
                               0.612171588489783 -173.842799844069 0.612039664602751 6.15524951637127 5.01147939768577E-05 -50.7044891701546 0.500652829824458 40.4145885275198 
11.05                          0.190800509104967 5.39426571928715 0.666512384853451 -21.0124292224152 0.381616544363535 -134.860318510731 0.611331032585375 -176.42191328293 
                               0.666512384853536 -21.0124292224215 0.191048193924084 5.36642737484567 0.381706023595647 -134.872402059624 0.611197805978307 3.57613724418904 
                               0.38161654436356 -134.860318510731 0.381706023595619 -134.872402059623 0.841824301187787 -74.5065554798999 4.07982244410533E-05 -60.9545345849927 
                               0.611331032585336 -176.421913282926 0.611197805978209 3.5761372441848  4.07982243912651E-05 -60.9545346102228 0.502704148949569 37.8863498743786 
11.075                         0.191058328919361 3.00415831252095 0.668418085526888 -23.6004086440097 0.37950458129216 -137.738266956696 0.610483963645181 -178.999799818344 
                               0.668418085526972 -23.6004086440159 0.191304594530159 2.97154381865653 0.379597085544869 -137.746736790401 0.61034932067606 0.998253194144332 
                               0.379504581292185 -137.738266956697 0.379597085544842 -137.7467367904  0.843730480215448 -77.7053899811206 3.22633273114202E-05 -75.4742849737978 
                               0.610483963645143 -178.999799818339 0.610349320675963 0.998253194140142 3.22633272659981E-05 -75.4742850213174 0.504760226444925 35.3589787523889 
11.1                           0.191311969247817 0.617250669469942 0.670318739089599 -26.1869068783652 0.377390726127456 -140.617515336136 0.609630342603349 178.423472632696 
                               0.670318739089678 -26.1869068783709 0.191556997783832 0.579752675478151 0.377486378827349 -140.62220214838 0.609494167922396 -1.57847003699569 
                               0.377390726127479 -140.617515336137 0.377486378827325 -140.622202148379 0.845623513818762 -80.9083220660451 2.56900490331136E-05 -97.3829364529511 
                               0.609630342603314 178.4234726327   0.609494167922308 -1.57847003699943 2.56900490008775E-05 -97.382936534264 0.506821036546046 32.8324501609025 
11.125                         0.191562043184603 -1.76631521675829 0.672214415724518 -28.7719542554207 0.375274601803146 -143.498320322102 0.608770131851304 175.847835048258 
                               0.672214415724584 -28.7719542554254 0.19180601379011 -1.80880660341179 0.375373530810311 -143.499046613069 0.608632308585944 -4.15410093417391 
                               0.375274601803167 -143.498320322103 0.375373530810292 -143.499046613068 0.847503806228037 -84.1158735629224 2.32880766537584E-05 -127.770906440388 
                               0.608770131851275 175.847835048262 0.608632308585871 -4.15410093417694 2.32880766432787E-05 -127.770906536031 0.508886548857423 30.3067396369185 
11.15                          0.191809201481258 -4.14640001828597 0.67410519766616 -31.3555827700798 0.373155775778387 -146.38094785068 0.607903295367254 173.273217237827 
                               0.674105197666205 -31.3555827700829 0.192052289325602 -4.19399718938686 0.373258113708013 -146.37752742416 0.607763705316872 -6.72870912747023 
                               0.373155775778402 -146.38094785068 0.373258113708001 -146.37752742416 0.849371797676388 -87.3285834424864 2.66507029174129E-05 -157.870877290432 
                               0.607903295367235 173.273217237829 0.607763705316823 -6.72870912747217 2.66507029224427E-05 -157.87087734771 0.510956727999792 27.7818232848488 
11.175                         0.192054132810058 -6.52286726548657 0.675991179119229 -33.9378261682371 0.371033758533856 -149.26567332499 0.607029798850655 170.699547781412 
                               0.675991179119246 -33.937826168238 0.192296508062474 -6.57568505959931 0.37113964310948 -149.257910753164 0.606888322690969 -9.30236545279095 
                               0.371033758533864 -149.26567332499 0.371139643109478 -149.257910753164 0.85122796301787 -90.5470081749651 3.44640596304011E-05 -179.352648187547 
                               0.607029798850648 170.699547781412 0.606888322690951 -9.30236545279146 3.44640596342239E-05 -179.352648201104 0.513031533231185 25.2576778085201 
11.2                           0.192297563979411 -8.89558354845975 0.677872466210198 -36.5187200297341 0.368908002106234 -152.152781811358 0.6061496098618  168.126753971923 
                               0.677872466210181 -36.5187200297324 0.192539390745113 -8.9537391884355 0.369017576547191 -152.140471865676 0.606006127358703 -11.8751420093044 
                               0.368908002106234 -152.152781811358 0.3690175765472  -152.140471865676 0.853072810057112 -93.7717220725008 4.47302252177388E-05 166.405411800784 
                               0.606149609861809 168.126753971921 0.606006127358722 -11.8751420093031 4.47302252079793E-05 166.405411813913 0.515110918040525 22.7342805455023 
11.225                         0.192540260097775 -11.2644187257087 0.679749176974819 -39.0983018481222 0.366777898672859 -155.042568225401 0.605262697966657 165.554761761348 
                               0.67974917697476 -39.0983018481172 0.192781695316025 -11.3280317461429 0.36689131211854 -155.025495272024 0.605117088199354 -14.4471122130892 
                               0.366777898672848 -155.0425682254  0.366891312118562 -155.025495272025 0.854906877553138 -97.0033176107852 5.63678470369296E-05 156.322997828008 
                               0.605262697966684 165.554761761345 0.605117088199418 -14.4471122130858 5.6367847005847E-05 156.32299785662  0.517194829712623 20.2116095038596 
11.25                          0.192783024683728 -13.6292461386202 0.681621441384289 -41.6766111071011 0.364642779200069 -157.935337505608 0.604369034887105 162.983495711283 
                               0.681621441384183 -41.6766111070925 0.193024216988461 -13.6984383033265 0.364760187173596 -157.913274863889 0.604221176480362 -17.0183508464462 
                               0.364642779200047 -157.935337505607 0.364760187173633 -157.913274863891 0.856730732856808 -100.242405722963 6.89034397128137E-05 148.564133158128 
                               0.604369034887153 162.983495711277 0.604221176480476 -17.0183508464405 6.89034396551972E-05 148.564133196431 0.519283208863463 17.6896434014154 
11.275                         0.193026699720878 -15.9899428302361 0.683489401412578 -44.2536893535018 0.362501912170644 -160.831404771829 0.603468594656712 160.412878948372 
                               0.68348940141242 -44.2536893534892 0.193267788264278 -16.0648380399035 0.362623477084504 -160.804114034317 0.603318366022004 -19.5889341023099 
                               0.36250191217061 -160.831404771827 0.362623477084557 -160.804114034319 0.858544969137917 -103.489616058033 8.21256705403184E-05 142.173962457749 
                               0.603468594656782 160.412878948364 0.603318366022171 -19.5889341023017 8.21256704527676E-05 142.173962502505 0.521375988944785 15.168361707623  
11.3                           0.193272165657362 -18.3463897667223 0.68535321114713 -46.8295802666666 0.36035450240777 -163.731095465877 0.602561353782249 157.842833125254 
                               0.685353211146919 -46.8295802666501 0.193513278896554 -18.4271139570248 0.360480394113863 -163.698325778399 0.602408633367573 -22.158939623179 
                               0.360354502407723 -163.731095465875 0.360480394113932 -163.698325778402 0.860350202154424 -106.745597195091 9.59357702087484E-05 136.641153529655 
                               0.602561353782342 157.842833125243 0.602408633367793 -22.1589396231683 9.59357700897203E-05 136.641153578692 0.523473095717015 12.6477446881339 
11.325                         0.193520341350827 -20.6984720599083 0.687213036944938 -49.404329724081 0.358199690015219 -166.634745471322 0.601647291411117 155.273278387592 
                               0.687213036944677 -49.4043297240607 0.193761595797556 -20.7851530904336 0.358330086401579 -166.596232771709 0.601491957959215 -24.7284465339762 
                               0.358199690015159 -166.634745471319 0.358330086401663 -166.596232771713 0.862147066512692 -110.011016803772 0.000110287456486807 131.675313028725 
                               0.601647291411232 155.273278387578 0.601491957959486 -24.7284465339632 0.00011028745633701 131.675313080248 0.525574446689755 10.1277734521492 
11.35                          0.193772183960878 -23.046079189261 0.689069057635665 -51.9779858630967 0.356036549455815 -169.542701209333 0.600726389504891 152.704133347803 
                               0.68906905763536 -51.977985863073 0.194013682893677 -23.1388467237265 0.356171637092006 -169.498167423459 0.600568322319611 -27.2975354682319 
                               0.356036549455745 -169.54270120933 0.356171637092102 -169.498167423464 0.863936211363904 -113.286561740216 0.000125161299151887 127.101655967859 
                               0.600726389505024 152.704133347787 0.600568322319924 -27.297535468217 0.000125161298974875 127.101656020094 0.527679950529124 7.60843000264303 
11.375                         0.194028688792053 -25.3891052216943 0.690921464773242 -54.5505991385826 0.353864088792867 -172.455319707312 0.599798633019201 150.135315066096 
                               0.690921464772905 -54.5505991385567 0.19427052093003 -25.4880906000079 0.354004063625684 -172.40447190117 0.59963771223969 -29.8662885869826 
                               0.353864088792789 -172.455319707308 0.354004063625788 -172.404471901175 0.865718295478159 -116.572938066732 0.000140552873055253 122.809452895231 
                               0.599798633019346 150.135315066079 0.599637712240034 -29.8662885869663 0.000140552872858162 122.809452946232 0.529789506431404 5.08969728953707 
11.4                           0.19429088909144 -27.7274490276788 0.69277046293705 -57.1222223763282 0.351681249122016 -175.37296863687 0.598864010090166 147.566739039442 
                               0.692770462936698 -57.1222223763014 0.194533127228335 -27.8327851304954 0.351826317222633 -175.315498123543 0.598700116972584 -32.4347895897597 
                               0.351681249121936 -175.372968636866 0.35182631722274 -175.315498123548 0.867493981634081 -119.870870982116 0.000156466866664102 118.725400412461 
                               0.598864010090316 147.566739039424 0.598700116972938 -32.434789589743 0.000156466866458527 118.725400459972 0.531903003462579 2.57155926590896 
11.425                         0.194559855806044 -30.0610144922222 0.694616270083503 -59.6929108220162 0.349486904223919 -178.296026317584 0.597922512227631 144.998319199107 
                               0.694616270083166 -59.6929108219908 0.194802555402696 -30.1728355987241 0.349637282586992 -178.231607718079 0.597755529434022 -35.0031237170462 
                               0.349486904223843 -178.29602631758 0.349637282587092 -178.231607718084 0.869263930258367 -123.181104648274 0.000172913965270365 114.799101868071 
                               0.597922512227773 144.99831919909  0.597755529434359 -35.0031237170304 0.000172913965073372 114.799101909422 0.53402031986354 0.0540009473055531 
11.45                          0.194836697305916 -32.3897107194173 0.696459117948558 -62.262722185573 0.3472798604713  178.775118317158 0.596974134515414 142.429967917376 
                               0.696459117948271 -62.2627221855519 0.195079895038736 -32.5081523591232 0.347435777865736 178.846828060081 0.596803946409393 -37.5713777435682 
                               0.347279860471235 178.775118317162 0.347435777865819 178.846828060076 0.871028792246449 -126.504401897388 0.000189909117024685 110.994752006938 
                               0.596974134515533 142.429967917362 0.596803946409677 -37.5713777435552 0.000189909116859965 110.99475203895  0.536141322320908 -2.46299152576753 
11.475                         0.195122559079924 -34.713452229416 0.698299252501316 -64.8317166806932 0.345058857027204 175.840065796016 0.596018875818837 139.861596024117 
                               0.698299252501129 -64.8317166806803 0.195366271342346 -34.8386510288874 0.345220554897331 175.919428451703 0.595845368767676 -40.1396399617881 
                               0.345058857027163 175.840065796019 0.345220554897383 175.9194284517   0.872789200892742 -129.841543802412 0.000207470529158568 107.286163208302 
                               0.596018875818911 139.861596024108 0.595845368767858 -40.1396399617801 0.000207470529057739 107.286163227197 0.538265865203612 -4.97943082211657 
11.5                           0.195418623411754 -37.0321591468725 0.700136934448629 -67.3999570593281 0.342822566374692 172.898406231116 0.595056738999751 137.293112833804 
                               0.700136934448604 -67.3999570593284 0.195662844765   -37.1642526722374 0.34299029978935 172.985803363046 0.594879801682456 -42.7080001549665 
                               0.342822566374689 172.898406231117 0.342990299789354 172.985803363045 0.874545762856763 -133.193329092084 0.000225619068899045 103.653674842023 
                               0.595056738999754 137.293112833804 0.594879801682478 -42.7080001549665 0.000225619068903119 103.653674843323 0.540393789765615 -7.49532835083458 
