! Generated from PyAEDT SolutionData; AEDT ExportNetworkData workaround
# GHz S MA R 50
9 0.243582852351 137.655815394 0.505062386728 176.961231856 0.49758115666 -86.9302159574 0.66180992142 44.9248315541 0.505062386728 176.961231856 0.243610404797 137.55177939 0.497723459312 -86.9111047766 0.661692764232 -135.088114753 0.49758115666 -86.9302159574 0.497723459312 -86.9111047766 0.710411329708 -158.243296742 0.000305302419983 -75.6530642344 0.66180992142 44.9248315541 0.661692764232 -135.088114753 0.000305302419982 -75.6530642345 0.35237795116 -113.125580652
9.025 0.240618344082 134.5514497 0.504236123425 174.144105432 0.500406858291 -91.3976553389 0.66139374567 42.0166085465 0.504236123425 174.144105432 0.240670941633 134.449871508 0.500555294905 -91.378445958 0.661262272351 -137.996307551 0.500406858291 -91.3976553389 0.500555294905 -91.378445958 0.70642887176 -164.36744916 0.000302274744571 -81.024383959 0.66139374567 42.0166085465 0.661262272351 -137.996307551 0.000302274744587 -81.0243839471 0.353963927792 -115.829809985
9.05 0.237648372164 131.449352816 0.503398876024 171.336754548 0.503215980818 -95.8619275311 0.660973873281 39.1162988315 0.503398876024 171.336754548 0.237725672252 131.350475282 0.503370745182 -95.8426290716 0.6608282161 -140.896554058 0.503215980819 -95.8619275311 0.503370745182 -95.8426290716 0.702422341969 -170.495301096 0.000299100565045 -86.3837627241 0.660973873281 39.1162988315 0.6608282161 -140.896554058 0.000299100565068 -86.3837627082 0.355555282741 -118.529711756
9.075 0.234672985511 128.349077951 0.502550657148 168.539013559 0.506008609997 -100.323025147 0.660550288459 36.2237518165 0.502550657148 168.539013559 0.234774603557 128.253149093 0.506169893742 -100.303647392 0.6603905902 -143.789005329 0.506008609997 -100.323025147 0.506169893742 -100.303647392 0.698392623023 -176.626686765 0.000295779882409 -91.7302448202 0.660550288459 36.2237518165 0.6603905902 -143.789005329 0.000295779882431 -91.7302448054 0.357151973945 -121.225361957
9.1 0.231692172792 125.250149961 0.501691378082 165.750721025 0.508784964946 -104.780948645 0.660122973112 33.3388206598 0.501691378082 165.750721025 0.231817681989 125.157422996 0.508952957252 -104.761502024 0.659949386736 -146.673808729 0.508784964946 -104.780948645 0.508952957252 -104.761502024 0.694340103279 177.238539749 0.000292312771155 -97.0628101067 0.660122973112 33.3388206598 0.659949386736 -146.673808729 0.000292312771173 -97.0628100957 0.358753962795 -123.916835255
9.125 0.228705854995 122.152063806 0.500820844062 162.97172072 0.511545397505 -109.235707548 0.659691907302 30.461362124 0.500820844062 162.97172072 0.228854786085 122.062797186 0.511720284806 -109.216203118 0.659504595576 -149.55110807 0.511545397505 -109.235707548 0.511720284806 -109.216203118 0.690264726208 171.100501786 0.000288699395388 -102.380364455 0.659691907302 30.461362124 0.659504595576 -149.55110807 0.000288699395399 -102.380364449 0.360361213961 -126.604205033
9.15 0.225713878495 119.054283097 0.499938750822 160.201862754 0.514290390312 -113.687321645 0.659257069613 27.5912364361 0.499938750822 160.201862754 0.22588571954 118.968740546 0.514472356021 -113.667771076 0.659056204727 -152.421043741 0.514290390312 -113.687321645 0.514472356021 -113.667771076 0.686166033538 164.959296985 0.000284940023668 -107.681729213 0.659257069613 27.5912364361 0.659056204727 -152.421043741 0.00028494002367 -107.681729212 0.361973695203 -129.287543434
9.175 0.222716008693 115.956238707 0.499044682383 157.441004792 0.51702055366 -118.135822173 0.65881843744 24.7283071544 0.499044682383 157.441004792 0.222910204818 115.874689273 0.517209777888 -118.116237724 0.658604200611 -155.283752841 0.51702055366 -118.135822173 0.517209777888 -118.116237724 0.682043202486 158.814993807 0.000281035042803 -112.965629428 0.65881843744 24.7283071544 0.658604200611 -155.283752841 0.000281035042799 -112.965629431 0.363591377207 -131.966921401
9.2 0.219711924252 112.857327424 0.498138110073 154.68901334 0.51973662112 -122.581252965 0.658375987222 21.8724410437 0.498138110073 154.68901334 0.219927877369 112.780045541 0.519933280417 -122.561647466 0.658148568289 -158.139369295 0.51973662112 -122.581252965 0.519933280417 -122.561647466 0.677895077533 152.667627767 0.000276984970917 -118.230680518 0.658375987222 21.8724410437 0.658148568289 -158.139369295 0.000276984970908 -118.230680524 0.365214233405 -134.642408713
9.225 0.21670121199 109.756910613 0.497218392739 151.945765101 0.522439443996 -127.023671555 0.657929694611 19.0235079556 0.497218392739 151.945765101 0.21693828048 109.684176176 0.522643711096 -127.004058382 0.657689291636 -160.98802397 0.522439443996 -127.023671555 0.522643711096 -127.004058382 0.673720197332 146.517197431 0.000272790470237 -123.475373041 0.657929694611 19.0235079556 0.657689291636 -160.98802397 0.000272790470226 -123.475373049 0.366842239809 -137.314074025
9.25 0.213683362434 106.654312853 0.496284778133 149.211148382 0.525129984635 -131.463150245 0.657479534614 16.1813807158 0.496284778133 149.211148382 0.213940860793 106.586411318 0.525342028207 -131.4435433 0.657226353481 -163.829844789 0.525129984635 -131.463150245 0.525342028207 -131.4435433 0.669516817359 140.363660217 0.000268452360195 -128.698055159 0.657479534614 16.1813807158 0.657226353481 -163.829844789 0.000268452360185 -128.698055167 0.368475374847 -139.981984908
9.275 0.210657766059 103.548820524 0.495336405421 146.485064541 0.527809308626 -135.899777109 0.657025481694 13.3459350179 0.495336405421 146.485064541 0.210934964499 103.486043026 0.528029293036 -135.880190792 0.656759735708 -166.664956828 0.527809308626 -135.899777109 0.528029293036 -135.880190792 0.665282929005 134.206928056 0.000263971631527 -133.896912316 0.657025481694 13.3459350179 0.656759735708 -166.664956828 0.000263971631522 -133.896912323 0.370113619203 -142.646207879
9.3 0.207623710206 100.439680297 0.494372308788 143.76742948 0.530478575942 -140.333656948 0.656567509842 10.5170493213 0.494372308788 143.76742948 0.207919834215 100.382323795 0.53070666103 -140.314106136 0.656289419332 -169.493482423 0.530478575942 -140.333656948 0.53070666103 -140.314106136 0.661016275777 128.046862929 0.000259349462245 -139.069943582 0.656567509843 10.5170493213 0.656289419332 -169.493482423 0.000259349462246 -139.069943588 0.371756955659 -145.306808441
9.325 0.2045803767 97.326097494 0.493391422119 141.058175159 0.533139031067 -144.764912181 0.656105592639 7.69460475623 0.493391422119 141.058175159 0.204894606541 97.2744649449 0.533375371918 -144.745412197 0.655815384563 -172.315541262 0.533139031067 -144.764912181 0.533375371918 -144.745412197 0.656714367323 121.883272318 0.000254587236456 -144.214934014 0.656105592639 7.69460475623 0.655815384563 -172.315541262 0.000254587236465 -144.214934018 0.373405368943 -147.963851115
9.35 0.201526840135 94.2072342667 0.49239258472 138.357251146 0.535791992131 -149.193683665 0.655639703292 4.87848503162 0.49239258472 138.357251146 0.201858310316 94.1616348364 0.536036738867 -149.174250255 0.655337610838 -175.131250476 0.535791992132 -149.193683665 0.536036738867 -149.174250255 0.652374491959 115.715904586 0.000249686567222 -149.329422244 0.655639703292 4.87848503161 0.655337610838 -175.131250476 0.00024968656724 -149.329422246 0.375058845586 -150.617399472
9.375 0.198462066852 91.0822075493 0.491374548075 135.664626189 0.538438839121 -153.620131459 0.65516981467 2.06857634894 0.491374548075 135.664626189 0.198809865529 91.0429568583 0.538692136685 -153.600780763 0.654856076856 -177.940724723 0.538438839121 -153.620131459 0.538692136685 -153.600780763 0.647993728359 109.544444299 0.000244649324851 -154.410662405 0.65516981467 2.06857634894 0.654856076856 -177.940724723 0.000244649324878 -154.410662405 0.376717373771 -153.267516166
9.4 0.195384914575 87.9500867293 0.490335983622 132.980289821 0.541081001166 -158.044435504 0.654695899329 -0.735232680578 0.490335983622 132.980289821 0.195748082919 87.9175071428 0.541342989127 -158.025184026 0.654370760589 179.255923723 0.541081001166 -158.044435504 0.541342989127 -158.025184026 0.643568957036 103.368507495 0.000239477672236 -159.455579275 0.654695899329 -0.735232680579 0.654370760589 179.255923723 0.00023947767227 -159.455579273 0.378380943203 -155.914262959
9.425 0.192294132714 84.8098909744 0.489275491577 130.304253983 0.543719942973 -162.466796241 0.654217929534 -3.53305111489 0.489275491577 130.304253983 0.192671664227 84.7843119396 0.543990755318 -162.447660822 0.6538816393 176.458584897 0.543719942973 -162.466796241 0.543990755318 -162.447660822 0.639096872222 97.1876368954 0.000234174109215 -164.46071534 0.654217929534 -3.53305111489 0.6538816393 176.458584897 0.000234174109255 -164.460715337 0.380049544972 -158.557700756
9.45 0.189188363335 81.660586148 0.488191610793 127.636554677 0.546357150388 -166.887435149 0.653735877285 -6.32498575656 0.488191610793 127.636554677 0.189579203124 81.6423445845 0.54663691533 -166.868432935 0.653388689543 173.667151066 0.546357150388 -166.887435149 0.54663691533 -166.868432935 0.634573994689 91.0012970545 0.000228741528278 -169.422168205 0.653735877285 -6.32498575656 0.653388689543 173.667151066 0.000228741528321 -169.422168202 0.381723171421 -161.197889631
9.475 0.186066142784 78.5010812318 0.487082829725 124.977253655 0.548994115147 -171.306595209 0.653249714336 -9.11114122519 0.487082829725 124.977253655 0.186469186792 78.4905219803 0.549282954924 -171.287743623 0.652891887166 170.881516656 0.548994115147 -171.306595209 0.549282954924 -171.287743623 0.62999668605 84.8088694347 0.000223183284455 -174.335516471 0.653249714336 -9.11114122519 0.652891887166 170.881516656 0.000223183284499 -174.335516467 0.383401816029 -163.83488885
9.5 0.182925903989 75.3302241674 0.48594759851 122.326440129 0.551632318799 -175.724541295 0.652759412227 -11.891620027 0.48594759851 122.326440129 0.183339998191 75.3277005037 0.551930349477 -175.705858005 0.652391207315 168.10157818 0.551632318799 -175.724541295 0.551930349477 -175.705858005 0.625361165016 78.6096473822 0.000217503282856 -179.195731824 0.652759412227 -11.891620027 0.652391207315 168.10157818 0.000217503282898 -179.195731821 0.385085473287 -166.4687569
9.525 0.179765979444 72.1467970103 0.484784342263 119.684232523 0.55427321582 179.858439516 0.652264942308 -14.6665226219 0.484784342263 119.684232523 0.180189919007 72.1526712302 0.554580547092 179.876936633 0.651886624426 165.327234172 0.55427321582 179.858439516 0.554580547091 179.876936633 0.620663526069 72.402830984 0.000211706088123 176.002925318 0.652264942308 -14.6665226219 0.651886624426 165.327234172 0.00021170608816 176.002925321 0.386774138585 -169.099551509
9.55 0.176584604917 68.9495102733 0.483591475634 117.050780257 0.556918215909 175.442037714 0.651766275777 -17.4359474885 0.483591475634 117.050780257 0.177017133326 68.9641543567 0.557234950889 175.460330597 0.651378112223 162.558385122 0.556918215909 175.442037714 0.557234950889 175.460330597 0.615899761005 66.1875217769 0.000205797061112 171.267029763 0.651766275777 -17.4359474885 0.651378112223 162.558385122 0.000205797061143 171.267029765 0.3884678081 -171.727329676
9.575 0.173379923906 65.7369963149 0.482367418756 114.426265566 0.559568665468 171.0259212 0.651263383716 -20.1999911867 0.482367418756 114.426265566 0.173819732064 65.7607926759 0.559894900479 171.043991642 0.650865643718 159.794933411 0.559568665468 171.0259212 0.559894900479 171.043991642 0.61106578376 59.9627172744 0.000199782529446 166.604138729 0.651263383716 -20.1999911867 0.650865643718 159.794933411 0.000199782529468 166.60413873 0.390166478697 -174.352147684
9.6 0.170149992907 62.5078016005 0.48111061467 111.810905356 0.56222582823 166.609735217 0.650756237136 -22.9587484187 0.48111061467 111.810905356 0.170595718209 62.5411439329 0.562561652585 166.627564897 0.6503491912 157.036783253 0.56222582823 166.609735217 0.562561652584 166.627564897 0.606157458953 53.7273052791 0.000193670000253 162.022966392 0.650756237136 -22.9587484187 0.6503491912 157.036783253 0.000193670000264 162.022966391 0.391870147823 -176.974061126
9.625 0.166892787569 59.2603776299 0.479819548384 109.204953098 0.56489086503 162.193102363 0.650244807016 -25.7123120886 0.479819548384 109.204953098 0.167343012953 59.3036718561 0.565236360796 162.210672881 0.649828726234 154.283840636 0.56489086503 162.193102363 0.565236360796 162.210672881 0.601170634591 47.4800579405 0.000187468425588 157.533590262 0.650244807016 -25.7123120886 0.649828726234 154.283840636 0.000187468425588 157.533590261 0.39357881341 -179.593124927
9.65 0.163606209831 55.9930702852 0.478492767702 106.608700746 0.567564812678 157.775622692 0.649729064362 -28.4607733605 0.478492767702 106.608700746 0.164059462801 56.0467356184 0.567920054438 157.792915602 0.649304219652 151.536013263 0.567564812678 157.775622692 0.567920054438 157.792915602 0.596101179398 41.2196255206 0.000181188533709 153.147693896 0.649729064362 -28.4607733605 0.649304219652 151.536013263 0.000181188533698 153.147693894 0.395292473792 177.790606643
9.675 0.160288096149 52.7041072968 0.477128906001 104.022480684 0.570248561902 153.3568739 0.649208980251 -31.2042217147 0.477128906001 104.022480684 0.160742847792 52.7685774263 0.570613616494 153.373870746 0.648775641547 148.793210499 0.570248561902 153.3568739 0.570613616494 153.373870746 0.590945025262 34.9445298288 0.000174843242698 148.878849834 0.649208980251 -31.2042217147 0.648775641547 148.793210499 0.000174843242677 148.878849831 0.397011127607 175.177079949
9.7 0.156936226998 49.3915834653 0.475726707147 101.44666768 0.572942834331 148.936411616 0.64868452589 -33.9427450036 0.475726707147 101.44666768 0.157390890959 49.4673078741 0.573317760569 148.953093967 0.648242961267 146.055343319 0.572942834331 148.936411616 0.573317760569 148.953093967 0.585698215377 28.6531572866 0.000168448176888 144.742844796 0.64868452589 -33.9427450036 0.648242961267 146.055343319 0.00016844817686 144.742844792 0.398734773722 172.566241972
9.725 0.153548337798 46.0534431889 0.474285052737 98.881680841 0.575648158455 144.513769779 0.648155672667 -36.6764295063 0.474285052737 98.881680841 0.154001269242 46.1408886126 0.576033006836 144.530119265 0.647706147399 143.322324256 0.575648158455 144.513769779 0.576033006836 144.530119265 0.58035695867 22.3437515887 0.00016202231103 140.758045027 0.648155672667 -36.6764295063 0.647706147399 143.322324256 0.000162022310995 140.758045024 0.400463411152 169.958040293
9.75 0.150122131534 42.6874597463 0.472802991918 96.3279855437 0.578364844553 140.088461134 0.647622392213 -39.4053599819 0.472802991918 96.3279855437 0.150571626072 42.7871117817 0.57875965694 140.10445948 0.647165167767 140.594067353 0.578364844553 140.088461134 0.57875965694 140.10445948 0.574917691242 16.0144059309 0.000155588771741 136.945791688 0.647622392213 -39.4053599819 0.647165167767 140.594067353 0.000155588771702 136.945791686 0.402197038984 167.352423083
9.775 0.14665529335 39.2912106501 0.471279773987 93.7860953102 0.581092958524 135.65997783 0.647084656452 -42.1296197227 0.471279773987 93.7860953102 0.147099585924 39.403575519 0.581497767804 135.675606899 0.646619989418 137.870488113 0.581092958524 135.65997783 0.581497767804 135.675606899 0.569377145599 9.6630547827 0.000149175829501 133.330801556 0.647084656452 -42.1296197227 0.646619989418 137.870488113 0.000149175829461 133.330801555 0.403935656308 164.74933908
9.8 0.143145507472 35.8620482195 0.469714884032 91.2565735976 0.58383229461 131.227792152 0.646542437661 -44.8492906059 0.469714884032 91.2565735976 0.143582771188 35.987654688 0.584247124324 131.243033973 0.646070578606 135.151503455 0.58383229461 131.227792152 0.584247124324 131.243033973 0.563732428566 3.28746519514 0.000142818115162 129.941523111 0.646542437661 -44.849290606 0.646070578606 135.151503455 0.000142818115124 129.94152311 0.405679262147 162.148737583
9.825 0.139590476923 32.397064302 0.468108081855 88.7400354508 0.586582346965 126.791357371 0.645995708519 -47.5644531455 0.468108081855 88.7400354508 0.140018821811 32.5364657499 0.587007210918 126.806194185 0.645516900788 132.437031671 0.586582346965 126.791357371 0.587007210918 126.806194185 0.557981108911 -3.11477234688 0.000136558088625 126.810356454 0.645995708519 -47.5644531455 0.645516900788 132.437031671 0.00013655808859 126.810356455 0.407427855399 159.550568435
9.85 0.135987946579 28.8930477973 0.466459444426 86.2371489628 0.589342280092 122.350108752 0.645444442157 -50.2751865425 0.466459444426 86.2371489628 0.136405418256 29.0468244208 0.589777181919 122.364523043 0.644958920603 129.726992382 0.589342280092 122.350108752 0.589777181919 122.364523043 0.552121315785 -9.54625349837 0.00013044776668 123.973580286 0.645444442157 -50.2751865425 0.644958920603 129.726992382 0.000130447766652 123.973580288 0.409181434771 156.95478201
9.875 0.13233573027 25.3464332736 0.464769412102 83.748636468 0.592110898118 117.903464705 0.64488861221 -52.9815687358 0.464769412102 83.748636468 0.132740308479 25.5151943865 0.592555830833 117.91743924 0.644396601869 127.0213065 0.592110898118 117.903464705 0.592555830833 117.91743924 0.546151849253 -16.00976999 0.000124550669923 121.470733739 0.64488861221 -52.9815687358 0.644396601869 127.0213065 0.000124550669902 121.470733741 0.410939998724 154.361329204
9.9 0.128631742804 21.7532384956 0.463038838817 81.2752753818 0.594886612975 113.450828113 0.644328192851 -55.6836764517 0.463038838817 81.2752753818 0.129021339787 21.9376248695 0.595341558472 113.464345982 0.643829907566 124.319896185 0.594886612975 113.450828113 0.595341558472 113.464345982 0.540072304272 -22.5083198206 0.000118943857079 119.343075937 0.644328192851 -55.6836764517 0.643829907566 124.319896185 0.000118943857067 119.343075939 0.412703545423 151.770161423
9.925 0.124874038033 18.1089880649 0.461269046438 78.8178985791 0.597667411516 108.991587847 0.643763158837 -58.3815852535 0.461269046438 78.8178985791 0.125246496686 18.3096742057 0.598132340044 109.004632499 0.643258799834 121.622684814 0.597667411516 108.991587847 0.598132340044 109.004632499 0.533883209607 -29.0451175439 0.000113719756759 117.630614486 0.643763158837 -58.3815852535 0.643258799834 121.622684814 0.000113719756756 117.630614486 0.414472072682 149.181230571
9.95 0.121060854391 14.4086195574 0.45946188339 76.3773941835 0.600450821682 104.525120477 0.643193485533 -61.0753695904 0.45946188339 76.3773941835 0.121413946146 14.6263157582 0.600925691278 104.537675756 0.642683239965 118.92959694 0.600450821682 104.525120477 0.600925691278 104.537675756 0.527586183258 -35.6236044127 0.000108987265062 116.367127947 0.643193485533 -61.0753695904 0.642683239965 118.92959694 0.000108987265066 116.367127945 0.416245577917 146.594489041
9.975 0.117190669756 10.6463674614 0.457619787625 73.9547046163 0.603233877845 100.050792207 0.64261914894 -63.7651028467 0.457619787625 73.9547046163 0.11752209211 10.8818213758 0.603718633734 100.062842395 0.642103188407 116.240558263 0.603233877845 100.050792207 0.603718633734 100.062842395 0.521184106018 -42.2474580489 0.000104871269621 115.572762018 0.64261914894 -63.7651028467 0.642103188407 116.240558263 0.000104871269632 115.572762013 0.418024058104 144.009889707
10 0.113262268038 6.81561877628 0.455745853861 71.550824728 0.606013085533 95.5679610508 0.642040125712 -66.4508573898 0.455745853861 71.550824728 0.113569641662 7.06961611677 0.606507659483 95.5794909033 0.641518604772 113.555495597 0.606013085533 95.5679610508 0.606507659483 95.5794909033 0.514681314786 -48.9206011802 0.000101509487787 115.244395085 0.642040125712 -66.4508573898 0.641518604772 113.555495597 0.000101509487802 115.244395077 0.419807509732 141.42738591
10.025 0.10927482069 2.90873219736 0.453843904922 69.1667988071 0.608784385757 91.075979263 0.64145639316 -69.132704619 0.453843904922 69.1667988071 0.109555686009 3.18209595035 0.609288695405 91.0869740484 0.64092944785 110.874336837 0.608784385757 91.075979263 0.609288695405 91.0869740484 0.50808381718 -55.6472088295 9.90455102931e-05 115.345250973 0.64145639316 -69.132704619 0.64092944785 110.874336837 9.90455103091e-05 115.345250961 0.421595928767 138.846931459
10.05 0.105227987384 -1.08318978713 0.451918566825 66.8037162331 0.611543119292 86.5741960532 0.640867929249 -71.8107150133 0.451918566825 66.8037162331 0.105479800555 -0.789602568469 0.612057067426 86.5846415907 0.640335675634 108.197010935 0.611543119292 86.5741960532 0.612057067426 86.5846415907 0.501399528779 -62.4317131403 9.76175798406e-05 115.797008523 0.640867929249 -71.8107150132 0.640335675634 108.197010935 9.76175798556e-05 115.797008509 0.42338931061 136.26848061
10.075 0.101122041584 -5.17059007544 0.449975347045 64.4627055087 0.614283991284 82.0619605977 0.640274712587 -74.4849581794 0.449975347045 64.4627055087 0.10134216979 -4.85589534166 0.61480746509 82.0718432956 0.639737245362 105.52344787 0.614283991284 82.0619605977 0.61480746509 82.0718432956 0.494638533996 -69.2788047739 9.73441382771e-05 116.478920893 0.640274712587 -74.4849581794 0.639737245362 105.52344787 9.73441382892e-05 116.478920876 0.425187650063 133.691988071
10.1 0.0969580288472 -9.36582633426 0.448020715141 62.1449263822 0.61700103667 77.5386253722 0.639676722393 -77.1555028997 0.448020715141 62.1449263822 0.097143744897 -9.02912619648 0.617533906952 77.5479322659 0.639134113564 102.853578622 0.61700103667 77.5386253722 0.617533906952 77.5479322659 0.487813370969 -76.1934295068 9.83091807581e-05 117.237526821 0.639676722393 -77.1555028997 0.639134113564 102.853578622 9.83091807659e-05 117.237526803 0.426990941295 131.117408985
10.125 0.0927379686603 -13.6836458932 0.446062184595 59.8515597414 0.619687587006 73.0035498233 0.639073938459 -79.8224171797 0.446062184595 59.8515597414 0.0928864449799 -13.3240513054 0.62022970737 73.0122686133 0.638526236131 100.187335149 0.619687587006 73.0035498233 0.62022970737 73.0122686133 0.480939340031 -83.1807782897 0.000100551750911 117.906514247 0.639073938459 -79.8224171797 0.638526236131 100.187335149 0.000100551750915 117.90651423 0.428799177806 128.544698928
10.15 0.0884651148928 -18.1417999804 0.444108394358 57.5837949485 0.622336239371 68.4561043956 0.638466341086 -82.4857682958 0.444108394358 57.5837949485 0.0885734172417 -17.7584682947 0.622887445389 68.4642234856 0.637913568403 97.5246503635 0.622336239372 68.4561043956 0.622887445389 68.4642234856 0.474034834065 -90.2462685958 0.000104063147287 118.330999903 0.638466341086 -82.4857682957 0.637913568403 97.5246503635 0.000104063147286 118.33099989 0.430612352401 125.973813901
10.175 0.084144296137 -22.7618422958 0.442169188166 55.3428142721 0.624938828165 63.8956749303 0.637853911009 -85.1456228417 0.442169188166 55.3428142721 0.0842093778085 -22.3540380466 0.625498936513 63.9031834642 0.637296065268 94.8654581061 0.624938828165 63.8956749303 0.625498936513 63.9031834642 0.467121687319 -97.3955143902 0.00010879254441 118.387876907 0.637853911009 -85.1456228417 0.637296065268 94.8654581061 0.000108792544407 118.387876897 0.432430457152 123.404710323
10.2 0.0797823661736 -27.5701710265 0.440255689177 53.129774084 0.627486400698 59.3216674445 0.6372366293 -87.8020467759 0.440255689177 53.129774084 0.0798010642706 -27.1373630672 0.628055208293 59.3285553434 0.636673681295 92.2096931274 0.627486400698 59.3216674445 0.628055208293 59.3285553434 0.460225536976 -104.634281517 0.000114658506635 117.996216271 0.6372366293 -87.8020467759 0.636673681295 92.2096931274 0.000114658506631 117.996216264 0.434253483374 120.837345025
10.225 0.0753888078418 -32.5993899294 0.438380366985 50.9457825181 0.629969197641 54.733513297 0.636614477252 -90.4551054675 0.438380366985 50.9457825181 0.0753578447266 -32.1414055997 0.630546480766 54.7397712966 0.63604637088 89.5572910635 0.629969197641 54.733513297 0.630546480766 54.7397712966 0.453376188709 -111.968424751 0.000121562318152 117.116959898 0.636614477252 -90.4551054675 0.63604637088 89.5572910635 0.000121562318149 117.116959895 0.436081421596 118.271675247
10.25 0.0709765523925 -37.8900801847 0.436557093439 48.791873341 0.632376639463 50.1306747418 0.635987436228 -93.1048637415 0.436557093439 48.791873341 0.0708925481687 -37.4073490966 0.632962152909 50.1362944282 0.635414088423 86.908188414 0.632376639463 50.1306747418 0.632962152909 50.1362944282 0.446607973621 -119.403802253 0.000129399667955 115.745327598 0.635987436228 -93.1048637415 0.635414088423 86.908188414 0.000129399667955 115.745327598 0.437914261526 115.707658625
10.275 0.0665631030018 -43.4930816474 0.434801183135 46.6689758837 0.634697320161 45.5126508596 0.635355487504 -95.7513859232 0.434801183135 46.6689758837 0.0664226098757 -42.987020147 0.635290796382 45.5176247053 0.634776788531 84.262322519 0.634697320161 45.5126508596 0.635290796382 45.5176247053 0.43996007917 -126.946162848 0.000138068967072 113.900474498 0.635355487504 -95.7513859232 0.634776788531 84.262322519 0.000138068967076 113.900474501 0.43975199203 113.145253193
10.3 0.0621720871068 -49.4723574454 0.433129413862 44.5778810133 0.636919009631 40.87898385 0.634718612067 -98.3947358811 0.433129413862 44.5778810133 0.0619716654207 -48.9459723548 0.637520157938 40.8833052491 0.634134426239 81.6196315351 0.636919009631 40.87898385 0.637520157938 40.8833052491 0.433476831045 -134.60100144 0.00014747616502 111.61575562 0.634718612067 -98.3947358811 0.634134426239 81.6196315351 0.000147476165027 111.615755624 0.441594601096 110.584417374
10.325 0.057835406192 -55.9084063594 0.431560021765 42.5192033138 0.63902866615 36.2292656563 0.6340767904 -101.034977068 0.431560021765 42.5192033138 0.0575717776805 -55.3672342596 0.639637171964 36.2329289597 0.63348695727 78.9800544102 0.63902866615 36.2292656563 0.639637171964 36.2329289597 0.427207896492 -142.373378384 0.000157536795928 108.931175158 0.6340767904 -101.034977068 0.63348695727 78.9800544102 0.000157536795939 108.931175162 0.443442075809 108.025109975
10.35 0.0535961919334 -62.9018753255 0.430112665589 40.4933398829 0.641012460479 31.5631448832 0.633430002235 -103.672172561 0.430112665589 40.4933398829 0.0532665325256 -62.3554145623 0.641627984643 31.5661454319 0.632834338313 76.3435308555 0.641012460479 31.5631448832 0.641627984643 31.5661454319 0.421208372788 -150.267699767 0.000168176195772 105.888274367 0.633430002235 -103.672172561 0.632834338313 76.3435308555 0.000168176195786 105.888274371 0.445294402317 105.467290181
10.375 0.0495127738969 -70.5762704443 0.428808354178 38.5004264507 0.642855813101 26.8803339496 0.632778226283 -106.306385095 0.428808354178 38.5004264507 0.0491152505521 -70.0400741584 0.643477991292 26.8826681089 0.632176527326 73.7100013157 0.642855813101 26.8803339496 0.643477991292 26.8826681089 0.41553871798 -158.287457844 0.000179328692912 102.527059433 0.632778226283 -106.306385095 0.632176527326 73.7100013157 0.000179328692927 102.527059437 0.447151565799 102.910917552
10.4 0.0456637067143 -79.0770516641 0.427669331447 36.5402918728 0.644543446086 22.1806164089 0.632121439945 -108.937677099 0.427669331447 36.5402918728 0.045198418352 -78.5755283001 0.645171888344 22.1822816006 0.631513483862 71.0794069363 0.644543446086 22.1806164089 0.645171888344 22.1822816006 0.410264475824 -166.434934409 0.000190936332364 98.8843953239 0.632121439945 -108.937677099 0.631513483862 71.0794069363 0.00019093633238 98.8843953271 0.449013550433 100.355952016
10.425 0.0421533447853 -88.5614371461 0.42671891351 34.61241244 0.646059450988 17.4638543484 0.631459618997 -111.566110724 0.42671891351 34.61241244 0.0416238662129 -88.1309011499 0.646693741373 17.4648490825 0.630845169415 68.4516895261 0.646059450988 17.4638543484 0.646693741373 17.4648490825 0.405455744564 -174.71087503 0.000202947475768 94.993349678 0.631459618997 -111.566110724 0.630845169415 68.4516895261 0.000202947475783 94.9933496805 0.450880339355 97.8023538637
10.45 0.0391160544941 -99.1692419864 0.425981273503 32.7158678498 0.647387373991 12.7299957625 0.630792737273 -114.191747865 0.425981273503 32.7158678498 0.0385316955814 -98.8594602206 0.648027070412 12.7303196684 0.630171547777 65.8267915164 0.647387373991 12.7299957625 0.648027070412 12.7303196684 0.401186341741 176.885851366 0.000215315462026 90.8831011827 0.630792737273 -114.191747865 0.630171547777 65.8267915164 0.000215315462038 90.8831011845 0.452751914624 95.2500837454
10.475 0.0367145643812 -110.963885145 0.425481171084 30.8493010802 0.648510319291 7.97908177912 0.630120766331 -116.814650189 0.425481171084 30.8493010802 0.0360930039108 -110.834187173 0.649154953524 7.97873563521 0.629492585407 63.2046559155 0.648510319291 7.97908177912 0.649154953524 7.97873563521 0.397532626819 168.358585319 0.000227997414833 86.5791532294 0.630120766331 -116.814650189 0.629492585407 63.2046559155 0.000227997414842 86.5791532307 0.454628257175 92.6991026639
10.5 0.0351251993738 -123.845648995 0.425243625559 29.0108847328 0.649411071378 3.211253598 0.629443675134 -119.434879139 0.425243625559 29.0108847328 0.034494119189 -123.950634081 0.650060149299 3.21023936061 0.628808251797 60.585226257 0.649411071378 3.211253598 0.650060149299 3.21023936061 0.39457196198 159.713172047 0.000240953227035 82.1036909922 0.629443675134 -119.434879139 0.628808251797 60.585226257 0.000240953227041 82.103690993 0.456509346774 90.1493719702
10.525 0.0345045216211 -137.478377789 0.42529353418 27.1982966349 0.650072236434 -1.57324101313 0.628761429732 -122.052495954 0.42529353418 27.1982966349 0.0338998406344 -137.843935988 0.650725238489 -1.57492018193 0.628118519833 57.9684465437 0.650072236434 -1.57324101313 0.650725238489 -1.57492018193 0.392380819964 150.958182571 0.000254144722709 77.4759869754 0.628761429732 -122.052495954 0.628118519833 57.9684465437 0.000254144722711 77.4759869759 0.458395161966 87.6008533578
10.55 0.0349446082462 -151.310833944 0.425655240229 25.4087075406 0.65047640255 -6.37404183463 0.628073992975 -124.667561666 0.425655240229 25.4087075406 0.0344039700464 -151.915041633 0.6511327845 -6.37638154059 0.627423366143 55.354261184 0.65047640255 -6.37404183463 0.6511327845 -6.37638154059 0.391032585665 142.105021418 0.000267534984678 72.7128029171 0.628073992975 -124.667561666 0.627423366143 55.354261184 0.000267534984676 72.7128029176 0.460285680016 85.0535088575
10.575 0.0364419373204 -164.732583585 0.426352059011 23.6387835964 0.650606317872 -11.1906711028 0.627381324263 -127.280137101 0.426352059011 23.6387835964 0.0359961467027 -165.510560747 0.651265511821 -11.1936656942 0.626722771411 52.7426149237 0.650606317872 -11.1906711028 0.651265511821 -11.1936656942 0.390595141871 133.167884355 0.000281087830626 67.8287619592 0.627381324263 -127.280137101 0.626722771411 52.7426149237 0.000281087830621 67.8287619597 0.462180876851 82.5073008318
10.6 0.038902929559 -177.273157359 0.427405773492 21.8847058005 0.650445085079 -16.0225293952 0.626683379336 -129.89028287 0.427405773492 21.8847058005 0.0385706441157 -178.144009994 0.651106500813 -16.0261719389 0.626016720659 50.1334527701 0.650445085079 -16.0225293952 0.651106500813 -16.0261719389 0.391128373085 124.163539734 0.00029476742062 62.8366801056 0.626683379336 -129.89028287 0.626016720659 50.1334527701 0.000294767420613 62.8366801061 0.464080726981 79.9621919693
10.625 0.0421806428742 171.297226944 0.428836114886 20.1422079644 0.649976369882 -20.86889268 0.625980110141 -132.498059359 0.428836114886 20.1422079644 0.0419686130782 170.403791797 0.650639396527 -20.8731749393 0.625305203476 47.5267199117 0.649976369882 -20.86889268 0.650639396527 -20.8731749393 0.392681756132 115.110924576 0.000308537980294 57.7478543349 0.625980110141 -132.498059359 0.625305203476 47.5267199117 0.000308537980288 57.7478543353 0.465985203432 77.4181452786
10.65 0.0461158960496 160.997337267 0.43066024651 18.4066337011 0.649184620426 -25.7289107102 0.625271464759 -135.103526711 0.43066024651 18.4066337011 0.046022545552 160.129561326 0.649848628436 -25.7338231235 0.624588214184 44.9223616306 0.649184620426 -25.7289107102 0.649848628436 -25.7338231235 0.395292223501 106.030569742 0.000322363625896 52.5723090431 0.625271464759 -135.103526711 0.624588214184 44.9223616306 0.000322363625891 52.5723090436 0.467894277652 74.8751240823
10.675 0.0505636954485 151.722426082 0.432892271473 16.6730117723 0.648055293749 -30.6016069292 0.624557387428 -137.706744807 0.432892271473 16.6730117723 0.0505829720859 150.907773162 0.648719637231 -30.6071385912 0.623865751932 42.3203232116 0.648055293749 -30.6016069292 0.648719637231 -30.6071385912 0.398982477909 96.9438931556 0.000336208279181 47.3190044794 0.624557387428 -137.706744807 0.623865751932 42.3203232116 0.000336208279177 47.3190044797 0.469807919416 72.3330920107
10.7 0.0554032275635 143.32113417 0.435542785775 14.9361478242 0.64657508471 -35.4858800346 0.623837818657 -140.307773243 0.435542785775 14.9361478242 0.0555272935986 142.572297736 0.647239104078 -35.4920186787 0.623137820707 39.7205498463 0.64657508471 -35.4858800346 0.647239104078 -35.4920186787 0.403759902416 87.8724209368 0.000350035661543 41.9960115291 0.623837818657 -140.307773243 0.623137820707 39.7205498463 0.000350035661542 41.9960115292 0.471726096723 69.7920129955
10.725 0.0605378714774 135.640583852 0.438618498011 13.1907292592 0.644732152186 -40.3805073166 0.623112695449 -142.906671312 0.438618498011 13.1907292592 0.0607585794017 134.961277034 0.645395177127 -40.3872392991 0.622404429245 37.1229865347 0.644732152186 -40.3805073166 0.645395177127 -40.3872392991 0.409616153382 78.8370081435 0.000363809357683 36.6106572251 0.623112695449 -142.906671312 0.622404429245 37.1229865347 0.000363809357685 36.6106572249 0.473648775675 67.2518512627
10.75 0.0658912558838 128.545926291 0.442121934929 11.4314388721 0.642516336825 -45.2841498497 0.622381951627 -145.503497978 0.442121934929 11.4314388721 0.0662008094748 127.934975413 0.643177689562 -45.2914601361 0.621665590848 34.5275779858 0.642516336825 -45.2841498497 0.643177689562 -45.2914601361 0.416527453606 69.8571306328 0.000377492939585 31.16964506 0.622381951627 -145.503497978 0.621665590848 34.5275779858 0.000377492939588 31.1696450594 0.47557592035 64.7125713258
10.775 0.0714026585294 121.92556787 0.446051248603 9.65307206589 0.639919364397 -50.1953595737 0.621645518271 -148.098311862 0.446051248604 9.65307206589 0.0717938296619 121.379424603 0.640578363216 -50.2032317272 0.620921323097 31.9342685179 0.639919364397 -50.1953595737 0.640578363216 -50.2032317272 0.424455533046 60.9503073421 0.000391050141693 25.679153744 0.621645518271 -148.098311862 0.620921323097 31.9342685179 0.000391050141694 25.679153743 0.477507492651 62.1741379784
10.8 0.0770230308882 115.690011694 0.450400136293 7.85065206075 0.636935028652 -55.112588247 0.620903324267 -150.691171226 0.450400136293 7.85065206075 0.0774891669036 115.204173151 0.637590991652 -55.1210044189 0.620171647462 29.343001962 0.636935028652 -55.112588247 0.637590991652 -55.1210044189 0.433349107125 52.1316912779 0.000404445078057 20.1449175987 0.620903324267 -150.691171226 0.620171647462 29.343001962 0.000404445078052 20.1449175974 0.479443452153 59.6365162867
10.825 0.0827119384206 109.768527521 0.455157878363 6.01953757334 0.63355934783 -60.0341982032 0.620155296956 -153.282133967 0.455157878363 6.01953757334 0.0832468860591 109.338290766 0.63421159685 -60.0431391259 0.619416588811 26.7537215681 0.63355934783 -60.0341982032 0.63421159685 -60.0431391259 0.443145746309 43.4138428453 0.000417642491926 14.5722913533 0.620155296956 -153.282133967 0.619416588811 26.7537215681 0.000417642491913 14.5722913519 0.481383755927 57.0996715815
10.85 0.0884353326209 104.105529909 0.460309493624 4.15551798023 0.629790689407 -64.9584747852 0.619401362878 -155.871257619 0.460309493624 4.15551798023 0.0890333394496 103.726366428 0.63043855408 -64.9679197673 0.618656174839 24.1663699186 0.629790689407 -64.9584747852 0.63043855408 -64.9679197673 0.453773978253 34.8066761965 0.000430608028014 8.96630173324 0.619401362878 -155.871257619 0.618656174839 24.1663699186 0.000430608027987 8.96630173212 0.483328358341 54.5635694505
10.875 0.0941639758943 98.6573645371 0.46583600547 2.25489190883 0.625629858406 -69.883640273 0.618641448597 -158.458599362 0.46583600547 2.25489190883 0.0948195959477 98.3250864914 0.626272680269 -69.8935671974 0.617890435417 21.580888849 0.625629858406 -69.883640273 0.626272680269 -69.8935671974 0.465155472607 26.3175520042 0.000443308517421 3.33168791347 0.618641448597 -158.458599362 0.617890435417 21.5808888489 0.000443308517375 3.33168791299 0.485277210855 52.0281757293
10.9 0.0998723473035 93.3896793876 0.471714806872 0.314526419178 0.621080145582 -74.8078690753 0.617875481596 -161.044216046 0.471714806872 0.314526419171 0.100580360971 93.1004957638 0.621717282192 -74.8182543996 0.617119401897 18.9972193774 0.621080145582 -74.8078690753 0.621717282192 -74.8182543996 0.477207182477 17.9514802847 0.000455712265183 -2.32706736015 0.617875481596 -161.044216046 0.617119401897 18.9972193774 0.000455712265114 -2.3270673595 0.487230261788 49.493456493
10.925 0.105537891659 88.2753534829 0.477920107952 -1.66810469899 0.616147333015 -79.7293039035 0.617103391224 -163.628164227 0.477920107952 -1.668104699 0.106293242224 88.0258704895 0.616778161989 -79.7401226639 0.616343106384 16.4153016456 0.616147333015 -79.7293039035 0.616778161989 -79.7401226639 0.489843347917 9.7113943775 0.000467789330634 -8.00571440027 0.617103391224 -163.628164227 0.616343106384 16.4153016456 0.000467789330538 -8.00571439798 0.489187456061 46.9593780471
10.95 0.111140509557 83.2928926183 0.484423446836 -3.69490363329 0.610839655991 -84.6460726153 0.616325109671 -166.21050021 0.484423446836 -3.6949036333 0.11193825556 83.0800878342 0.611463578918 -84.657298433 0.615561581015 13.8350748703 0.610839655991 -84.6460726153 0.611463578918 -84.6572984329 0.502977299243 1.5984602721 0.000479511791219 -13.7002195646 0.616325109671 -166.21050021 0.615561581015 13.8350748703 0.000479511791095 -13.7002195601 0.491148734926 44.4259069175
10.975 0.116662214369 78.4251946826 0.491194242834 -5.76715115799 0.605167721518 -89.5563053872 0.615540572962 -168.791280115 0.491194242834 -5.76715115801 0.117497495806 78.2463806284 0.605784167667 -89.5679104782 0.614774857269 11.2564773055 0.605167721518 -89.5563053872 0.605784167667 -89.5679104782 0.516523026669 -6.38760802393 0.000490853981228 -19.4067533646 0.615540572962 -168.791280115 0.614774857269 11.2564773055 0.000490853981076 -19.4067533577 0.493114035666 41.8930098412
11 0.122086903322 73.6585997264 0.49820037075 -7.88552705459 0.599144385283 -94.458151864 0.614749721949 -171.370559954 0.49820037075 -7.88552705461 0.122954919419 73.511384942 0.599752815055 -94.4701070532 0.613982965335 8.67944621608 0.599144385283 -94.458151864 0.599752815055 -94.4701070532 0.530396505385 -14.2482485249 0.00050179269795 -25.1216826018 0.614749721949 -171.370559954 0.613982965335 8.67944621606 0.000501792697773 -25.1216825922 0.495083291271 39.3606537549
11.025 0.127400204968 68.9821568115 0.50540873607 -10.0501455498 0.592784590261 -99.3497979341 0.613952503271 -173.948395717 0.50540873607 -10.0501455498 0.128296201399 68.8644084031 0.593384498322 -99.3620726721 0.613185933585 6.10391785942 0.592784590261 -99.3497979341 0.593384498322 -99.3620726721 0.544516781173 -21.9857805083 0.000512307369116 -30.8415655596 0.613952503271 -173.948395717 0.613185933585 6.1039178594 0.000512307368921 -30.8415655472 0.497056430083 36.8288057836
11.05 0.13258937616 64.3870552936 0.512785832751 -12.2606025749 0.586105171419 -104.229481793 0.61314887028 -176.524843479 0.512785832751 -12.260602575 0.133508639816 64.2968647056 0.586696089478 -104.242044178 0.612383788159 3.52982747486 0.586105171419 -104.229481793 0.586696089478 -104.242044178 0.558806831707 -29.6031702199 0.000522380177014 -36.5631493968 0.613148870281 -176.524843479 0.612383788159 3.52982747485 0.000522380176809 -36.5631493822 0.499033375417 34.2974332277
11.075 0.137643229381 59.8661809998 0.520298267953 -14.516031529 0.579124632006 -109.095508987 0.612338783911 -179.099959519 0.520298267953 -14.516031529 0.138581089047 59.8018336065 0.579706131194 -109.108325787 0.611576552699 0.95710927675 0.579124632006 -109.095508987 0.579706131194 -109.108325787 0.573194223909 -37.1038352978 0.000531996136288 -42.2833689966 0.612338783911 -179.099959519 0.611576552698 0.957109276736 0.000531996136086 -42.2833689806 0.501014045145 31.7665035483
11.1 0.142552076827 55.4137676852 0.527913241225 -16.8151643384 0.571862897697 -113.946266155 0.611522213472 178.326199549 0.527913241225 -16.8151643384 0.143503908413 55.373716214 0.572434590519 -113.959302845 0.610764248237 -1.61430355156 0.571862897697 -113.946266155 0.572434590519 -113.959302845 0.587611589774 -44.4914866941 0.000541143124197 -47.9993466288 0.611522213472 178.326199549 0.610764248236 -1.61430355157 0.000541143124012 -47.9993466126 0.502998351235 29.2359843499
11.125 0.147307681791 51.0251216408 0.53559896885 -19.1563948976 0.564341055304 -118.780233262 0.610699137357 175.753576631 0.53559896885 -19.1563948976 0.148268916932 51.0079631618 0.564902597158 -118.793454052 0.609946893252 -4.18447886665 0.564341055304 -118.780233262 0.564902597158 -118.793454051 0.601996942907 -51.7700047301 0.000549811863691 -53.7083918857 0.610699137357 175.753576631 0.609946893252 -4.18447886666 0.000549811863539 -53.7083918712 0.504986199239 26.7058433605
11.15 0.151903210911 46.696402888 0.543325047342 -21.5378423803 0.556581082977 -123.595994123 0.609869543664 173.182113997 0.543325047342 -21.5378423803 0.152869347981 46.7008589941 0.557132173218 -123.609362 0.609124503889 -6.75348558096 0.556581082977 -123.595994123 0.557132173218 -123.609362 0.616293856803 -58.9433448206 0.000557995861275 -59.4080014469 0.609869543664 173.182113997 0.609124503889 -6.75348558097 0.000557995861172 -59.4080014361 0.506977487702 24.1760484069
11.175 0.156333183169 42.4244505044 0.551062753036 -23.9574123737 0.548605578656 -128.39224512 0.609033430701 170.611753115 0.551062753036 -23.9574123737 0.157299799888 42.4493502819 0.549145961225 -128.405721895 0.608297094327 -9.3213936897 0.548605578656 -128.39224512 0.549145961225 -128.405721895 0.630451524144 -66.0154680419 0.000565691302955 -65.0958583215 0.609033430701 170.611753115 0.608297094327 -9.3213936897 0.000565691302917 -65.0958583173 0.508972107461 21.6465673881
11.2 0.16059341326 38.2066426545 0.558785277411 -26.4128542716 0.540437493166 -133.167802041 0.608190807384 168.04243447 0.558785277411 -26.4128542716 0.161556180229 38.2509080627 0.540966956786 -133.1813484 0.607464677279 -11.8882743125 0.540437493166 -133.167802041 0.540966956786 -133.1813484 0.644424714567 -72.9902918511 0.000572896912709 -70.7698303031 0.608190807384 168.04243447 0.607464677279 -11.8882743125 0.000572896912749 -70.7698303083 0.510969940783 19.1173682459
11.225 0.164680948259 34.0407841361 0.566467899993 -28.9018138157 0.532099873709 -137.921605027 0.607341693518 165.474097376 0.566467899994 -28.9018138157 0.165635642874 34.1034174471 0.532618251675 -137.935180589 0.60662726459 -14.4541997531 0.532099873709 -137.921605027 0.532618251675 -137.935180589 0.658173646692 -79.871656677 0.000579613778779 -76.4279674496 0.607341693517 165.474097376 0.60662726459 -14.4541997531 0.000579613778907 -76.4279674672 0.512970860286 16.5884189416
11.25 0.168593997492 29.9250159063 0.574088102497 -31.421880085 0.523615622729 -142.652721684 0.606486119943 162.906679784 0.574088102497 -31.421880085 0.169536517792 30.005088902 0.524122792319 -142.666285064 0.605784867902 -17.0192435806 0.523615622729 -142.652721684 0.524122792319 -142.666285064 0.671663788623 -86.6633046591 0.000585845153671 -82.0684984743 0.606486119942 162.906679784 0.605784867902 -17.0192435806 0.00058584515389 -82.0684985072 0.514974727601 14.0596874515
11.275 0.172331856205 25.8577422866 0.581625629176 -33.9706265871 0.515007276199 -147.360348419 0.605624128566 160.340118073 0.581625629176 -33.9706265871 0.173258234304 25.9543869481 0.515503157741 -147.373857301 0.604937499335 -19.5834807329 0.515007276199 -147.360348419 0.515503157741 -147.373857301 0.684865599879 -93.3688674079 0.000591596234043 -87.6898259956 0.605624128565 160.340118073 0.604937499336 -19.5834807329 0.000591596234352 -87.6898260463 0.516981391814 11.5311418008
11.3 0.175894824074 21.837572466 0.589062499289 -36.5456463874 0.506296804437 -152.043810143 0.604755772245 157.774346837 0.58906249929 -36.5456463874 0.17680123891 21.9499729321 0.506781360068 -152.05722136 0.604085172151 -22.146987645 0.506296804437 -152.043810143 0.506781360068 -152.05722136 0.697754226502 -99.9918602341 0.000596873926737 -93.2905206439 0.604755772244 157.774346837 0.604085172152 -22.146987645 0.000596873927126 -93.2905207139 0.518990687897 9.00275015911
11.325 0.179284119932 17.8632736221 0.596382978078 -39.1445814377 0.497505437566 -156.702558482 0.603881114545 155.209298667 0.596382978079 -39.1445814377 0.180166909133 17.990659225 0.497978669719 -156.715828099 0.603227901333 -24.7098424026 0.497505437566 -156.702558482 0.497978669719 -156.715828099 0.710309160036 -106.535680819 0.000601686606988 -98.8693140704 0.603881114544 155.209298667 0.603227901335 -24.7098424027 0.000601686607438 -98.8693141599 0.521002435562 6.47448100273
11.35 0.182501794165 13.9337335102 0.60357351287 -41.7651464252 0.488653516804 -161.336168653 0.603000229348 152.644903924 0.603573512872 -41.7651464252 0.183357464896 14.0753727287 0.489115466472 -161.349252066 0.602365704068 -27.2721249196 0.488653516804 -161.336168653 0.489115466472 -161.349252066 0.722513870082 -113.003610752 0.000606043874528 -104.425090934 0.603000229347 152.644903924 0.60236570407 -27.2721249197 0.000606043875015 -104.425091042 0.523016439066 3.94630330464
11.375 0.185550640292 10.047930782 0.61062264081 -44.4051475749 0.479760371932 -165.944335203 0.602113200324 150.081090508 0.610622640811 -44.4051475749 0.186375879001 10.2031259763 0.480211116738 -165.957187245 0.601498600049 -29.8339171391 0.479760371932 -165.944335203 0.480211116737 -165.957187245 0.734355419155 -119.398818738 0.00060995631276 -109.95687997 0.602113200323 150.081090508 0.601498600051 -29.8339171391 0.00060995631325 -109.956880091 0.525032488182 1.41818666174
11.4 0.188434107161 6.20491161686 0.617520874445 -47.062496905 0.470844224519 -170.526866788 0.601220120246 147.517783617 0.617520874446 -47.0624969051 0.189225788176 6.37299443002 0.471283876641 -170.539441838 0.600626611591 -32.3953032558 0.470844224519 -170.526866787 0.47128387664 -170.539441838 0.745824067652 -125.724364601 0.000613435255582 -115.463844252 0.601220120245 147.517783617 0.600626611593 -32.3953032559 0.000613435256039 -115.463844381 0.52705035975 -1.10989873901
11.425 0.191156213052 2.40377150026 0.624260570909 -49.735222464 0.461922115875 -175.08368017 0.600321090158 144.954905508 0.62426057091 -49.7352224641 0.191911406032 2.58409883074 0.462350819856 -175.095932281 0.599749763508 -34.9563699588 0.461922115875 -175.08368017 0.462350819855 -175.095932281 0.756912875799 -131.983203427 0.000616492565784 -120.945270795 0.600321090157 144.954905508 0.59974976351 -34.9563699589 0.00061649256617 -120.945270919 0.529069818544 -3.63798233314
11.45 0.19372146283 -1.356358811 0.630835789894 -52.4214750852 0.453009858193 -179.614793624 0.599416218386 142.392375245 0.630835789895 -52.4214750852 0.194437439087 -1.16440834665 0.45342778867 -179.626676656 0.598868082728 -37.5172066889 0.453009858193 -179.614793624 0.453427788669 -179.626676656 0.767617308564 -138.178189427 0.00061914042824 -126.400559602 0.599416218385 142.392375245 0.59886808273 -37.517206689 0.00061914042852 -126.400559707 0.531090616418 -6.16609346871
11.475 0.196134769066 -5.07632393233 0.637242144959 -55.1195321749 0.444122006978 175.879680097 0.598505619379 139.830108453 0.63724214496 -55.1195321749 0.196809006808 -4.87335311582 0.44452936636 175.868212334 0.597981597627 -40.0779059112 0.444122006978 175.879680097 0.444529366359 175.868212334 0.777934848675 -144.312079212 0.00062139116046 -131.829212323 0.598505619378 139.830108453 0.597981597628 -40.0779059113 0.000621391160605 -131.829212388 0.533112489724 -8.69426162542
11.5 0.198401377868 -8.7569517651 0.643476652087 -57.8277990226 0.435271852609 171.399541073 0.597589412394 137.268017056 0.643476652087 -57.8277990226 0.199031566422 -8.54354752918 0.435668868732 171.388534659 0.597090337055 -42.6385633969 0.435271852609 171.399541073 0.435668868732 171.388534659 0.787864622061 -150.387534295 0.000623257042414 -137.230820624 0.597589412394 137.268017056 0.597090337055 -42.6385633969 0.000623257042411 -137.230820624 0.535135155958 -11.2225164798
