! Generated from PyAEDT SolutionData; AEDT ExportNetworkData workaround
# GHz S MA R 50
9 0.214686763024 157.453869034 0.531515756801 -171.068419493 0.487916574341 -73.9392992218 0.658284141187 46.0288129547 0.531515756801 -171.068419493 0.216121513075 157.381513953 0.487666787861 -74.0260782092 0.657999692915 -134.087888235 0.487916574341 -73.9392992218 0.487666787861 -74.0260782092 0.723959919207 -147.949859935 0.000745575337017 155.268655574 0.658284141187 46.0288129547 0.657999692915 -134.087888235 0.000745575337017 155.268655574 0.365647149179 -114.924905864
9.025 0.212873731151 154.777348123 0.532135027147 -173.870347665 0.488577548081 -78.1935382456 0.657883534158 43.1213020901 0.532135027147 -173.870347665 0.214296328995 154.702537272 0.488325007273 -78.2803079059 0.657609024088 -136.995529124 0.488577548081 -78.1935382456 0.488325007273 -78.2803079059 0.723068009047 -153.749940085 0.000743682650545 150.995692765 0.657883534158 43.1213020901 0.657609024088 -136.995529124 0.00074368265054 150.995692757 0.367068274404 -117.645498361
9.05 0.211083479578 152.112911849 0.532770516846 -176.66464904 0.489205946109 -82.4408295916 0.657479578539 40.2217930681 0.532770516846 -176.66464904 0.212494322796 152.035516488 0.488950660307 -82.5275801227 0.657214803267 -139.895201486 0.489205946108 -82.4408295916 0.488950660307 -82.5275801227 0.722218607588 -159.545514396 0.00074177316942 146.744892897 0.657479578538 40.2217930682 0.657214803266 -139.895201486 0.000741773169402 146.744892885 0.368495351391 -120.361045716
9.075 0.209316445636 149.460129011 0.533422442398 -179.451582529 0.489801938053 -86.6810940426 0.657072269592 37.3301345194 0.533422442398 -179.451582529 0.210715952977 149.380024741 0.489543925081 -86.7678153583 0.656817003394 -142.787053905 0.489801938053 -86.6810940426 0.489543925081 -86.7678153583 0.721411667017 -165.335721576 0.000739875404934 142.516178923 0.657072269591 37.3301345195 0.656817003393 -142.787053905 0.000739875404898 142.516178908 0.369928353427 -123.071640686
9.1 0.207572943143 146.818569901 0.534090898349 177.768597232 0.490365804509 -90.9142576987 0.656661599783 34.4461786504 0.534090898349 177.768597232 0.208961553675 146.735637813 0.49010509079 -91.0009394846 0.656415597494 -145.671231739 0.490365804509 -90.9142576987 0.49010509079 -91.0009394846 0.720646979962 -171.119780631 0.000738015495773 138.309276367 0.656661599783 34.4461786504 0.656415597493 -145.671231739 0.00073801549572 138.309276351 0.371367256616 -125.777374229
9.125 0.205853173681 144.1878059 0.534775863806 174.995640678 0.490897936439 -95.1402520387 0.656247559103 31.5697811336 0.534775863806 174.995640678 0.207231346325 144.101933651 0.490634557074 -95.2268838081 0.656010558565 -148.547877167 0.490897936439 -95.1402520388 0.490634557074 -95.2268838081 0.719924181031 -176.896984573 0.000736217161516 134.123739377 0.656247559103 31.5697811336 0.656010558564 -148.547877167 0.000736217161449 134.123739361 0.372812039746 -128.478335548
9.15 0.204157235907 141.567408954 0.535477208923 172.229304029 0.491398834042 -99.3590140535 0.655830135344 28.7008010001 0.535477208923 172.229304029 0.205525449275 141.478491758 0.491132832862 -99.445585204 0.65560185949 -151.417129247 0.491398834042 -99.3590140535 0.491132832862 -99.445585204 0.719242748736 177.333305596 0.000734501712987 129.958976313 0.655830135343 28.7008010002 0.655601859489 -151.417129247 0.000734501712911 129.958976299 0.374262684158 -131.17461214
9.175 0.202485133026 138.956951015 0.536194701329 169.469349928 0.491869105089 -103.570486442 0.655409314338 25.8391005337 0.536194701329 169.469349928 0.203843885454 138.864892542 0.491600534678 -103.656986312 0.655189472963 -154.279123971 0.491869105089 -103.570486442 0.491600534678 -103.656986312 0.718602007812 171.571666539 0.000732888112582 125.81427443 0.655409314337 25.8391005337 0.655189472963 -154.279123971 0.000732888112503 125.814274418 0.375719173621 -133.866289846
9.2 0.200836778607 136.356003526 0.536928012473 166.715548012 0.492309462755 -107.774617861 0.654985080165 22.984545167 0.536928012473 166.715548012 0.202186588307 136.260716705 0.49203838444 -107.861035788 0.654773371436 -157.133994327 0.492309462755 -107.774617861 0.49203838444 -107.861035788 0.718001131947 165.8186178 0.000731393077897 121.688823196 0.654985080164 22.984545167 0.654773371436 -157.133994327 0.000731393077822 121.688823186 0.377181494207 -136.553452898
9.225 0.199212000956 133.764137012 0.537676723876 163.967675406 0.492720722948 -111.971363219 0.654557415324 20.1370033808 0.537676723876 163.967675406 0.200553406199 133.665544739 0.492447206767 -112.057688594 0.65435352707 -159.981870365 0.492720722948 -111.971363219 0.492447206767 -112.057688594 0.717439146971 160.074626537 0.00073003122219 117.581735822 0.654557415324 20.1370033808 0.65435352707 -159.981870365 0.000730031222125 117.581735815 0.378649634173 -139.236183969
9.25 0.197610546292 131.180920849 0.538440333262 161.225517162 0.493103801176 -116.160684009 0.65412630088 17.2963466052 0.538440333263 161.225517162 0.198944105569 131.078956603 0.492827925811 -116.246906336 0.653929911705 -162.822879267 0.493103801176 -116.160684009 0.492827925811 -116.246906336 0.716914934501 154.340111728 0.000728815225136 113.492068577 0.65412630088 17.2963466052 0.653929911704 -162.822879267 0.000728815225087 113.492068572 0.380123583848 -141.914564227
9.275 0.196032080982 128.605923232 0.539218260573 158.488866626 0.493459708968 -120.342548663 0.653691716586 14.4624491247 0.539218260573 158.488866626 0.197358373082 128.500531611 0.49318156166 -120.428657617 0.653502496837 -165.657145414 0.493459708968 -120.342548663 0.49318156166 -120.428657617 0.716427236096 148.615447841 0.000727756026947 109.418837451 0.653691716586 14.4624491247 0.653502496837 -165.657145414 0.000727756026916 109.418837449 0.381603335515 -144.58867338
9.3 0.194476193097 126.0387114 0.540009853838 155.75752576 0.493789549893 -124.516932935 0.653253640983 11.6351879846 0.540009853838 155.75752576 0.195795817069 125.929848574 0.493509226321 -124.602918415 0.653071253611 -168.484790457 0.493789549893 -124.516932935 0.493509226321 -124.602918415 0.715974657926 142.900967964 0.000726863038148 105.361031799 0.653253640983 11.6351879846 0.653071253611 -168.484790457 0.000726863038138 105.361031798 0.383088883306 -147.258589729
9.325 0.192942393544 123.478852106 0.540814394912 153.0313054 0.494094515199 -128.683820286 0.652812051486 8.81444290144 0.540814394912 153.0313054 0.194255968521 123.366486204 0.49381211934 -128.769672476 0.652636152808 -171.30593339 0.494094515199 -128.683820286 0.49381211934 -128.769672476 0.715555675968 137.196966412 0.000726144356279 101.317624634 0.652812051486 8.81444290144 0.652636152808 -171.30593339 0.000726144356289 101.317624634 0.384580223093 -149.92439022
9.35 0.191430116998 120.925912349 0.541631105047 150.310025472 0.494375879122 -132.843202286 0.652366924444 6.00009617592 0.541631105047 150.310025472 0.192738281864 120.810023784 0.494091523081 -132.928911708 0.652197164857 -174.120690625 0.494375879122 -132.843202286 0.494091523081 -132.928911708 0.715168641739 131.503700824 0.000725606979694 97.2875794062 0.652366924444 6.00009617592 0.652197164857 -174.120690625 0.000725606979722 97.2875794073 0.386077352386 -152.586150486
9.375 0.189938722852 118.37946035 0.542459150324 147.593515153 0.494634993893 -136.995079002 0.651918235198 3.19203260878 0.542459150324 147.593515153 0.191242135749 118.260042099 0.494348797717 -137.080636576 0.651754259837 -176.92917606 0.494634993893 -136.995079002 0.494348797717 -137.080636576 0.714811788543 125.821393797 0.000725257007885 93.2698532995 0.651918235199 3.19203260878 0.651754259837 -176.92917606 0.000725257007927 93.2698533008 0.387580270228 -155.243944904
9.4 0.188467496333 115.839066752 0.543297646912 144.881612996 0.494873284497 -141.139459395 0.65146595812 0.390139419566 0.543297646912 144.881612996 0.189766834014 115.71612458 0.494585375954 -141.22485649 0.651307407497 -179.731501151 0.494873284497 -141.139459395 0.494585375954 -141.22485649 0.714483238219 120.150234087 0.000725099817703 89.2633973124 0.65146595812 0.390139419562 0.651307407497 -179.731501151 0.000725099817756 89.2633973136 0.389088977103 -157.897846636
9.425 0.187015649933 113.304306005 0.544145666167 142.174167008 0.495092243212 -145.27636169 0.651010066639 -2.40569383175 0.544145666167 142.174167008 0.188311606969 113.177858655 0.494802757558 -145.361590183 0.650856577269 177.472225011 0.495092243212 -145.27636169 0.494802757558 -145.361590183 0.714181008364 114.490377424 0.00072514020589 85.2671537053 0.651010066639 -2.40569383175 0.650856577269 177.472225011 0.000725140205948 85.2671537061 0.390603474836 -160.547927677
9.45 0.185582325241 110.774757903 0.545002239566 139.471034697 0.495293423986 -149.405813742 0.650550533273 -5.19557532029 0.545002239566 139.471034697 0.18687561308 110.644837253 0.495002503705 -149.490866071 0.650401738295 174.681895633 0.495293423986 -149.405813742 0.495002503705 -149.490866071 0.713903019961 108.841946997 0.000725382490622 81.2800516298 0.650550533273 -5.19557532029 0.650401738296 174.681895633 0.000725382490681 81.2800516302 0.392123766498 -163.194258904
9.475 0.184166595219 108.250009237 0.545866363459 136.772083081 0.495478436674 -153.527853377 0.650087329633 -7.97961102908 0.545866363459 136.772083081 0.185457941125 108.116660418 0.495186231196 -153.612722595 0.64994285945 171.89740615 0.495478436674 -153.527853377 0.495186231196 -153.612722595 0.713647105379 103.205033647 0.000725830568333 77.3010019634 0.650087329633 -7.97961102908 0.64994285945 171.89740615 0.000725830568388 77.3010019633 0.393649856321 -165.836910114
9.5 0.182767466956 105.729655505 0.546737003663 134.077188661 0.495648941191 -157.642528714 0.649620426442 -10.7579048192 0.546737003663 134.077188661 0.184057612818 105.592936993 0.495355606599 -157.727208538 0.649479909368 169.118654158 0.495648941191 -157.642528714 0.495355606599 -157.727208538 0.713411016676 97.5796958282 0.000726487926371 73.3288924401 0.649620426442 -10.7579048192 0.649479909368 169.118654158 0.00072648792642 73.3288924396 0.395181749601 -168.475950071
9.525 0.181383884866 103.21330266 0.547613099872 131.386237378 0.495806641618 -161.749898455 0.649149793537 -13.5305584972 0.547613099872 131.386237378 0.182673585907 103.073286337 0.495512340323 -161.834383322 0.649012856472 166.34553934 0.495806641618 -161.749898455 0.495512340324 -161.834383322 0.713192434122 91.9659593881 0.000727357616595 69.3625840976 0.649149793537 -13.5305584972 0.649012856472 166.34553934 0.000727357616634 69.3625840968 0.396719452622 -171.111446548
9.55 0.180014734317 100.700568839 0.548493569886 128.69912453 0.495953280288 -165.850032159 0.648675399869 -16.2976718802 0.548493569886 128.69912453 0.181304757685 100.557340026 0.4956581807 -165.934317276 0.648541669007 163.577963409 0.495953280288 -165.850032159 0.4956581807 -165.934317276 0.712988974879 86.3638172006 0.000728442198871 65.4009098406 0.648675399869 -16.2976718802 0.648541669008 163.577963409 0.0007284421989 65.4009098397 0.398262972564 -173.743466364
9.575 0.178658845608 98.1910860569 0.549377313672 126.015754677 0.496090631894 -169.943010484 0.648197213508 -19.0593428585 0.549377313672 126.015754677 0.179949968876 98.044743516 0.495794908066 -170.027091872 0.648066315067 160.815830034 0.496090631894 -169.943010484 0.495794908066 -170.027091872 0.712798201754 80.773228711 0.000729743666054 61.4426755976 0.648197213508 -19.0593428585 0.648066315067 160.815830034 0.000729743666074 61.4426755967 0.399812317424 -176.372075424
9.6 0.177314998248 95.6845018266 0.550263217241 123.33604152 0.496220497653 -174.028925393 0.647715201635 -21.8156674556 0.550263217241 123.33604152 0.178608007806 95.5351577374 0.495924328916 -174.112799941 0.647586762625 158.059044786 0.496220497653 -174.028925393 0.495924328916 -174.112799941 0.712617631941 75.1941194219 0.000731263362851 57.4866641669 0.647715201635 -21.8156674556 0.647586762625 158.059044786 0.000731263362861 57.4866641662 0.401367495939 -178.997338759
9.625 0.175981925441 93.1804806933 0.55115015634 120.659907763 0.496344699544 -178.107880346 0.647229330547 -24.5667398865 0.55115015634 120.659907763 0.177277614793 93.0282605977 0.496048270123 -178.191545853 0.64710297957 155.307515072 0.496344699544 -178.107880346 0.496048270123 -178.191545853 0.712444745683 69.6263803595 0.00073300191007 53.5316414926 0.647229330547 -24.5667398865 0.64710297957 155.307515072 0.000733001910072 53.5316414922 0.402928517507 178.380679443
9.65 0.174658318711 90.6787056641 0.552036999976 117.987284965 0.496465074657 177.820009546 0.646739565644 -27.312652613 0.552036999976 117.987284965 0.175957486671 90.5237483852 0.496168573277 177.736554324 0.646614933732 152.561150072 0.496465074657 177.820009546 0.496168573277 177.736554324 0.712276994779 64.0698675485 0.000734959143386 49.5763648253 0.646739565644 -27.312652613 0.646614933732 152.561150072 0.000734959143382 49.5763648252 0.404495392111 175.761915798
9.675 0.173342832584 88.1788795291 0.552922613751 115.318113372 0.496583469666 173.754617391 0.646245871436 -30.0534963983 0.552922613751 115.318113372 0.174646281374 88.0213370615 0.496287089139 173.671372703 0.646122592916 149.819860689 0.496583469666 173.754617391 0.496287089139 173.671372703 0.712111810863 58.5244015213 0.000737134072498 45.6195920573 0.646245871436 -30.0534963983 0.646122592916 149.819860689 0.000737134072491 45.6195920574 0.406068130253 173.146307696
9.7 0.17203408926 85.6807260704 0.553805863025 112.652341746 0.496701735442 169.695804413 0.645748211532 -32.7893603579 0.553805863025 112.652341746 0.1733426225 85.5207634442 0.496405672252 169.612769466 0.645625924926 147.083559485 0.496701735442 169.695804413 0.496405672252 169.612769466 0.711946613397 52.9897668796 0.000739524863152 41.6600914773 0.645748211532 -32.7893603579 0.645625924926 147.083559485 0.000739524863143 41.6600914777 0.407646742874 170.533793268
9.725 0.170730683204 83.1839911629 0.554685615904 109.989927185 0.496821721832 165.643419872 0.645246548645 -35.5203320104 0.554685615904 109.989927185 0.172045103808 83.0217862824 0.496526175698 165.560592798 0.645124897599 144.352160631 0.496821721832 165.643419872 0.496526175698 165.560592798 0.711778817338 47.4657119237 0.000742128841419 37.6966512498 0.645246548645 -35.5203320104 0.645124897599 144.352160631 0.00074212884141 37.6966512504 0.409231241294 167.924311358
9.75 0.169431185608 80.6884437758 0.555560746051 107.330834935 0.496945272598 161.597301006 0.644740844586 -38.2464973249 0.555560746051 107.330834935 0.170752293581 80.5241872344 0.496650446034 161.514678825 0.644619478827 141.62557985 0.496945272598 161.597301006 0.496650446034 161.514678825 0.711605840423 41.951948359 0.000744942517341 33.7280880627 0.644740844586 -38.2464973249 0.644619478827 141.62557985 0.000744942517332 33.7280880635 0.410821637145 165.317801489
9.775 0.168134148684 78.1938768864 0.556430135337 104.675038208 0.497074220536 157.557273 0.64423106027 -40.9679407683 0.556430135337 104.675038208 0.169462738811 78.0277717582 0.496780318397 157.474851583 0.644109636582 138.903734366 0.497074220536 157.557273 0.496780318397 157.474851583 0.711425110047 36.4481510844 0.000747961623666 29.7532545605 0.64423106027 -40.9679407683 0.644109636582 138.903734366 0.000747961623658 29.7532545613 0.412417942305 162.714203844
9.8 0.16683810974 75.700108321 0.557292676326 102.022517992 0.497210382765 153.523148966 0.643717155716 -43.6847453494 0.557292676326 102.022517992 0.16817496919 75.5323699319 0.496917611789 153.440923006 0.64359533894 136.186542856 0.497210382765 153.523148966 0.496917611789 153.440923006 0.711234069724 30.9539580627 0.000751181164883 25.7710453527 0.643717155716 -43.6847453494 0.64359533894 136.186542856 0.000751181164876 25.7710453535 0.414020168837 160.113459231
9.825 0.165541595026 73.2069815403 0.558147274608 99.3732628668 0.497355556201 149.494729944 0.64319909005 -46.3969926628 0.558147274608 99.3732628668 0.166887500863 73.0378372193 0.497064124537 149.412692927 0.643076554103 133.473925397 0.497355556201 149.494729944 0.497064124537 149.412692927 0.711030185103 25.468970272 0.000754595471954 21.7804015437 0.64319909005 -46.3969926628 0.643076554103 133.473925397 0.00075459547195 21.7804015444 0.415628328932 157.515509067
9.85 0.164243123333 70.7143663898 0.558992850977 96.7272688276 0.497511513194 145.471804916 0.642676821514 -49.1047629307 0.558992850977 96.7272688276 0.165598839945 70.5440552018 0.497221629925 145.389949094 0.642553250415 130.765803421 0.497511513194 145.471804916 0.497221629925 145.389949094 0.710810949564 19.9927517297 0.000758198258779 17.7803138466 0.642676821514 -49.1047629307 0.642553250415 130.765803421 0.000758198258776 17.7803138472 0.417242434853 154.920295346
9.875 0.162941209336 68.2221598348 0.559828343489 94.0845391113 0.497679997331 141.454150833 0.642150307474 -51.8081350435 0.559828343489 94.0845391113 0.164307485788 68.0509322957 0.497391871995 141.372467202 0.642025396382 128.062099667 0.497679997331 141.454150833 0.497391871995 141.372467202 0.710573889392 14.5248295821 0.000761982677302 13.7698244193 0.642150307474 -51.8081350435 0.642025396382 128.062099667 0.0007619826773 13.7698244197 0.418862498874 152.327760625
9.9 0.161634366684 65.7302867022 0.560652709373 91.445084035 0.497862719397 137.441532651 0.641619504431 -54.5071865989 0.560652709373 91.445084035 0.163011934006 65.5584044776 0.497576561489 137.36001093 0.641492960682 125.362738137 0.497862719397 137.441532651 0.497576561489 137.36001093 0.710316568555 9.06469424835 0.000765941369126 9.74802760636 0.641619504431 -54.5071865989 0.641492960682 125.362738137 0.000765941369125 9.7480276066 0.420488533233 149.737847996
9.925 0.16032111084 63.2387004535 0.561464926853 88.8089208444 0.498061353464 133.433703375 0.641084368031 -57.2019939403 0.561464926853 88.8089208444 0.161710679265 63.0664360406 0.497777371944 133.352331988 0.640955912182 122.667644049 0.498061353464 133.433703375 0.497777371944 133.352331988 0.71003659312 3.61179960578 0.000770066512313 5.71406978089 0.641084368031 -57.2019939403 0.640955912182 122.667644049 0.000770066512313 5.71406978097 0.422120550078 147.150501072
9.95 0.158999961694 60.7473840103 0.562263996851 86.1760735759 0.498277533115 129.430404106 0.640544853084 -59.8926321936 0.562263996851 86.1760735759 0.160402217848 60.5750204032 0.497995935905 129.349170171 0.640414219945 119.976743797 0.498277533115 129.430404106 0.497995935905 129.349170171 0.709731615351 -1.8344367962 0.000774349862799 1.66714847176 0.640544853084 -59.8926321936 0.640414219945 119.976743797 0.000774349862799 1.6671484717 0.42375856142 144.565663963
9.975 0.157669445955 58.2563506593 0.56304894463 83.5465729339 0.49851284776 125.431364098 0.640000913578 -62.579175303 0.56304894463 83.5465729339 0.159085050022 58.0841809972 0.498233841234 125.35025341 0.639867853234 117.289964909 0.49851284776 125.431364098 0.498233841234 125.35025341 0.709399337526 -7.27463350795 0.000778782790351 -2.39348905657 0.640000913578 -62.579175303 0.639867853234 117.289964909 0.000778782790351 -2.39348905674 0.425402579083 141.983281264
10 0.156328099345 55.7656450609 0.563818821359 80.9204561837 0.49876883904 121.436300804 0.639452502701 -65.2616960659 0.563818821359 80.9204561837 0.157757682217 55.5939722575 0.498492627512 121.355297833 0.639316781523 114.607236002 0.49876883904 121.436300804 0.498492627512 121.355297833 0.709037515537 -12.7094449515 0.000783356309378 -6.46854763306 0.639452502701 -65.2616960659 0.639316781523 114.607236002 0.000783356309378 -6.46854763331 0.42705261466 139.403298033
10.025 0.154974468635 53.2753443884 0.564572705652 78.2977670635 0.499046997288 117.444919934 0.638899572864 -67.9402661671 0.564572705652 78.2977670635 0.15641862906 53.1044807414 0.498773782495 117.36400782 0.638760974491 111.928486748 0.499046997288 117.444919934 0.498773782495 117.36400782 0.708643962333 -18.1395612065 0.000788061105099 -10.5586863063 0.638899572864 -67.9402661671 0.638760974491 111.928486748 0.000788061105099 -10.5586863066 0.428708679469 136.825659778
10.05 0.153607113524 50.7855596264 0.565309705075 75.6785557154 0.499348758018 113.456915505 0.638342075723 -70.6149562114 0.565309705075 75.6785557154 0.155066415273 50.6158264046 0.499078738595 113.376076056 0.638200402027 109.253647826 0.499348758018 113.456915505 0.499078738595 113.376076056 0.708216551261 -23.5657078231 0.0007928875557 -14.6645206824 0.638342075723 -70.6149562114 0.638200402027 109.253647826 0.000792887555699 -14.6645206827 0.43037078451 134.250312444
10.075 0.15222460842 48.2964370574 0.566028957676 73.0628786362 0.49967549842 109.471969885 0.637779962211 -73.285835756 0.566028957676 73.0628786362 0.153699577487 48.1281640623 0.499408869373 109.39118358 0.637635034221 106.582650894 0.49967549842 109.471969885 0.499408869373 109.39118358 0.707753219389 -28.9886456751 0.000797825751064 -18.7866254123 0.637779962211 -73.285835756 0.637635034221 106.582650894 0.000797825751064 -18.7866254127 0.432038940424 131.677202394
10.1 0.150825544135 45.8081599693 0.566729633536 70.4507986511 0.500028533826 105.489753837 0.637213182565 -75.952973342 0.566729633536 70.4507986511 0.152316665983 45.6416850672 0.499765486003 105.408999834 0.63706484136 103.915428541 0.500028533827 105.489753837 0.499765486003 105.408999834 0.707251970869 -34.4091708632 0.000802865508683 -22.9255367835 0.637213182565 -75.952973342 0.63706484136 103.915428541 0.000802865508683 -22.9255367838 0.433713157454 129.106276401
10.125 0.149408529545 43.3209506178 0.56741093639 67.8423849076 0.500409114126 101.509926554 0.636641686359 -78.6164365251 0.56741093639 67.8423849076 0.150916246423 43.1566192389 0.500149833677 101.429182702 0.636489793916 101.251914257 0.500409114126 101.509926554 0.500149833677 101.429182702 0.706710880429 -39.8281146796 0.000807996387184 -27.0817553851 0.636641686359 -78.6164365251 0.636489793916 101.251914257 0.000807996387183 -27.0817553854 0.435393445404 126.537481634
10.15 0.147972193239 40.8350724819 0.568072105343 65.2377128939 0.500818420079 97.5321356906 0.636065422542 -81.2762919058 0.568072105343 65.2377128939 0.149496901588 40.6732370797 0.500563087919 97.4513785406 0.635909862535 98.5920423926 0.500818420079 97.5321356906 0.500563087919 97.4513785406 0.706128097068 -45.24634364 0.000813207697866 -31.2557488268 0.636065422542 -81.2762919058 0.635909862535 98.5920423926 0.000813207697866 -31.255748827 0.437079813606 123.970765646
10.175 0.146515185221 38.350832854 0.568712416712 62.6368644786 0.501257559507 93.5560173806 0.635484339477 -83.9326051585 0.568712416712 62.6368644786 0.148057233181 38.1918523197 0.50100635077 93.4752222063 0.635325018019 95.9357481248 0.501257559507 93.5560173806 0.50100635077 93.4752222063 0.705501848027 -50.6647595913 0.0008184885145 -35.4479544962 0.635484339477 -83.9326051585 0.635325018019 95.9357481248 0.0008184885145 -35.4479544964 0.438772270877 121.406076362
10.2 0.145036178691 35.8685858109 0.569331186028 60.0399279742 0.501727563328 89.581196256 0.63489838498 -86.5854410609 0.569331186028 60.0399279742 0.146595863738 35.7128248339 0.501480646819 89.5003370757 0.63473523131 93.2829674215 0.501727563328 89.581196256 0.501480646819 89.5003370757 0.704830443144 -56.0842998981 0.000823827681518 -39.6587823454 0.63489838498 -86.5854410609 0.63473523131 93.2829674215 0.000823827681519 -39.6587823455 0.440470825487 118.843362074
10.225 0.143533871973 33.3887356169 0.569927770245 57.4469982225 0.502229381382 85.6072854525 0.63430750637 -89.2348635223 0.569927770245 57.4469982225 0.145111438695 33.2365639837 0.501986919023 85.5263350554 0.634140473464 90.6336370063 0.502229381382 85.6072854525 0.501986919023 85.5263350554 0.704112279653 -61.5059377097 0.00082921382067 -43.8886176965 0.63430750637 -89.2348635223 0.634140473464 90.6336370063 0.000829213820671 -43.8886176965 0.442175485124 116.282571424
10.25 0.142006990629 30.9117406167 0.570501570179 54.8581767016 0.502763878017 81.6338866106 0.633711650513 -91.8809356117 0.570501570179 54.8581767016 0.143602628682 30.7635324363 0.502526024297 81.5528165871 0.633540715632 87.9876943251 0.502763878017 81.6338866106 0.502526024297 81.5528165871 0.703345847538 -66.9306823098 0.000834635336084 -48.1378240591 0.633711650513 -91.8809356117 0.633540715632 87.9876943251 0.000834635336085 -48.1378240591 0.443886256854 113.723653402
10.275 0.140454289852 28.4381176841 0.57105203324 52.2735716545 0.503331827407 77.6605898692 0.63311076388 -94.5237195853 0.57105203324 52.2735716545 0.142068132093 28.2942505281 0.503098728812 77.5793706457 0.632935929027 85.3450775118 0.503331827407 77.6605898692 0.503098728812 77.5793706457 0.702529735533 -72.3595795446 0.000840080417648 -52.406745949 0.63311076388 -94.5237195853 0.632935929027 85.3450775118 0.000840080417649 -52.4067459489 0.44560314709 111.166557334
10.3 0.138874557176 25.9684472987 0.571578656471 49.6932982357 0.503933908532 73.686973855 0.632504792595 -97.1632769144 0.571578656471 49.6932982357 0.140506678015 25.8293012404 0.503705702989 73.6055747323 0.632326084896 82.7057253558 0.503933908532 73.686973855 0.503705702989 73.6055747323 0.701662637851 -77.7937123263 0.00084553704255 -56.695711697 0.632504792595 -97.1632769144 0.632326084896 82.7057253558 0.000845537042552 -56.6957116969 0.447326161553 108.611232874
10.325 0.137266615613 23.5033793343 0.572080989971 47.1174786765 0.504570699803 69.7126056671 0.6318936825 -99.7996683122 0.572080989971 47.1174786765 0.138917029598 23.3693358698 0.504347516108 69.6309948635 0.631711154488 80.0695772692 0.504570699803 69.7126056671 0.504347516108 69.6309948635 0.700743361768 -83.2342012065 0.000850992974806 -61.005036235 0.6318936825 -99.7996683122 0.631711154488 80.0695772692 0.000850992974808 -61.0050362349 0.449055305237 106.057629997
10.35 0.13562932729 21.0436396542 0.572558640722 44.546242465 0.505242673275 65.7370408594 0.631277379217 -102.432953761 0.572558640722 44.546242465 0.137297987951 20.9150804833 0.505024630526 65.6551855575 0.631091109017 77.4365732549 0.505242673275 65.7370408594 0.505024630526 65.6551855575 0.699770836154 -88.6822050087 0.000856435762571 -65.3350238436 0.631277379217 -102.432953761 0.631091109017 77.4365732549 0.000856435762573 -65.3350238436 0.450790582375 103.505698994
10.375 0.133961597707 18.5900376189 0.573011276883 41.979726538 0.505950188409 61.759823423 0.630655828214 -105.063192538 0.573011276883 41.979726538 0.135648396686 18.4673432626 0.505737395427 61.677689821 0.630465919624 74.8066538749 0.505950188409 61.759823423 0.505737395427 61.677689821 0.698744121061 -94.1389215113 0.000861852733059 -69.6859708453 0.630655828214 -105.063192538 0.630465919624 74.8066538749 0.000861852733061 -69.6859708452 0.452531996393 100.955390463
10.4 0.132262380723 16.1434746306 0.5734386326 39.4180754829 0.50669348533 57.7804857704 0.630028974879 -107.690443245 0.5734386326 39.4180754829 0.133967147208 16.0270228529 0.506486040083 57.6980391375 0.629835557337 72.1797602198 0.50669348533 57.7804857704 0.506486040083 57.6980391375 0.697662418506 -99.6055881671 0.000867230984907 -74.0581682237 0.630028974879 -107.690443245 0.629835557337 72.1797602198 0.000867230984909 -74.0581682236 0.454279549881 98.4066553035
10.425 0.130530684421 13.7049538511 0.573840513373 36.861441744 0.507472677536 53.7985487253 0.62939676459 -110.314763833 0.573840513373 36.861441744 0.132253184915 13.5951178512 0.507270666561 53.7157534613 0.629199993028 69.5558338779 0.507472677536 53.7985487253 0.507270666561 53.7157534613 0.696525084542 -105.083482843 0.000872557377847 -78.4519041519 0.62939676459 -110.314763833 0.629199993028 69.5558338779 0.000872557377849 -78.4519041518 0.456033244544 95.8594447096
10.45 0.128765578001 11.2755912521 0.57421680205 34.3099858293 0.508287744022 49.81352152 0.6287591428 -112.93621163 0.57421680205 34.3099858293 0.130505516456 11.1727375841 0.50809124184 49.730341219 0.628559197371 66.9348169056 0.508287744022 49.81352152 0.50809124184 49.730341219 0.69533164278 -110.573924563 0.000877818519629 -82.8674664084 0.6287591428 -112.93621163 0.628559197371 66.9348169056 0.00087781851963 -82.8674664083 0.457793081162 93.3137101659
10.475 0.1269661999 8.85662817792 0.574567465481 31.7638765123 0.50913852075 45.8249018054 0.628116055117 -115.554843367 0.574567465481 31.7638765123 0.128723218228 8.76111434504 0.508947589284 45.7412993241 0.627913140791 64.3166517979 0.50913852075 45.8249018054 0.508947589284 45.7412993241 0.694081799473 -116.078274235 0.000883000750167 -87.3051446644 0.628116055117 -115.554843367 0.627913140791 64.3166517979 0.000883000750168 -87.3051446644 0.459559059544 90.7694034408
10.5 0.12513176734 6.4494456218 0.574892561906 29.2232910222 0.510024691439 41.8321756779 0.627467447395 -118.170715209 0.574892561906 29.2232910222 0.126905446336 6.36161728669 0.509839379428 41.7481132076 0.627261793426 61.7012814596 0.510024691439 41.8321756779 0.509839379428 41.7481132076 0.69277546032 -121.597935334 0.000888090122976 -91.7652326238 0.627467447395 -118.170715209 0.627261793426 61.7012814596 0.000888090122977 -91.7652326238 0.46133117848 88.2264765814
10.525 0.12326158756 4.05558044914 0.575192249119 26.6884152157 0.510945777616 37.8348177265 0.626813265825 -120.78388278 0.575192249119 26.6884152157 0.125051448259 3.97576818349 0.510766120028 37.7502568696 0.62660512507 59.0886491772 0.510945777616 37.8348177265 0.510766120028 37.7502568696 0.691412749124 -127.134354522 0.000893072384028 -96.2480300006 0.626813265825 -120.78388278 0.62660512507 59.0886491772 0.000893072384029 -96.2480300005 0.463109435689 85.6848819083
10.55 0.121355071021 1.67674382477 0.575466793466 24.1594437211 0.511901127882 33.832291108 0.626153457031 -123.394401193 0.575466793466 24.1594437211 0.123160576508 1.60525931106 0.511727145332 33.7471929582 0.625943105134 56.478698591 0.511901127882 33.832291108 0.511727145332 33.7471929582 0.689994028466 -132.689022166 0.000897932948246 -100.753844322 0.626153457031 -123.394401193 0.625943105134 56.478698591 0.000897932948246 -100.753844321 0.464893827764 83.1445720103
10.575 0.119411746922 -0.685157863303 0.575716579734 21.6365800462 0.512889906359 29.8240476537 0.625487968173 -126.002325076 0.575716579734 21.6365800462 0.121232304613 -0.748026285416 0.512721604524 29.7383728812 0.625275702591 53.8713736681 0.512889906359 29.8240476537 0.512721604524 29.7383728812 0.688519922544 -138.263472728 0.000902656873918 -105.282992545 0.625487968173 -126.002325076 0.625275702591 53.8713736681 0.000902656873918 -105.282992545 0.466684350111 80.6054997391
10.6 0.117431281419 -3.02799925992 0.575942121978 19.1200366384 0.513911080265 25.8095280174 0.624816747051 -128.607708609 0.575942121978 19.1200366384 0.119266245832 -3.08199183143 0.513748449306 25.7232369568 0.624602885934 51.2666186757 0.513911080265 25.8095280174 0.513748449306 25.7232369568 0.686991342322 -143.859284991 0.000907228835413 -109.835802487 0.624816747051 -128.607708609 0.624602885934 51.2666186757 0.000907228835413 -109.835802487 0.468480996887 78.0676182044
10.625 0.115413499005 -5.34940912125 0.576144075339 16.6100348839 0.514963406592 21.7881618683 0.624139742217 -131.210605546 0.576144075339 16.6100348839 0.11726217502 -5.39430084082 0.514806420578 21.7012146119 0.623924623131 48.664378155 0.514963406592 21.7881618683 0.514806420578 21.7012146119 0.685409513149 -149.47808207 0.000911633094621 -114.412614061 0.624139742217 -131.210605546 0.623924623131 48.664378155 0.000911633094622 -114.412614061 0.470283760927 75.5308807685
10.65 0.113358407597 -7.6467398275 0.576323248893 14.1068050338 0.516045417845 17.7593681413 0.623456903085 -133.811069251 0.576323248893 14.1068050338 0.115220054205 -7.68234775422 0.515894034185 17.6717246357 0.623240881582 46.0645968959 0.516045417845 17.7593681413 0.515894034185 17.6717246357 0.68377600499 -155.121531167 0.000915853471619 -119.013780323 0.623456903085 -133.811069251 0.623240881582 46.0645968959 0.000915853471619 -119.013780323 0.472092633673 72.9952410406
10.675 0.111266227944 -9.91703291662 0.576480619576 11.6105860379 0.517155406826 13.7225553505 0.622768180053 -136.409152732 0.576480619576 11.6105860379 0.113140062477 -9.94322482251 0.517009565711 13.634175497 0.622551628076 43.4672199119 0.517155406826 13.7225553505 0.517009565711 13.634175497 0.682092765385 -160.791343019 0.0009198733151 -123.639668338 0.622768180053 -136.409152732 0.622551628076 43.4672199119 0.0009198733151 -123.639668337 0.473907605085 70.4606528717
10.7 0.109137428107 -12.1569802122 0.57661734721 9.12162527154 0.518291410446 9.67712197691 0.622073524618 -139.004908669 0.57661734721 9.12162527154 0.111022630905 -12.1736848526 0.518151034298 9.58796573621 0.621856828764 40.8721924153 0.518291410446 9.67712197691 0.518151034298 9.58796573621 0.680362155264 -166.489270975 0.00092367547315 -128.290659874 0.622073524618 -139.004908669 0.621856828764 40.8721924153 0.000923675473151 -128.290659874 0.475728663555 67.9270703482
10.725 0.106972763857 -14.3628801255 0.576734790656 6.64017813216 0.519451192547 5.62245694197 0.621372889508 -141.598389454 0.576734790656 6.64017813216 0.108868483319 -14.3700994471 0.519316185486 5.53248444236 0.621156449123 38.2794597939 0.519451192547 5.62245694197 0.519316185486 5.53248444236 0.678586987691 -172.217109638 0.00092724226495 -132.967151949 0.621372889508 -141.598389454 0.621156449123 38.2794597939 0.000927242264951 -132.967151949 0.477555795811 65.3944477863
10.75 0.104773325993 -16.5305887523 0.576834525084 4.16650748471 0.520632225767 1.55794017717 0.620666228802 -144.189647225 0.576834525084 4.16650748471 0.106678683924 -16.5284124183 0.520502473097 1.46711182673 0.620450453935 35.6889675863 0.520632225767 1.55794017717 0.520502473097 1.46711182673 0.676770569585 -177.976692987 0.000930555454001 -137.66955723 0.620666228802 -144.189647225 0.620450453935 35.6889675863 0.000930555454002 -137.669557229 0.479388986802 62.8627397251
10.775 0.102540595738 -18.6554654776 0.576918360369 1.70088292961 0.521831672451 -2.51705669634 0.619953498067 -146.778733903 0.576918360369 1.70088292961 0.104454692859 -18.6440881544 0.521707040157 -2.60878009401 0.619738807272 33.1006614596 0.521831672451 -2.51705669634 0.521707040157 -2.60878009401 0.674916746425 176.23010808 0.000933596223453 -142.398304326 0.619953498067 -146.778733903 0.619738807272 33.1006614596 0.000933596223454 -142.398304326 0.481228219589 60.3319009194
10.8 0.100276509544 -20.7323129765 0.576988360556 -0.756420134355 0.523046364658 -6.60316956512 0.619234654484 -149.365701234 0.576988360556 -0.756420134356 0.10219843098 -20.7120549005 0.522926698943 -6.6958266914 0.61902147249 30.5144871859 0.523046364658 -6.60316956512 0.522926698943 -6.6958266914 0.673029949866 170.401388915 0.000936345154072 -147.153837985 0.619234654484 -149.365701234 0.61902147249 30.5144871859 0.000936345154073 -147.153837985 0.483073475211 57.8018863328
10.825 0.0979835348324 -22.7553117951 0.577046864337 -3.20512168306 0.524272783341 -10.7010408828 0.618509656985 -151.950600824 0.577046864337 -3.20512168306 0.0999123553126 -22.7266432086 0.52415791018 -10.7946697811 0.618298412237 27.9303906197 0.524272783341 -10.7010408828 0.52415791018 -10.7946697811 0.671115248132 164.535215065 0.000938782205357 -151.936619222 0.618509656985 -151.950600824 0.618298412237 27.9303906197 0.000938782205358 -151.936619222 0.484924732548 55.2726511292
10.85 0.0956647583774 -24.7179501738 0.577096506437 -5.6449385093 0.525507036784 -14.8113185757 0.617778466389 -154.533484188 0.577096506437 -5.6449385093 0.0975995467973 -24.6815202845 0.525396761518 -14.905956525 0.617569588469 25.3483176754 0.525507036784 -14.8113185757 0.525396761518 -14.905956525 0.669178398945 158.629627148 0.000940886700263 -156.747125385 0.617778466389 -154.533484188 0.617569588469 25.3483176754 0.000940886700263 -156.747125385 0.486781968163 52.7441506641
10.875 0.0933239892184 -26.6129505114 0.577140239765 -8.07558597017 0.526744838423 -18.934654779 0.617041045536 -157.114402792 0.577140239765 -8.07558597017 0.0952638120922 -26.5696216771 0.526638945396 -19.0303381637 0.616834962484 22.7682143044 0.526744838423 -18.934654779 0.526638945396 -19.0303381637 0.66722590464 152.682646755 0.000942637313931 -161.5858502 0.617041045536 -157.114402792 0.616834962484 22.7682143044 0.000942637313931 -161.5858502 0.488645156138 50.2163404752
10.9 0.0909658781134 -28.432194984 0.577181358123 -10.4967800776 0.52798148423 -23.0717043847 0.61629735942 -159.693408098 0.577181358123 -10.4967800776 0.0929098012909 -28.3830828197 0.527879736468 -23.1684685613 0.616094494973 20.190026473 0.52798148423 -23.0717043847 0.527879736468 -23.1684685613 0.665265068944 146.692283549 0.000944012066814 -166.453303771 0.61629735942 -159.693408098 0.616094494973 20.190026473 0.000944012066812 -166.453303771 0.490514267886 47.6891762721
10.925 0.0885960555649 -30.1666544683 0.577223519227 -12.9082399716 0.529211829847 -27.2231233845 0.615547375329 -162.270551618 0.577223519227 -12.9082399716 0.0905431434104 -30.1131744906 0.529113968798 -27.3210025449 0.615348146093 17.6137001389 0.529211829847 -27.2231233845 0.529113968798 -27.3210025449 0.663304054775 140.656543691 0.000944988322527 -171.350012561 0.615547375329 -162.270551618 0.615348146094 17.6137001389 0.000944988322524 -171.350012561 0.492389271952 45.1626139253
10.95 0.0862212902871 -31.8063272725 0.577270767695 -15.3096908169 0.530430267744 -31.3895669886 0.614791062973 -164.845884957 0.577270767695 -15.3096908169 0.0881706013001 -31.7502484699 0.530336013073 -31.4885940202 0.614595875558 15.0391812287 0.530430267744 -31.3895669886 0.530336013073 -31.4885940202 0.661351942159 134.573439764 0.000945542790818 -176.276519327 0.614791062973 -164.845884957 0.614595875558 15.0391812287 0.000945542790813 -176.276519327 0.49427013379 42.6366094537
10.975 0.0838496695037 -33.3401974848 0.577327557582 -17.7008671624 0.531630704697 -35.571687502 0.614028394613 -167.419459877 0.577327557582 -17.7008671624 0.0858002471194 -33.283702745 0.531539754161 -35.6718938443 0.613837642756 12.4664156135 0.531630704697 -35.571687502 0.531539754161 -35.6718938443 0.65941878516 128.441002373 0.000945651536067 178.766617018 0.614028394613 -167.419459877 0.613837642756 12.4664156135 0.00094565153606 178.766617018 0.496156815522 40.1111190117
11 0.0814908014747 -34.7562272686 0.577398773965 -20.0815168025 0.532806539968 -39.7701319385 0.613259345193 -169.991328342 0.577398773965 -20.0815168025 0.083441658531 -34.7019797812 0.532718569364 -39.8715474364 0.6130734069 9.89534908521 0.532806539968 -39.7701319385 0.532718569364 -39.8715474364 0.657515666442 122.257293582 0.000945289991881 173.778821651 0.613259345193 -169.991328342 0.6130734069 9.89534908521 0.000945289991873 173.77882165 0.498049275673 37.5860988749
11.025 0.0791560388822 -36.0414033978 0.57748975293 -22.4514051734 0.533950644621 -43.9855393556 0.612483892454 -172.561542589 0.57748975293 -22.4514051734 0.0811061340171 -35.9926168115 0.533865307831 -44.08819211 0.612303127208 7.32592733061 0.533950644621 -43.9855393556 0.533865307831 -44.08819211 0.655654747764 116.020422374 0.000944432982537 168.759504263 0.612483892454 -172.561542589 0.612303127208 7.32592733061 0.000944432982527 168.759504263 0.499947468885 35.0615054244
11.05 0.0768587187733 -37.1818658313 0.577606299248 -24.8103203126 0.535055342479 -48.2185378919 0.611702017055 -175.130155177 0.577606299248 -24.8103203126 0.0788069228982 -37.1423738682 0.534972271617 -48.3224541065 0.611526763114 4.75809590535 0.535055342479 -48.2185378919 0.534972271617 -48.3224541065 0.653849314374 109.728562303 0.000943054752312 163.708059751 0.611702017055 -175.130155177 0.611526763114 4.75809590535 0.000943054752301 163.70805975 0.501851345595 32.5372951303
11.075 0.0746144102131 -38.1631549265 0.577754700857 -27.1580783992 0.536112393322 -52.4697414915 0.610913702683 -177.697219064 0.577754700857 -27.1580783992 0.0765594612997 -38.1374731148 0.536031198992 -52.5749453166 0.610744274531 2.19180020609 0.536112393322 -52.4697414915 0.536031198992 -52.5749453166 0.652113810901 103.37997148 0.000941129004163 158.623869263 0.610913702683 -177.697219064 0.610744274531 2.19180020609 0.000941129004152 158.623869263 0.503760851696 30.0134245333
11.1 0.0724411540972 -38.970623026 0.577941739164 -29.4945298794 0.53711297898 -56.7397463016 0.610118936147 179.737212335 0.577941739164 -29.4945298794 0.0743815990139 -38.9639910315 0.537033250666 -56.8462596748 0.609955622148 -0.373014558765 0.53711297898 -56.7397463016 0.537033250666 -56.8462596748 0.650463865937 96.9730150311 0.000938628949708 153.506301758 0.610118936147 179.737212335 0.609955622148 -0.373014558762 0.000938628949696 153.506301758 0.505675928157 27.4898502252
11.125 0.0703596702837 -39.5900634155 0.578174694046 -31.8195661635 0.53804769308 -61.0291267336 0.609317707477 177.173085073 0.578174694046 -31.8195661635 0.0722937935567 -39.6084511671 0.53796899968 -61.1369692173 0.609160767785 -2.93640340023 0.53804769308 -61.0291267336 0.53796899968 -61.1369692173 0.648916302104 90.5061900943 0.000935527373091 148.354716194 0.609317707477 177.173085073 0.609160767785 -2.93640340023 0.000935527373081 148.354716194 0.507596510614 24.9665288283
11.15 0.0683934952013 -40.00861094 0.578461342295 -34.1331268578 0.538906535287 -65.3384311803 0.60851001 174.610344595 0.578461342295 -34.1331268578 0.0703192366668 -40.0586658369 0.538828425798 -65.4476197952 0.6083596748 -5.49842158199 0.538906535287 -65.3384311803 0.538828425798 -65.4476197952 0.647489127984 83.9781534017 0.000931796712082 143.168464542 0.60851001 174.610344595 0.6083596748 -5.49842158198 0.000931796712074 143.168464542 0.50952252892 22.443416972
11.175 0.0665689991188 -40.2159572587 0.578809948179 -36.4352074667 0.539678910935 -69.6681773886 0.607695840411 172.048935666 0.578809948179 -36.4352074667 0.0684838657349 -40.3048645568 0.53960091531 -69.7787264445 0.607552308561 -8.05912465605 0.539678910935 -69.6681773886 0.53960091531 -69.7787264445 0.646201507949 77.3877513739 0.00092740916055 137.946895786 0.607695840411 172.048935666 0.607552308561 -8.05912465605 0.000927409160547 137.946895786 0.511453906657 19.9204712696
11.2 0.0649152185594 -40.2058909089 0.579229244699 -38.7258674684 0.54035363705 -74.0188474917 0.606875198827 169.488802286 0.579229244699 -38.7258674684 0.0668162002539 -40.3411174675 0.540275267247 -74.1307684149 0.606738636985 -10.6185685012 0.54035363705 -74.0188474917 0.540275267247 -74.1307684149 0.645073705556 70.73405259 0.000922336797389 132.689361103 0.606875198827 169.488802286 0.606738636985 -10.6185685012 0.000922336797392 132.689361103 0.513390560605 17.3976482919
11.225 0.0634634305072 -39.9781087339 0.579728404084 -41.0052386239 0.540918955804 -78.3908827153 0.606048088826 166.929887608 0.579728404084 -41.0052386239 0.0653469354288 -40.1670056061 0.540839707033 -78.5041838718 0.605918631153 -13.1768093642 0.540918955804 -78.3908827153 0.540839707033 -78.5041838718 0.644126996007 64.0163823577 0.00091655174784 127.395220408 0.606048088826 166.929887608 0.605918631153 -13.1768093642 0.00091655174785 127.395220408 0.515332400162 14.87490454
11.25 0.0622463983372 -39.5401463518 0.580316996145 -43.2735333427 0.54136255649 -82.7846777767 0.605214517473 164.372133849 0.580316996145 -43.2735333428 0.0641082280384 -39.7894028556 0.541281908683 -82.8993642924 0.605092266012 -15.7339039048 0.54136255649 -82.7846777767 0.541281908683 -82.8993642924 0.643383543061 57.234358975 0.000910026384013 122.063850415 0.605214517473 164.372133849 0.605092266012 -15.7339039048 0.000910026384032 122.063850415 0.517279326718 12.3521964163
11.275 0.0612972438188 -38.9091503719 0.581004933183 -45.5310528765 0.541671607137 -87.2005750111 0.604374495322 161.815482199 0.581004933182 -45.5310528766 0.0631326314292 -39.2241244609 0.541589026643 -87.316648588 0.604259521164 -18.289909244 0.541671607137 -87.2005750111 0.541589026643 -87.316648588 0.642866235908 50.3879311123 0.000902733572094 116.694654348 0.604374495322 161.815482199 0.604259521164 -18.289909244 0.000902733572124 116.694654348 0.519231232963 9.82948019356
11.3 0.0606479524023 -38.113096565 0.581802400375 -47.7781950672 0.541832796848 -91.6388582672 0.603528036403 159.259872727 0.581802400375 -47.7781950672 0.0624516837172 -38.4970914841 0.541747738386 -91.7563169963 0.603420381768 -20.8448830164 0.541832796848 -91.6388582672 0.541747738386 -91.7563169963 0.642598481884 43.4774155735 0.000894646974097 111.287073371 0.603528036403 159.259872727 0.603420381768 -20.8448830164 0.000894646974139 111.28707337 0.521188002155 7.30671198293
11.325 0.0603275998218 -37.1910046205 0.582719770914 -50.0154613313 0.541832389946 -96.09974663 0.602675158185 156.705244283 0.582719770914 -50.0154613313 0.0620942258178 -37.6446088183 0.541744298806 -96.2185847999 0.602574839544 -23.398883427 0.541832389946 -96.09974663 0.541744298806 -96.2185847999 0.642603951573 36.5035345156 0.000885741412014 105.840599724 0.602675158185 156.705244283 0.602574839544 -23.398883427 0.000885741412068 105.840599723 0.523149507305 4.78384769957
11.35 0.0603604818979 -36.1917791026 0.583767505602 -52.243462522 0.541656292855 -100.58338804 0.601815881517 154.151534393 0.583767505601 -52.243462522 0.0620846114165 -36.7124146791 0.541564607385 -100.703595943 0.601722893906 -25.9519693123 0.541656292855 -100.58338804 0.541564607385 -100.703595943 0.642906273879 29.4674510361 0.000875993301585 100.354791452 0.601815881517 154.151534393 0.601722893906 -25.9519693124 0.00087599330165 100.354791451 0.52511561031 2.2608430274
11.375 0.060764405331 -35.1715541 0.584956037226 -54.4629232831 0.541290134573 -105.0898529 0.60095023054 151.598679156 0.584956037226 -54.4629232832 0.062441042855 -35.7533662583 0.541194288926 -105.211416631 0.600864553233 -28.5042002067 0.541290134573 -105.0898529 0.541194288926 -105.211416631 0.643528680097 22.3708018875 0.000865381161515 94.8292884664 0.60095023054 151.598679156 0.600864553233 -28.5042002067 0.000865381161587 94.8292884654 0.527086161005 -0.262346617919
11.4 0.0615494176503 -34.1897941177 0.586295640769 -56.6746844956 0.540719361318 -109.619127757 0.600078232579 149.046613132 0.586295640768 -56.6746844957 0.0631742917799 -34.8239503724 0.540618788498 -109.742029015 0.599999836286 -31.0556364133 0.540719361318 -109.619127757 0.540618788498 -109.742029015 0.644493597872 15.2157259664 0.000853886201667 89.2638295291 0.600078232579 149.046613132 0.599999836286 -31.0556364133 0.000853886201743 89.2638295278 0.52906099614 -2.78576612721
11.425 0.0627171953218 -33.3047746953 0.587796291351 -58.8797034281 0.539929345732 -114.171109202 0.599199918001 146.49526923 0.58779629135 -58.8797034281 0.0642870179346 -33.9801432867 0.539823480913 -114.295325085 0.599128773796 -33.6063390808 0.539929345731 -114.171109202 0.539823480913 -114.295325085 0.645822198241 8.00488717047 0.000841492990347 83.6582695411 0.599199918 146.49526923 0.599128773796 -33.6063390808 0.00084149299042 83.6582695397 0.531039938275 -5.30946073726
11.45 0.0642611791948 -32.5692677159 0.589467512753 -61.0790512366 0.538905510623 -118.745598091 0.598315320041 143.944578592 0.589467512753 -61.0790512366 0.0657737877453 -33.2733477825 0.538793794749 -118.871100885 0.598251410223 -36.1563702853 0.538905510623 -118.745598091 0.538793794749 -118.871100885 0.647533901627 0.741490233413 0.00082819019625 78.0125963228 0.598315320041 143.944578592 0.598251410223 -36.1563702853 0.000828190196311 78.0125963215 0.533022794586 -7.83347607127
11.475 0.0661673895612 -32.0271888407 0.591318220346 -63.2739075274 0.537633466899 -123.342294254 0.597424474604 141.394470469 0.591318220346 -63.2739075274 0.0676217516831 -32.7471107884 0.537515350543 -123.469051226 0.597367805721 -38.7057931179 0.537633466899 -123.342294254 0.537515350543 -123.469051226 0.649645851621 -6.57071174299 0.000813971394946 72.3269458331 0.597424474604 141.394470469 0.597367805721 -38.7057931179 0.000813971394983 72.3269458322 0.535009355577 -10.3578581801
11.5 0.0684157259077 -31.7116619861 0.593356563206 -65.4655517932 0.53609916481 -127.960791838 0.596527420022 138.8448721 0.593356563206 -65.4655517932 0.0698118160781 -32.4350836519 0.535974112287 -128.088765025 0.596478038316 -41.2546717774 0.53609916481 -127.960791838 0.535974112287 -128.088765025 0.652172368557 -13.9274191384 0.000798835923068 66.6016145602 0.596527420022 138.8448721 0.596478038316 -41.2546717774 0.000798835923068 66.6016145603 0.536999393695 -12.8826535841
