! Generated from PyAEDT SolutionData; AEDT ExportNetworkData workaround
# GHz S MA R 50
9 0.218449803142 157.692307823 0.53460750123 -171.263528193 0.483102956283 -73.7188572696 0.658092726572 45.9688217676 0.53460750123 -171.263528193 0.217582717435 157.680676289 0.483289444749 -73.6733502058 0.658243035129 -133.977708041 0.483102956283 -73.7188572696 0.483289444749 -73.6733502058 0.730097662237 -147.268749114 0.000499821756945 -31.6928512566 0.658092726572 45.9688217676 0.658243035129 -133.977708041 0.000499821756944 -31.6928512566 0.365554127477 -114.66080023
9.025 0.21663065902 155.000125844 0.535207886791 -174.072549478 0.48379595713 -77.9654993308 0.657697957606 43.0617319602 0.53520788679 -174.072549478 0.21577177255 154.986582892 0.483986914409 -77.9195586935 0.657839811157 -136.885180428 0.483795957191 -77.9654993293 0.483986914465 -77.9195586921 0.729174554649 -153.042275 0.000502934940201 -36.5714223916 0.657697957621 43.0617319592 0.657839811153 -136.885180427 0.000502934938789 -36.5714222461 0.36698774243 -117.378759095
9.05 0.214832249077 152.319345221 0.535822530448 -176.873887427 0.48445899845 -82.2053217762 0.657299751572 40.1626334611 0.535822530446 -176.873887427 0.213982203203 152.303940053 0.484654558875 -82.1589307026 0.657432896685 -139.784681324 0.484458998546 -82.2053217739 0.484654558963 -82.1589307006 0.728289312485 -158.811494952 0.00050593515922 -41.4477848828 0.657299751594 40.1626334596 0.657432896679 -139.784681323 0.000505935156938 -41.447784644 0.36842758061 -120.091770179
9.075 0.213054953334 149.649542375 0.536451669511 -179.667788884 0.485092216389 -86.4382552317 0.65689809929 37.2713721455 0.536451669509 -179.667788883 0.212214418609 149.632331729 0.485292521376 -86.3913971035 0.657022272586 -142.676359071 0.485092216501 -86.438255229 0.485292521479 -86.3913971011 0.727441944281 -164.575591784 0.000508815205645 -46.3210750465 0.656898099315 37.2713721438 0.65702227258 -142.67635907 0.000508815202919 -46.3210747563 0.369873613168 -122.799926605
9.1 0.211299034731 146.990299326 0.537095428062 177.545503002 0.485695851403 -90.6642354398 0.656492989103 34.3877982199 0.53709542806 177.545503003 0.210468709375 146.971347712 0.485901049572 -90.6168939391 0.656607918231 -145.560358769 0.485695851518 -90.6642354371 0.485901049677 -90.6168939367 0.72663231127 -170.333826965 0.000511568240026 -51.1904576778 0.656492989128 34.3877982181 0.656607918225 -145.560358768 0.00051156823718 -51.1904573693 0.371325813805 -125.503319717
9.125 0.209564652329 144.341202923 0.537753822757 174.765749527 0.486270247857 -94.8832032956 0.656084407295 31.5117659714 0.537753822755 174.765749527 0.208745260696 144.320582848 0.486480495115 -94.8353624608 0.656189811642 -148.436822321 0.486270247965 -94.8832032931 0.486480495215 -94.8353624586 0.725860128496 -176.085534272 0.000514187790226 -56.0551227881 0.656084407317 31.5117659698 0.656189811637 -148.43682232 0.000514187787496 -56.0551224863 0.372784158602 -128.202039127
9.15 0.207851872068 141.701843883 0.538426768606 171.992717111 0.486815853101 -99.0951049528 0.655672338425 28.64313354 0.538426768605 171.992717111 0.207044163122 141.679636076 0.487031312693 -99.0467492346 0.655767929629 -151.305888489 0.486815853197 -99.0951049506 0.487031312781 -99.0467492327 0.725124966316 178.16988628 0.000516667747899 -60.9142822196 0.655672338444 28.6431335386 0.655767929624 -151.305888488 0.000516667745446 -60.9142819429 0.374248625868 -130.896172757
9.175 0.206160675237 139.071815752 0.539114084721 169.226177909 0.487333216053 -103.299891994 0.655256765598 25.7817627111 0.53911408472 169.226177909 0.20536542102 139.04810938 0.487554058573 -103.25100631 0.655342247927 -154.167692949 0.487333216133 -103.299891992 0.487554058646 -103.251006309 0.724426252258 172.432974149 0.000519002363598 -65.767166168 0.655256765613 25.78176271 0.655342247923 -154.167692948 0.00051900236152 -65.7671659284 0.375719195986 -133.585806884
9.2 0.204490964851 136.450713884 0.539815499996 166.465910352 0.487822985282 -107.497521652 0.654837670668 22.9275187274 0.539815499995 166.465910352 0.20370895895 136.425606751 0.488049388656 -107.448091444 0.654912741317 -157.022368356 0.487822985345 -107.497521651 0.488049388713 -107.448091443 0.723763273293 166.704213528 0.000521186241043 -70.6130196409 0.65483767068 22.9275187265 0.654912741314 -157.022368356 0.000521186239389 -70.6130194457 0.377195851262 -136.271026189
9.225 0.202842570201 133.838134531 0.540530658713 163.711699623 0.488285906629 -111.687957079 0.654415034402 20.080270117 0.540530658712 163.711699623 0.202074626204 133.811733271 0.488518056063 -111.637968364 0.654479383745 -159.870044408 0.488285906675 -111.687957078 0.488518056105 -111.637968363 0.723135178511 160.984038127 0.000523214331058 -75.4510988817 0.654415034411 20.0802701163 0.654479383743 -159.870044407 0.000523214329835 -75.451098734 0.378678575784 -138.951913801
9.25 0.201215249906 131.233674123 0.541259126057 160.963338082 0.488722820377 -115.871167651 0.653988836601 17.2398885366 0.541259126056 160.963338082 0.200462199839 131.206094369 0.488960908278 -115.820607077 0.65404214843 -162.710847912 0.488722820408 -115.871167651 0.488960908306 -115.820607077 0.72254098224 155.272835431 0.000525081925627 -80.2806677824 0.653988836606 17.2398885362 0.654042148429 -162.710847912 0.000525081924814 -80.2806676817 0.380167355285 -141.628551343
9.275 0.199608693764 128.63692879 0.542000393518 158.220625623 0.489134658004 -120.047129297 0.653559056186 14.4062486286 0.542000393518 158.220625623 0.198871386504 128.608295328 0.489378883864 -119.995984197 0.65360100797 -165.544902859 0.489134658021 -120.047129297 0.489378883879 -119.995984197 0.721979567618 149.570950425 0.000526784652479 -85.1009943077 0.653559056189 14.4062486284 0.653601007969 -165.544902859 0.000526784652033 -85.1009942511 0.381662177002 -144.301018983
9.3 0.198022523768 126.047494158 0.542753884186 155.483369986 0.489522438543 -124.215824855 0.65312567127 11.5792278895 0.542753884185 155.483369986 0.197301823413 126.017941063 0.489773008798 -124.164083297 0.65315593443 -168.372330489 0.489522438548 -124.215824854 0.489773008803 -124.164083297 0.721449690642 143.87868877 0.000528318470559 -89.9113469511 0.65312567127 11.5792278894 0.65315593443 -168.372330489 0.000528318470425 -89.9113469338 0.383163029553 -146.969395474
9.325 0.19645629457 123.464965451 0.543518957915 152.75138702 0.489887264587 -128.377244432 0.652688659193 8.7587065491 0.543518957915 152.75138702 0.195753078766 123.434636202 0.490144392455 -128.324895275 0.652706899443 -171.193249369 0.489887264583 -128.377244433 0.490144392451 -128.324895275 0.7209499847 138.196319466 0.000529679666683 -94.7109912357 0.652688659192 8.75870654915 0.652706899443 -171.193249369 0.000529679666798 -94.7109912516 0.384669902804 -149.633758206
9.35 0.194909493714 120.888937882 0.54429491636 150.024500895 0.490230317981 -132.531385786 0.652247996559 5.94456745998 0.54429491636 150.024500895 0.194224651913 120.857985458 0.490494223261 -132.478418723 0.652253874283 -174.00777546 0.490230317971 -132.531385786 0.490494223251 -132.478418723 0.720478965582 132.524077003 0.000530864853602 -99.4991862733 0.652247996558 5.94456746012 0.652253874284 -174.00777546 0.000530864853902 -99.4991863155 0.386182787751 -152.294183245
9.375 0.193381541852 118.319007338 0.545081007877 147.30254427 0.490552855224 -136.678254685 0.65180365925 3.13669599437 0.545081007877 147.30254427 0.192715973492 118.287594293 0.490823764079 -136.624660302 0.651796829953 -176.816022198 0.490552855209 -136.678254685 0.490823764065 -136.624660303 0.720035036973 126.862163039 0.000531870969695 -104.275181387 0.651803659248 3.13669599455 0.651796829953 -176.816022198 0.000531870970119 -104.275181448 0.387701676402 -154.950745384
9.4 0.191871793164 115.754771303 0.545876432273 144.585358429 0.49085620263 -140.817865286 0.651355622434 0.334979949196 0.545876432273 144.585358429 0.191226405769 115.723069825 0.491134347346 -140.763635103 0.651335737251 -179.618100558 0.490856202613 -140.817865286 0.49113434733 -140.763635104 0.719616496396 121.210747655 0.000532695280402 -109.0382128 0.651355622431 0.334979949408 0.651335737252 -179.618100558 0.000532695280895 -109.038212873 0.389226561659 -157.603518179
9.425 0.190379536127 113.195830001 0.546680345423 141.872793369 0.491141751295 -144.950240484 0.650903860565 -2.46069054239 0.546680345423 141.872793369 0.189755243295 113.164021958 0.491427370011 -144.895367005 0.650870566847 177.585880866 0.491141751277 -144.950240484 0.491427369994 -144.895367006 0.71922154158 115.569970209 0.000533335381532 -113.787500391 0.650903860562 -2.46069054217 0.650870566848 177.585880866 0.000533335382045 -113.787500471 0.390757437211 -160.252574
9.45 0.188903994717 110.641787716 0.547491863727 139.164707861 0.491410951887 -149.07541226 0.650448347385 -5.25042309359 0.547491863727 139.164707861 0.188301714004 110.61006468 0.491704288311 -149.019889018 0.650401289339 174.795815794 0.49141095187 -149.07541226 0.491704288295 -149.019889018 0.718848277216 109.939939859 0.00053378920449 -118.52224451 0.650448347383 -5.25042309339 0.65040128934 174.795815794 0.000533789204984 -118.522244589 0.392294297426 -162.897984063
9.475 0.187444330114 108.092254221 0.54831006842 136.460969476 0.491665309326 -153.193422002 0.649989055917 -8.03432314131 0.54831006842 136.460969476 0.1868649808 108.060817491 0.491966612423 -153.137243601 0.649927875321 172.011600187 0.49166530931 -153.193422002 0.491966612408 -153.137243601 0.718494722048 104.320735791 0.000534055023499 -123.241622835 0.649989055915 -8.03432314112 0.649927875322 172.011600187 0.000534055023945 -123.24162291 0.39383713725 -165.539818478
9.5 0.185999642904 105.5468463 0.549134009721 133.761454583 0.491906377369 -157.304320812 0.649525958459 -10.8124940188 0.549134009722 133.761454583 0.185444143635 105.515906902 0.492215901035 -157.247482972 0.649450295435 169.233132177 0.491906377355 -157.304320813 0.492215901022 -157.247482972 0.718158816246 98.7124072033 0.000534131464845 -127.94478728 0.649525958457 -10.8124940186 0.649450295436 169.233132177 0.000534131465223 -127.944787346 0.395385952103 -168.178146282
9.525 0.184568975771 103.005189289 0.549962710836 131.066048321 0.492135753153 -161.408169789 0.649059026576 -13.5850370243 0.549962710836 131.066048321 0.18403824207 102.974967981 0.492453755867 -161.350669383 0.648968520426 166.460312 0.492135753142 -161.408169789 0.492453755857 -161.350669383 0.717838428987 93.1149730996 0.000534017518188 -132.630860906 0.649059026574 -13.5850370242 0.648968520427 166.460312 0.000534017518487 -132.630860961 0.396940737792 -170.81303548
9.55 0.183151316607 100.466918627 0.55079517179 128.374644546 0.49235507172 -165.505040281 0.648588231096 -16.3520514859 0.55079517179 128.374644546 0.18264625827 100.437645894 0.492681816182 -165.446875376 0.648482521191 163.693041927 0.492355071712 -165.505040282 0.492681816174 -165.446875376 0.717531366198 87.5284219339 0.000533712549986 -137.298934853 0.648588231095 -16.3520514858 0.648482521191 163.693041927 0.000533712550201 -137.298934894 0.398501490412 -173.44455308
9.575 0.181745602004 97.9316813655 0.551630373106 125.687145757 0.492566000567 -169.595014123 0.648113542104 -19.1136348234 0.551630373106 125.687145757 0.181267120359 97.9035974057 0.492901753311 -169.536184013 0.647992268824 160.931226198 0.492566000561 -169.595014123 0.492901753306 -169.536184013 0.717235378363 81.9527111506 0.000533216319096 -141.948065236 0.648113542104 -19.1136348233 0.647992268825 160.931226198 0.000533216319231 -141.948065263 0.400068206262 -176.072765129
9.6 0.180350721017 95.3991376109 0.552467279326 123.003463008 0.492770234235 -173.678183837 0.64763492894 -21.8698826068 0.552467279326 123.003463008 0.179899706067 95.3724923289 0.493115265238 -173.618689078 0.647497734662 158.17477096 0.492770234233 -173.678183837 0.493115265235 -173.618689078 0.716948168346 76.387766659 0.000532528994656 -146.577270025 0.64763492894 -21.8698826068 0.647497734662 158.17477096 0.000532528994718 -146.577270038 0.401640881764 -178.697736744
9.625 0.178965519137 92.8689618993 0.553304842364 120.323515796 0.492969488986 -177.754652814 0.647152360195 -24.6208886131 0.553304842364 120.323515796 0.178542846592 92.8440148927 0.493324071249 -177.694495256 0.646998890319 155.423584199 0.492969488986 -177.754652814 0.493324071249 -177.694495256 0.716667399148 70.8334822782 0.000531651176366 -151.185525857 0.647152360195 -24.6208886131 0.646998890319 155.423584199 0.000531651176366 -151.185525857 0.403219513376 178.680467854
9.65 0.177588802392 90.340844471 0.554142004703 117.647231941 0.493165497569 178.17546453 0.646665803711 -27.3667448797 0.554142004703 117.647231941 0.177195330587 90.317865019 0.493529906691 178.236281717 0.646495707731 152.677575684 0.493165497571 178.17546453 0.493529906693 178.236281717 0.716390701539 65.2897191806 0.000530583917347 -155.771764785 0.646665803711 -27.3667448797 0.646495707731 152.677575684 0.000530583917298 -155.771764773 0.404804097523 176.061785309
9.675 0.176219341484 87.8144924508 0.554977702432 114.974547458 0.493360004106 174.112042633 0.646175226588 -30.1075417564 0.554977702432 114.974547458 0.175855908199 87.7937595032 0.493734517846 174.173514932 0.645988159182 149.936656904 0.49336000411 174.112042633 0.493734517849 174.173514932 0.716115681495 59.7563053597 0.000529328749799 -160.334870949 0.646175226588 -30.1075417564 0.645988159182 149.936656904 0.000529328749715 -160.334870928 0.40639463052 173.446153103
9.7 0.17485587591 85.2896309307 0.555810868124 112.30540641 0.493554759124 170.054944673 0.645680595183 -32.8433679557 0.555810868124 112.30540641 0.174523295099 85.271433098 0.493939656941 170.117066197 0.645476217341 147.200741011 0.493554759129 170.054944673 0.493939656945 170.117066197 0.715839927401 54.2330351425 0.00052788771372 -164.87367716 0.645680595183 -32.8433679558 0.645476217341 147.200741011 0.000527887713615 -164.873677131 0.407991108506 170.833509524
9.725 0.173497117988 82.7660039598 0.556640433556 109.639760764 0.49375151472 166.004022491 0.645181875119 -35.5743106009 0.556640433556 109.639760764 0.173196176435 82.7506395035 0.494147077307 166.066785965 0.644959855284 144.469742762 0.493751514726 166.004022491 0.494147077312 166.066785965 0.715561016955 48.7196687597 0.000526263389028 -169.3869614 0.64518187512 -35.574310601 0.644959855284 144.469742762 0.000526263388914 -169.386961366 0.40959352738 168.223793642
9.75 0.172141756763 80.2433754489 0.557465332276 106.977570238 0.493952019899 161.959116529 0.644679031297 -38.3004552728 0.557465332276 106.977570238 0.171873210661 80.2311522735 0.494358528703 162.02251327 0.644439046526 141.743578464 0.493952019905 161.959116529 0.494358528707 162.02251327 0.715276523745 43.2159319863 0.000524458931441 -173.873443257 0.644679031297 -38.3004552729 0.644439046526 141.743578464 0.000524458931329 -173.873443221 0.411201882735 165.616945284
9.775 0.170788461728 77.7215300026 0.558284502028 104.318802151 0.494158016066 157.920055783 0.644172027901 -41.0218860552 0.558284502028 104.318802151 0.170553033205 77.712765647 0.494575752794 157.984075692 0.643913765037 139.022165921 0.494158016071 157.920055783 0.494575752798 157.984075692 0.714984023477 37.7215158555 0.00052247811257 -178.331780317 0.644172027901 -41.0218860552 0.643913765037 139.022165921 0.000522478112468 -178.331780281 0.412816169808 163.012905006
9.8 0.169435886343 75.2002736917 0.55909688702 101.663431268 0.494371232688 153.88665778 0.643660828418 -43.7386855787 0.55909688702 101.663431268 0.169234259949 75.1952953206 0.494800478806 153.951289328 0.643383985265 136.30542438 0.494371232693 153.88665778 0.49480047881 153.951289328 0.714681099816 32.2360764495 0.000520325364686 177.239435445 0.643660828419 -43.7386855787 0.643383985265 136.30542438 0.0005203253646 177.239435478 0.414436383422 160.411614076
9.825 0.168082671337 72.6794347818 0.559901440068 99.0114396492 0.494593383124 149.858728564 0.64314539565 -46.4509350638 0.559901440068 99.0114396493 0.167915490489 72.6785791771 0.495034419339 149.923958787 0.642849682148 133.593274482 0.494593383128 149.858728564 0.495034419343 149.923958787 0.714365349851 26.7592347631 0.000518005830693 172.841681206 0.64314539565 -46.4509350639 0.642849682148 133.593274482 0.000518005830625 172.841681235 0.416062517937 157.813014444
9.85 0.166727447762 70.1588644367 0.5606971246 96.3628165089 0.494826160612 145.836062695 0.642625691731 -49.1587143626 0.5606971246 96.3628165089 0.166595311186 70.1624779862 0.495279266349 145.901877192 0.642310831132 130.885638211 0.494826160615 145.836062695 0.495279266351 145.901877192 0.71403438917 21.2905766368 0.000515525419854 168.476506691 0.642625691732 -49.1587143626 0.642310831132 130.885638211 0.000515525419806 168.476506715 0.417694567206 155.217048729
9.875 0.165368839823 67.638437412 0.561482916544 93.7175580734 0.495071234409 141.818443258 0.642101678151 -51.8621019987 0.561482916544 93.7175580734 0.165272297973 67.646876098 0.495536687271 141.884826193 0.641767408176 128.182438844 0.495071234412 141.818443258 0.495536687273 141.884826193 0.71368585657 15.8296527489 0.000512890869855 164.145537297 0.642101678151 -51.8621019988 0.641767408176 128.182438844 0.000512890869824 164.145537315 0.419332524531 152.623660193
9.9 0.164005467449 65.1180527615 0.562257806103 91.0756674542 0.49533024608 137.805641882 0.641573315773 -54.561175208 0.562257806103 91.0756674542 0.163945018957 65.1316821462 0.495808321302 137.872575987 0.64121938976 125.483600909 0.495330246081 137.805641882 0.495808321303 137.872575987 0.713317418404 10.3759786583 0.000510109815778 159.850476804 0.641573315773 -54.561175208 0.64121938976 125.483600909 0.000510109815762 159.850476814 0.420976382626 150.032792727
9.925 0.162635948653 62.5976345736 0.563020799432 88.4371545286 0.495604805905 133.79741876 0.64104056486 -57.2560099761 0.563020799432 88.4371545286 0.162612036788 62.616829782 0.496095775798 133.864885346 0.640666752887 122.789050131 0.495604805906 133.79741876 0.496095775798 133.864885346 0.712926772606 4.9290348842 0.000507190866557 155.593109478 0.64104056486 -57.2560099761 0.640666752887 122.789050131 0.000507190866552 155.593109481 0.422626133578 147.444390829
9.95 0.161258901653 60.0771327593 0.563770920234 85.8020358339 0.495896489414 129.793522672 0.640503385101 -59.946681077 0.563770920234 85.8020358339 0.161271910832 60.1022784605 0.496400622794 129.861501642 0.640109475085 120.098713395 0.495896489413 129.793522672 0.496400622793 129.861501642 0.71251165243 -0.511732988444 0.000504143689453 151.375301334 0.640503385101 -59.946681077 0.640109475085 120.098713395 0.000504143689455 151.375301331 0.42428176882 144.858399588
9.975 0.159872946806 57.5565239133 0.56450721128 83.1703344762 0.496206834 125.793691014 0.639961735641 -62.6332621094 0.56450721128 83.1703344762 0.159923199153 57.5880142981 0.496724395612 125.86216088 0.639547534397 117.412518699 0.496206833999 125.793691014 0.496724395611 125.86216088 0.712069829934 -5.94691419393 0.00050097910299 147.19900026 0.639961735641 -62.6332621093 0.639547534397 117.412518699 0.000500979102995 147.199000251 0.425943279102 142.274764671
10 0.158476708338 55.0358122706 0.565228735881 80.5420800548 0.496537335621 121.797649819 0.639415575106 -65.3158255329 0.565228735881 80.5420800548 0.158564460328 55.0740510273 0.497068585548 121.866587723 0.638980909379 114.730395108 0.496537335619 121.797649819 0.497068585547 121.866587723 0.711599119269 -11.3771326735 0.00049770917872 143.066234657 0.639415575106 -65.3158255329 0.638980909379 114.730395108 0.000497709178725 143.066234644 0.427610654463 139.693432304
10.025 0.157068815919 52.5150307813 0.565934579326 77.9173086041 0.496889445537 117.805113781 0.638864861643 -67.9944427036 0.565934579327 77.9173086041 0.157194255106 52.5604310696 0.497434638603 117.874495524 0.638409579084 112.052272719 0.496889445535 117.805113781 0.497434638602 117.874495524 0.711097379827 -16.8030469811 0.000494347352 138.979110169 0.638864861643 -67.9944427036 0.638409579084 112.052272719 0.000494347352001 138.979110152 0.429283884212 137.114349258
10.05 0.155647906093 49.9942423295 0.566623850314 75.2960625544 0.497264567083 113.815786268 0.638309552948 -70.6691839084 0.566623850314 75.2960625544 0.15581114795 50.0472267521 0.497823952243 113.885586337 0.637833523047 109.378082612 0.497264567081 113.815786268 0.497823952242 113.885586337 0.7105625193 -22.2253502195 0.00049090854176 134.939803996 0.638309552948 -70.6691839084 0.637833523047 109.378082612 0.000490908541756 134.939803977 0.430962956908 134.537462835
10.075 0.154212623585 47.4735411221 0.567295682383 72.6783907126 0.497664052434 109.829359335 0.637749606311 -73.340118399 0.567295682383 72.6783907126 0.15441370848 47.5345416968 0.498237872151 109.89955094 0.63725272127 106.707756819 0.497664052432 109.829359335 0.498237872149 109.89955094 0.70999249672 -27.6447700206 0.000487409278951 130.950556216 0.637749606311 -73.340118399 0.63725272127 106.707756819 0.000487409278941 130.950556197 0.432647860343 131.962720855
10.1 0.152761622529 44.9530542774 0.567949235395 70.0643482644 0.498089199332 105.845513728 0.637184978649 -76.0073144253 0.567949235395 70.0643482644 0.153000512845 45.0225124084 0.498677688948 105.91606884 0.63666715419 104.041228277 0.49808919933 105.845513728 0.498677688946 105.91606884 0.70938532555 -33.062068581 0.000483867842984 127.013657441 0.637184978649 -76.0073144253 0.63666715419 104.041228277 0.000483867842969 127.013657423 0.434338581532 129.390071647
10.125 0.151293567623 42.4329436441 0.568583697071 67.4539967977 0.498541247759 101.863918871 0.636615626551 -78.670839268 0.568583697071 67.4539967977 0.151570145055 42.5113100955 0.499144634851 101.934808269 0.636076802659 101.378430794 0.498541247757 101.863918871 0.499144634849 101.934808269 0.708739076889 -38.4780427626 0.000480304405002 123.131432042 0.636615626551 -78.670839268 0.636076802659 101.378430794 0.000480304404984 123.131432026 0.4360351067 126.819464027
10.15 0.149807135269 39.9134078863 0.569198284625 64.8474043498 0.499021376503 97.8842328599 0.636041506322 -81.330759271 0.569198284625 64.8474043498 0.150121198314 40.001142758 0.499639880229 97.9554261757 0.635481647912 98.719299011 0.499021376502 97.8842328599 0.499639880228 97.9554261757 0.708051882877 -43.893524268 0.000476741176215 119.306216116 0.636041506322 -81.3307592709 0.635481647912 98.719299011 0.000476741176196 119.306216102 0.437737421272 124.250847297
10.175 0.148301014714 37.3946848722 0.569792246526 62.2446454763 0.4995306996 93.9061024321 0.635462574032 -83.9871398728 0.569792246526 62.2446454763 0.14865227638 37.4922575813 0.500164530032 93.9775682058 0.634881671529 96.0637683646 0.499530699598 93.9061024321 0.500164530031 93.9775682058 0.707321940364 -49.3093798959 0.000473202558813 115.540329281 0.635462574032 -83.9871398728 0.634881671529 96.0637683646 0.000473202558795 115.540329271 0.43944550987 121.684171228
10.2 0.146773909241 34.8770544114 0.570364864413 59.6458013445 0.500070262596 89.9291629321 0.634878785562 -86.6400456384 0.570364864413 59.6458013445 0.147161994997 34.984943679 0.500719620044 90.0008686693 0.6342768554 93.4117750513 0.500070262596 89.9291629321 0.500719620044 90.0008686693 0.706547514946 -54.726511884 0.000469715296099 111.836039376 0.634878785562 -86.6400456384 0.6342768554 93.4117750513 0.000469715296086 111.836039369 0.441159356309 119.119386049
10.225 0.145224537452 32.3608413867 0.570915455217 57.0509598496 0.500641038619 85.953038266 0.634290096657 -89.2895402901 0.570915455217 57.0509598496 0.145648983451 32.479535234 0.501306112935 86.0249505004 0.633667181682 90.7632559926 0.500641038619 85.953038266 0.501306112935 86.0249505004 0.705726945426 -60.1458583402 0.000466308617447 108.195519126 0.634290096657 -89.2895402901 0.633667181682 90.7632559926 0.00046630861744 108.195519123 0.442878943589 116.556442438
10.25 0.143651634694 29.8464193378 0.571443373503 54.4602157542 0.501243924185 81.9773408463 0.633696462983 -91.9356867378 0.571443373503 54.4602157542 0.144111886289 29.9764150934 0.501924894059 82.0494252068 0.633052632751 88.1181488006 0.501243924185 81.9773408463 0.501924894059 82.0494252068 0.704858648814 -65.5683937651 0.000463014372536 104.620793946 0.633696462983 -91.9356867378 0.633052632751 88.1181488006 0.000463014372537 104.620793946 0.444604253902 113.995291513
10.275 0.142053954671 27.3342145571 0.571948014102 51.8736708497 0.501879734732 78.0016715262 0.633097840178 -94.5785471103 0.571948014102 51.8736708497 0.142549365259 27.476018878 0.502576766974 78.0738928085 0.632433191161 85.4763917441 0.501879734732 78.0016715262 0.502576766974 78.0738928085 0.703941125947 -70.9951296639 0.000459867148026 101.113680189 0.633097840178 -94.5785471103 0.632433191161 85.4763917441 0.000459867148036 101.113680192 0.446335268623 111.435884817
10.3 0.140430271324 24.8247107693 0.572428815053 49.2914341394 0.502549199809 74.0256195261 0.632494183916 -97.2181827854 0.572428815053 49.2914341394 0.14096010154 24.9788396784 0.503262448614 74.0979417692 0.631808839585 82.8379237159 0.50254919981 74.0256195261 0.503262448614 74.0979417692 0.702972967822 -76.4271152458 0.000456904358491 97.6757134928 0.632494183916 -97.2181827854 0.631808839585 82.8379237159 0.000456904358508 97.6757134969 0.44807196832 108.878174316
10.325 0.138779381031 22.3184544743 0.572885260913 46.7136220421 0.503252957905 70.0487623529 0.631885449966 -99.85465442 0.572885260913 46.7136220421 0.139342798333 22.4854334179 0.503982564102 70.1211489197 0.631179560768 80.2026842009 0.503252957905 70.0487623529 0.503982564102 70.1211489197 0.70195286277 -81.8654382044 0.000454166302087 94.3080672759 0.631885449966 -99.85465442 0.631179560768 80.2026842009 0.000454166302107 94.3080672805 0.449814332748 106.32211238
10.35 0.137100105209 19.8160610465 0.573316886477 44.1403586134 0.503991550838 66.0706657128 0.631271594254 -102.488021981 0.573316886477 44.1403586134 0.137696183886 19.9964249753 0.504737641125 66.1430793758 0.630545337465 77.5706132441 0.503991550838 66.0706657128 0.504737641126 66.1430793758 0.700879604546 -87.3112255738 0.000451696170238 91.0114621072 0.631271594254 -102.488021981 0.630545337465 77.5706132441 0.000451696170257 91.0114621112 0.451562340854 103.767651784
10.375 0.135391293427 17.3182216947 0.573723280964 41.5717757831 0.504765417689 62.0908834206 0.630652572928 -105.118344775 0.573723280964 41.5717757831 0.136019015058 17.5125151714 0.505528103851 62.1632864516 0.629906152392 74.9416514203 0.50476541769 62.0908834206 0.505528103851 62.1632864516 0.69975210148 -92.7656446501 0.000449539999737 87.7860674639 0.630652572928 -105.118344775 0.629906152392 74.9416514203 0.000449539999751 87.7860674665 0.453315970778 101.214745689
10.4 0.133651827108 14.8257114047 0.574104092717 39.0080136062 0.50557488821 58.1089573082 0.630028342426 -107.745681481 0.574104092717 39.0080136062 0.13431008152 15.0344887422 0.506354266315 58.1813115724 0.62926198816 72.3157398044 0.50557488821 58.1089573082 0.506354266315 58.1813115724 0.698569386802 -98.2299039668 0.000447746555265 84.6313984247 0.630028342426 -107.745681481 0.62926198816 72.3157398044 0.000447746555269 84.6313984252 0.455075199853 98.6633476395
10.425 0.13188062397 12.339398002 0.574459034474 36.4492205235 0.506420175662 54.1244171328 0.629398859543 -110.370090178 0.574459034474 36.4492205235 0.132568210733 12.563223436 0.507216325244 54.1966841879 0.628612827221 69.6928199418 0.506420175662 54.1244171328 0.507216325244 54.1966841879 0.697330630275 -103.705254311 0.00044636713073 81.5462110053 0.629398859543 -110.370090178 0.628612827221 69.6928199418 0.000446367130717 81.5462110033 0.456840004607 96.1134115509
10.45 0.130076643318 9.8602524957 0.574787889266 33.8955536281 0.507301369034 50.1367804911 0.628764081499 -112.991628381 0.574787889266 33.8955536281 0.130792273819 10.0997003956 0.508114352251 50.2089216899 0.627958651808 67.0728338202 0.507301369034 50.1367804911 0.508114352251 50.2089216899 0.696035151263 -109.192989763 0.000445455259217 78.528401099 0.628764081499 -112.991628381 0.627958651808 67.0728338202 0.000445455259183 78.5284010943 0.458610360758 93.5648917015
10.475 0.128238892382 7.38936088621 0.575090517003 31.3471789328 0.508218424588 46.1455527411 0.628123966009 -115.610353066 0.575090517003 31.3471789328 0.128981192529 7.64501600704 0.509048285365 46.2175293385 0.627299443875 64.4557238422 0.508218424587 46.1455527411 0.509048285364 46.2175293385 0.694682433409 -114.694448746 0.000445066324001 75.5749131926 0.628123966009 -115.610353066 0.627299443875 64.4557238422 0.000445066323944 75.5749131855 0.460386243215 91.0177427231
10.5 0.126366433861 4.92793764892 0.575366861807 28.8042716329 0.509171156674 42.1502269361 0.627478471353 -118.226320709 0.575366861807 28.8042716329 0.127133947462 5.20039542772 0.510017919818 42.2220002005 0.626635185044 61.8414327983 0.509171156673 42.1502269361 0.510017919817 42.2220002005 0.693272141051 -120.21101505 0.000445257067115 72.6816660316 0.627478471353 -118.226320709 0.626635185044 61.8414327983 0.000445257067032 72.6816660226 0.462167626069 88.4719195913
10.525 0.124458394918 2.4773411366 0.57561696016 26.2670163573 0.510159227768 38.1502837767 0.626827556447 -120.839587318 0.57561696016 26.2670163573 0.125249587802 2.76720803505 0.511022898067 38.2218151048 0.625965856549 59.2299038407 0.510159227766 38.1502837767 0.511022898065 38.2218151048 0.691804137561 -125.744118832 0.000446084997428 69.8435029789 0.626827556447 -120.839587318 0.625965856549 59.2299038407 0.000446084997322 69.8435029687 0.463954482587 85.9273776164
10.55 0.122513977871 0.0390911805495 0.575840949915 23.7356074006 0.511182137668 34.1451915843 0.62617118091 -123.45020846 0.575840949915 23.7356074006 0.123327242804 0.34698507412 0.512062698963 34.2164426204 0.625291439187 56.6210804584 0.511182137666 34.1451915843 0.512062698961 34.2164426204 0.690278505766 -131.295237534 0.000447607706907 67.0541747433 0.62617118091 -123.45020846 0.625291439187 56.6210804584 0.000447607706782 67.0541747328 0.465746785197 83.3840724333
10.575 0.120532472894 -2.3851107886 0.576039080261 21.2102489268 0.512239211812 30.1344063049 0.625509305137 -126.058239305 0.576039080261 21.2102489268 0.121366135355 -2.05856017669 0.513136626046 30.2053390636 0.624611913266 54.0149064521 0.51223921181 30.1344063049 0.513136626044 30.2053390636 0.688695570638 -136.86589671 0.000449882111149 64.3063612354 0.625509305137 -126.058239305 0.624611913266 54.014906452 0.000449882111014 64.3063612255 0.467544505478 80.8419599921
10.6 0.118513273082 -4.79335873273 0.576211722679 18.6911551345 0.513329588649 26.1173715472 0.624841890363 -128.663734652 0.576211722679 18.6911551345 0.11936559798 -4.44750935806 0.514243794893 26.1879485396 0.623927258574 51.4113259108 0.513329588648 26.1173715472 0.514243794891 26.1879485396 0.687055924435 -142.457670722 0.000452963637872 61.5917374368 0.624841890362 -128.663734652 0.623927258574 51.4113259108 0.000452963637735 61.5917374282 0.469347614132 78.3009965476
10.625 0.116455892301 -7.18351569148 0.576359382967 16.1785503705 0.51445220603 22.0935186647 0.624168898727 -131.266748974 0.576359382967 16.1785503705 0.117325091705 -6.81771268527 0.51538311948 22.1637030283 0.623237454334 48.8102831887 0.514452206029 22.0935186647 0.515383119479 22.1637030283 0.685360454466 -148.072183253 0.000456905393691 58.9010853534 0.624168898727 -131.266748974 0.623237454334 48.8102831887 0.000456905393564 58.9010853467 0.471156080965 75.761138649
10.65 0.11435998632 -9.55318368526 0.576482714391 13.6726691799 0.51560578656 18.062266889 0.623490293342 -133.867336447 0.576482714391 13.6726691799 0.115244228299 -9.16675883834 0.516553297517 18.1320225204 0.622542479184 46.2117228824 0.515605786559 18.062266889 0.516553297516 18.1320225204 0.683610373685 -153.711107616 0.000461757344422 56.2244505726 0.623490293342 -133.867336447 0.622542479184 46.2117228824 0.000461757344317 56.224450568 0.472969874851 73.2223431291
10.675 0.112225377818 -11.8996693006 0.576582532022 11.1737562743 0.516788821889 14.0230235238 0.622806038346 -136.465550994 0.576582532022 11.1737562743 0.113122796479 -11.4919405606 0.517752794705 14.0923152156 0.621842311159 43.6155898094 0.516788821888 14.0230235238 0.517752794704 14.0923152156 0.681807254269 -159.376166777 0.000467565546222 53.5513380164 0.622806038346 -136.465550994 0.621842311159 43.6155898094 0.000467565546149 53.5513380138 0.474788963698 70.6845670929
10.7 0.11005208596 -14.219944362 0.576659828293 8.68206640196 0.517999555894 9.975184211 0.622116098963 -139.061446319 0.576659828293 8.68206640195 0.110960792792 -13.7902153835 0.518979827896 10.0439777904 0.621136927682 41.0218289866 0.517999555894 9.975184211 0.518979827896 10.0439777904 0.67995306436 -165.06913306 0.000474371463565 50.8709376989 0.622116098963 -139.061446319 0.621136927682 41.0218289866 0.000474371463533 50.8709376979 0.476613314396 68.1477679063
10.725 0.107840361359 -16.5106010377 0.576715789846 6.19786409826 0.519235966741 5.91813327826 0.621420441556 -141.655075952 0.576715789846 6.19786409826 0.108758458008 -16.0581608422 0.520232347133 5.9863957492 0.620426305571 38.4303856093 0.519235966742 5.91813327826 0.520232347133 5.98639574919 0.678050208112 -170.791827452 0.000482211405198 48.172368216 0.621420441556 -141.655075952 0.620426305571 38.4303856093 0.000482211405209 48.1723682159 0.478442892769 65.6119031836
10.75 0.105590727423 -18.7678006808 0.576751815661 3.72142329352 0.520495747809 1.85124418207 0.620719033668 -144.246493291 0.576751815661 3.72142329352 0.106516320009 -18.2919235108 0.521508016546 1.91894386974 0.619710421057 35.8412050313 0.520495747809 1.85124418207 0.521508016547 1.91894386974 0.676101569159 -176.546118434 0.000491116101075 45.4449238063 0.620719033668 -144.246493291 0.619710421057 35.8412050313 0.000491116101129 45.4449238064 0.480277663507 63.0769307751
10.775 0.10330402922 -20.9872156856 0.576769536521 1.25302675164 0.521776287483 -2.22611994106 0.62001184407 -146.835751638 0.576769536521 1.25302675164 0.104235244342 -20.4871611689 0.522804194131 -2.15901324332 0.618989249821 33.2542327442 0.521776287484 -2.22611994106 0.522804194132 -2.15901324332 0.674110557588 177.666079738 0.00050111043289 42.6783104565 0.62001184407 -146.835751638 0.618989249821 33.2542327442 0.000501110432977 42.6783104562 0.482117590092 60.5428087532
10.8 0.100981491256 -23.1639636596 0.576770835763 -1.20703468958 0.523074647845 -6.3146056003 0.61929884279 -149.42290425 0.576770835763 -1.20703468958 0.101916493824 -22.6389774483 0.524117910411 -6.24812048196 0.618262767045 30.6694143573 0.523074647846 -6.31460560031 0.524117910412 -6.24812048196 0.67208116044 171.842809422 0.000512213319319 39.8628577309 0.61929884279 -149.42290425 0.618262767045 30.6694143573 0.000512213319423 39.8628577299 0.483962634716 58.009495399
10.825 0.0986247857649 -25.2925333049 0.576757871317 -3.65846310933 0.524387542295 -10.4148681373 0.618580001142 -152.008004382 0.576757871317 -3.65846310932 0.0995617988075 -24.7418484176 0.525445846047 -10.3490314197 0.617530947484 28.086695578 0.524387542296 -10.4148681373 0.525445846048 -10.3490314197 0.670017995686 165.982072735 0.000524437746031 36.9896955872 0.618580001142 -152.008004382 0.617530947484 28.086695578 0.00052443774613 36.9896955857 0.485812758178 55.4769491869
10.85 0.0962361134211 -27.366701614 0.576733098933 -6.10095476179 0.52571131218 -14.5275707572 0.617855291747 -154.591105332 0.576733098933 -6.10095476178 0.0971734400112 -26.7895407935 0.526784308453 -14.4624073406 0.61679376556 25.5060221907 0.525711312181 -14.5275707572 0.526784308454 -14.4624073406 0.667926369564 160.081835602 0.000537790921062 34.0508889641 0.617855291747 -154.591105332 0.61679376556 25.5060221907 0.000537790921128 34.0508889629 0.487667919774 52.9451287695
10.875 0.0938182986588 -29.379442382 0.57669929651 -8.53420164081 0.527041902543 -18.653383385 0.61712468854 -157.172260492 0.57669929651 -8.53420164081 0.0947543460995 -28.7750218967 0.528129207534 -18.5889160949 0.616051195478 22.9273400368 0.527041902543 -18.653383385 0.528129207534 -18.5889160949 0.665812337003 154.140032828 0.000552274529352 31.0395268478 0.61712468854 -157.172260492 0.616051195478 22.9273400368 0.000552274529354 31.0395268482 0.48952807717 50.4139929607
10.9 0.0913749021378 -31.3228267206 0.576659589348 -10.9578933936 0.528374837113 -22.7929813291 0.616388166775 -159.751523391 0.576659589348 -10.9578933936 0.0923082085138 -30.6903621895 0.529476030673 -22.7292307604 0.615303211371 20.3505949928 0.528374837112 -22.7929813291 0.529476030672 -22.7292307604 0.663682764773 148.154574376 0.000567885056449 27.9497662978 0.616388166775 -159.751523391 0.615303211371 20.3505949928 0.000567885056355 27.9497663017 0.491393186257 47.8835007184
10.925 0.0889103531835 -33.1879173743 0.576617476105 -13.3717196289 0.529705192734 -26.9470437299 0.615645703014 -162.328947755 0.576617476105 -13.3717196289 0.0898396163376 -32.5266323912 0.530819817172 -26.8840280911 0.614549787471 17.775732948 0.529705192732 -26.9470437299 0.53081981717 -26.8840280911 0.661545396782 142.123352997 0.000584614150698 24.7768350943 0.615645703014 -162.328947755 0.614549787471 17.775732948 0.00058461415048 24.7768351042 0.493263200988 45.3536111262
10.95 0.0864301052852 -34.9646603938 0.576576855161 -15.7753726668 0.53102757347 -31.1162517744 0.614897275108 -164.904587547 0.576576855161 -15.7753726669 0.0873542141957 -34.2737989808 0.532155132357 -31.0539867304 0.613790898313 15.202699781 0.531027573466 -31.1162517744 0.532155132353 -31.0539867303 0.659408920772 136.044253422 0.00060244899509 21.5169989771 0.614897275108 -164.904587547 0.613790898313 15.202699781 0.000602448994727 21.5169989954 0.495138073197 42.8242833734
10.975 0.0839408178345 -36.6417804016 0.576542051001 -18.1685507799 0.532336084664 -35.3012866529 0.614142862166 -167.478497028 0.576542051 -18.16855078 0.084858886225 -35.920624636 0.533476041669 -35.2397851675 0.613026518973 12.6314413343 0.532336084658 -35.3012866528 0.533476041664 -35.2397851674 0.657283035395 129.915163309 0.000621372663769 18.1675007908 0.614142862166 -167.478497028 0.613026518973 12.6314413342 0.000621372663249 18.1675008198 0.497017752393 40.2954767347
11 0.0814505670839 -38.2066896743 0.576517840125 -20.5509619721 0.533624307317 -39.502827236 0.613382444511 -170.050730809 0.576517840125 -20.5509619722 0.0823619688818 -37.4545842095 0.534776085074 -39.442099415 0.612256625342 10.0619033872 0.533624307309 -39.5028272359 0.534776085067 -39.4420994149 0.655178516368 123.733986165 0.00064136444313 14.7264792861 0.613382444511 -170.050730809 0.612256625342 10.0619033872 0.000641364442458 14.7264793274 0.498902185533 37.7671505477
11.025 0.0789690885705 -39.6454270443 0.576509475898 -22.9223283436 0.534885273214 -43.7215474512 0.612616003624 -172.621343901 0.576509475897 -22.9223283437 0.0798734945014 -38.8618126619 0.536048252239 -43.6616003849 0.611481194442 7.49403162605 0.534885273204 -43.7215474511 0.536048252229 -43.6616003848 0.653107280084 117.498656456 0.000662400102809 11.1928750201 0.612616003624 -172.621343901 0.611481194443 7.494031626 0.000662400102005 11.192875074 0.500791316768 35.2392641901
11.05 0.0765080516186 -40.9426507359 0.576522711581 -25.2823910826 0.536111441307 -47.9581133345 0.611843522074 -175.190391776 0.57652271158 -25.2823910827 0.0774054657476 -40.1271094742 0.537284958975 -47.8989509413 0.610700204788 4.92777161165 0.536111441295 -47.9581133344 0.537284958964 -47.8989509411 0.651082442653 111.207157154 0.000684452106992 7.56632996753 0.611843522074 -175.190391776 0.610700204789 4.92777161159 0.000684452106097 7.56633003268 0.502685087161 32.7117770547
11.075 0.0740813634767 -42.0817201864 0.576563820693 -27.6309161174 0.537294675946 -52.2131797393 0.611064983432 -177.757930422 0.576563820692 -27.6309161175 0.0749721578353 -41.2340348746 0.538478025554 -52.1548026097 0.609913636791 2.36306874316 0.537294675933 -52.2131797391 0.538478025542 -52.1548026096 0.649118371946 104.857539905 0.000707489761055 3.84708632363 0.611064983432 -177.757930422 0.609913636792 2.36306874309 0.000707489760129 3.84708639672 0.504583434377 30.1846485232
11.1 0.0717054954164 -43.0449158453 0.576639613659 -29.9677004518 0.538426227646 -56.4873866814 0.610280372178 179.675983604 0.576639613658 -29.9677004519 0.0725904399495 -42.1651468215 0.539618657581 -56.4297919237 0.609121473218 -0.200131782062 0.538426227634 -56.4873866812 0.539618657569 -56.4297919235 0.647230729726 98.4479480391 0.0007314792922 0.0358887370298 0.610280372177 179.675983604 0.609121473219 -0.200131782136 0.00073147929132 0.0358888122359 0.506486292334 27.6578379389
11.125 0.0693998147957 -43.8138622145 0.576757449564 -32.2925791895 0.539496717191 -60.7813553056 0.609489673579 177.111293113 0.576757449563 -32.2925791896 0.0702800987112 -42.9024432599 0.540697430214 -60.7245363927 0.608323699707 -2.76188501337 0.53949671718 -60.7813553054 0.540697430204 -60.7245363925 0.645436500457 91.9766425806 0.000756383865537 -3.86610699608 0.609489673579 177.111293113 0.608323699708 -2.76188501344 0.000756383864792 -3.86610692717 0.508393590824 25.1313045769
11.15 0.0671868946479 -44.3702355345 0.576925241664 -34.605433231 0.540496123932 -65.0956834606 0.608692873566 174.547940229 0.576925241663 -34.605433231 0.0680641338982 -43.4280890794 0.541704276627 -65.0396300788 0.607520305341 -5.32224629727 0.540496123923 -65.0956834604 0.541704276619 -65.0396300787 0.643754002893 85.4420313549 0.000782163538899 -7.85741681691 0.608692873566 174.54794023 0.607520305341 -5.32224629732 0.000782163538383 -7.85741676531 0.510305255094 22.6050076135
11.175 0.0650927550612 -44.6968479185 0.577151455168 -36.9061975987 0.541413779294 -69.4309408755 0.607889958586 171.985866332 0.577151455168 -36.9061975987 0.0659689793163 -43.7255156453 0.54262848169 -69.3756387759 0.606711283287 -7.88127133418 0.541413779291 -69.4309408755 0.542628481687 -69.3756387758 0.642202879996 78.8427012395 0.00080877516078 -11.9363017996 0.607889958586 171.985866332 0.606711283287 -7.8812713342 0.000808775160586 -11.9363017786 0.512221205383 20.0789060937
11.2 0.0631469687417 -44.7791939637 0.577445095666 -39.194870313 0.542238366558 -73.7876639369 0.607080915439 169.425011995 0.577445095666 -39.194870313 0.0640245802033 -43.7809723399 0.543458681963 -73.7330947884 0.605896631507 -10.4390162424 0.542238366562 -73.787663937 0.543458681967 -73.7330947885 0.640804062305 72.1774534801 0.0008361722162 -16.1008316783 0.607080915439 169.425011995 0.605896631507 -10.4390162424 0.000836172216406 -16.100831703 0.514141356417 17.5529588967
11.225 0.0613825392788 -44.6075078137 0.577815686497 -41.4715216967 0.542957928083 -78.166350072 0.606265731097 166.865316931 0.577815686499 -41.4715216966 0.0622642357054 -43.5855685308 0.544182873168 -78.1124913183 0.605076353542 -12.9955376303 0.542957928098 -78.1663500723 0.544182873181 -78.1124913186 0.639579699461 65.4453418736 0.000864304625331 -20.348938624 0.606265731097 166.865316931 0.605076353541 -12.9955376302 0.000864304625988 -20.34893871 0.516065616851 15.0271246999
11.25 0.0598354413623 -44.1792885065 0.57827323333 -43.7363039405 0.543559881219 -82.5674517558 0.605444392513 164.306719934 0.578273233333 -43.7363039404 0.0607240976638 -43.1377522685 0.544788426378 -82.5142764753 0.604250459382 -15.5508926778 0.543559881247 -82.5674517564 0.544788426403 -82.5142764759 0.638553054351 58.6457134596 0.00089311849944 -24.6784617189 0.605444392514 164.306719934 0.604250459381 -15.5508926776 0.00089311850056 -24.6784618816 0.517993888665 12.5013619411
11.275 0.0585437095968 -43.5020942634 0.57882817424 -45.9894607072 0.544031044182 -86.9913701687 0.604616886405 161.74915882 0.578828174246 -45.989460707 0.0594422172664 -42.4460162106 0.545262114221 -86.9388469376 0.603418966423 -18.1051392287 0.544031044226 -86.9913701698 0.545262114261 -86.9388469386 0.637748354264 51.7782511693 0.000922555858385 -29.0871827631 0.604616886406 161.74915882 0.603418966422 -18.1051392284 0.000922555859931 -29.0871830155 0.519926066492 9.97562877887
11.3 0.0575459933523 -42.5961898557 0.579491313757 -48.2313364935 0.544357673219 -91.4384485442 0.603783199024 159.192570372 0.579491313766 -48.2313364933 0.0584570652529 -41.5314125603 0.545590148397 -91.3865413043 0.602581900519 -20.6583358943 0.544357673281 -91.4384485458 0.545590148454 -91.3865413057 0.637190593649 44.8430176742 0.000952554313641 -33.5728541277 0.603783199024 159.192570371 0.602581900517 -20.6583358939 0.000952554315517 -33.5728544785 0.521862036903 7.44988305127
11.325 0.056879574987 -41.4964094532 0.580273739577 -50.4623854114 0.544525512334 -95.9089652622 0.602943315907 156.636890282 0.580273739589 -50.4623854111 0.057805533553 -40.4292531217 0.54575822981 -95.8576331927 0.601739297139 -23.2105421709 0.544525512416 -95.9089652643 0.545758229884 -95.8576331947 0.636905283639 37.8404994453 0.000983046720862 -38.1332193661 0.602943315908 156.636890282 0.601739297137 -23.2105421704 0.000983046722915 -38.1332198171 0.523801677605 4.92408223265
11.35 0.0565779801263 -40.2524827867 0.581186721094 -52.6831789933 0.544519856808 -100.403126758 0.602097221613 154.082053103 0.581186721109 -52.683178993 0.0575205567092 -39.189277479 0.545751612525 -100.352324153 0.600891202644 -25.7618185722 0.544519856909 -100.403126761 0.545751612617 -100.352324155 0.636918144429 30.7716498026 0.00101396080645 -42.7660272422 0.602097221614 154.082053102 0.600891202641 -25.7618185716 0.00101396080848 -42.7660277858 0.525744856588 2.39818338893
11.375 0.0566684655521 -38.9272050421 0.582241589441 -54.8944125791 0.544325631603 -104.921060338 0.601244899441 151.527992188 0.582241589459 -54.8944125789 0.0576286425755 -37.8737216506 0.545555182656 -104.870736486 0.600037675673 -28.3122267781 0.54432563172 -104.921060341 0.545555182763 -104.870736489 0.637254738101 23.6379295193 0.00104521877359 -47.4690397437 0.601244899443 151.527992187 0.60003767567 -28.3122267773 0.00104521877536 -47.4690403594 0.527691431185 -0.127856868673
11.4 0.0571697936542 -37.5922873666 0.583449599516 -57.0969098063 0.543927485563 -109.462807001 0.600386331128 148.974639645 0.583449599536 -57.0969098061 0.0581477152933 -36.5531736259 0.545153553081 -109.412906076 0.599178788679 -30.8618298024 0.543927485691 -109.462807005 0.545153553197 -109.412906079 0.637940041448 16.4413433589 0.00107673689504 -52.2400345481 0.60038633113 148.974639645 0.599178788675 -30.8618298016 0.00107673689633 -52.2400351997 0.529641247055 -2.65408243155
11.425 0.0580907207861 -36.3224100422 0.584821775362 -59.291624713 0.543309902045 -114.028314405 0.599521496536 146.421926289 0.584821775383 -59.291624713 0.0590856819347 -35.3007576132 0.544531174623 -113.978775355 0.598314629602 -33.4106921819 0.543309902173 -114.028314409 0.544531174739 -113.978775359 0.63899796093 9.18447080439 0.0011084251023 -57.0768023096 0.599521496537 146.421926289 0.598314629598 -33.410692181 0.00110842510296 -57.0768029414 0.531594137082 -5.18053774283
11.45 0.0594295008759 -35.1886286115 0.586368741367 -61.4796409787 0.54245732628 -118.617430105 0.598650373318 143.86978159 0.586368741386 -61.4796409789 0.0604400038248 -34.1857696317 0.543672463985 -118.568186558 0.597445303702 -35.9588801876 0.542457326392 -118.617430109 0.543672464087 -118.568186562 0.640450794956 1.87048919582 0.00114018658468 -61.9771390443 0.598650373319 143.869781589 0.597445303699 -35.9588801868 0.00114018658471 -61.9771395783 0.533549920181 -7.70726784773
11.475 0.0611744668493 -34.2525266378 0.588100542904 -63.6621678725 0.54135430932 -123.229895245 0.597772936573 141.318133634 0.588100542917 -63.6621678727 0.0621983191654 -33.2680912398 0.5425619483 -123.180875411 0.596570935575 -38.5064620631 0.541354309392 -123.229895248 0.542561948365 -123.180875413 0.642318652252 -5.49681243121 0.00117191741564 -66.9388338314 0.597772936574 141.318133634 0.596570935573 -38.5064620626 0.00117191741531 -66.9388341642 0.5355084 -10.2343184449
11.5 0.0633054965191 -33.5622288375 0.590026461285 -65.8405325711 0.539985667937 -127.865338862 0.596889158484 138.766909084 0.590026461285 -65.8405325711 0.0643399185899 -32.5944206757 0.541184425625 -127.816465445 0.595691671354 -41.0535082911 0.539985667937 -127.865338862 0.541184425625 -127.816465445 0.644618838893 -12.9130303237 0.00120350622939 -71.9596520124 0.596889158484 138.766909084 0.595691671354 -41.0535082911 0.00120350622939 -71.9596520124 0.537469363533 -12.7617359385
