! Generated from PyAEDT SolutionData; AEDT ExportNetworkData workaround
# GHz S MA R 50
9 0.617456219139 31.5194849013 0.247913716192 -55.8633337338 0.51968421181 -0.960427481496 0.535924366647 38.2281220109 0.247913716192 -55.8633337337 0.617625197074 31.1535835544 0.521681924937 -0.972363723249 0.533784483155 -141.784376012 0.51968421181 -0.960427481496 0.521681924937 -0.97236372325 0.67659111123 168.198987628 0.000870284503153 93.4813743904 0.535924366647 38.2281220109 0.533784483155 -141.784376012 0.000870284503151 93.4813743903 0.654108891074 -157.137614663
9.025 0.615935710468 28.4924820526 0.247437129007 -59.41435231 0.522065171376 -5.50495779002 0.535579706417 35.4386012674 0.247437129007 -59.41435231 0.616090448813 28.1245339836 0.524061441917 -5.51833787118 0.533447875577 -144.574346254 0.522065171376 -5.50495779007 0.524061441917 -5.51833787113 0.672921111903 162.228400091 0.00087226316668 89.0501046797 0.535579706417 35.4386012674 0.533447875577 -144.574346254 0.000872263166624 89.0501046645 0.654665557723 -159.633632253
9.05 0.614450950366 25.4756614095 0.246975807327 -62.9512417589 0.524386149304 -10.0355948142 0.535230285245 32.6566421261 0.246975807328 -62.9512417589 0.614592232965 25.1056889873 0.526380450807 -10.0504239732 0.533106256101 -147.356748522 0.524386149303 -10.0355948143 0.526380450807 -10.0504239732 0.669303252686 156.272620139 0.000874222907359 84.6161897195 0.535230285246 32.6566421261 0.5331062561 -147.356748522 0.000874222907274 84.6161896949 0.65522936031 -162.123973087
9.075 0.613000640341 22.46867816 0.246530831752 -66.4742691412 0.526649131808 -14.552357774 0.534876243686 29.8821147012 0.246530831753 -66.4742691411 0.613129257587 22.0967065825 0.528640936779 -14.5686398377 0.532759769521 -150.131711735 0.526649131808 -14.5523577741 0.528640936779 -14.5686398377 0.665738020634 150.332433129 0.000876157576068 80.1795987365 0.534876243687 29.8821147012 0.53275976952 -150.131711735 0.000876157575971 80.1795987071 0.655800033783 -164.608731381
9.1 0.611583347255 19.4712054174 0.246103170906 -69.9837352223 0.528856236133 -19.0552887731 0.534517717234 27.1148918858 0.246103170907 -69.9837352221 0.611700093358 19.0972628275 0.530845016839 -19.0730262005 0.532408556105 -152.899361868 0.528856236132 -19.0552887732 0.530845016839 -19.0730262005 0.66222529585 144.408502954 0.000878061322918 75.7402852886 0.534517717235 27.1148918858 0.532408556104 -152.899361868 0.000878061322823 75.7402852578 0.656377321769 -167.087999269
9.125 0.610197523064 16.4829343852 0.245693681885 -73.4799700895 0.531009689741 -23.5444513549 0.534154836474 24.3548492983 0.245693681886 -73.4799700894 0.610303193496 16.1070519864 0.532994918948 -23.563645271 0.53205275182 -155.659822042 0.53100968974 -23.544451355 0.532994918948 -23.5636452709 0.658764410897 138.501380809 0.000879928584654 71.2981898414 0.534154836475 24.3548492983 0.53205275182 -155.659822042 0.000879928584567 71.2981898118 0.656960976281 -169.561866873
9.15 0.608841523129 13.5035744347 0.245303111271 -76.9633290262 0.533111810678 -28.0199291348 0.533787727235 21.6018652263 0.245303111272 -76.9633290261 0.608936912243 13.125786605 0.535092962324 -28.0405793552 0.531692488546 -158.413212606 0.533111810678 -28.0199291349 0.535092962325 -28.0405793552 0.655354209345 132.611513706 0.000881754071045 66.8532420938 0.533787727236 21.6018652263 0.531692488546 -158.413212606 0.00088175407097 66.8532420671 0.657550757435 -172.030422366
9.175 0.607513623208 10.5328531063 0.244932096625 -80.4341886512 0.535164989139 -32.481824508 0.533416510741 18.8558205685 0.244932096626 -80.4341886511 0.607599522018 10.1531975093 0.537141538941 -32.503929556 0.531327894278 -161.159651227 0.535164989138 -32.4818245081 0.537141538941 -32.5039295559 0.651993102523 126.739252596 0.000883532750606 62.4053630527 0.533416510742 18.8558205685 0.531327894277 -161.159651227 0.000883532750546 62.4053630299 0.658146433163 -174.493752043
9.2 0.606212035195 7.57051604323 0.24458116838 -83.892943326 0.53717167024 -36.9302574302 0.533041303766 16.1165987755 0.244581168381 -83.8929433259 0.606289229307 7.18903373572 0.539143096248 -36.9538145469 0.530959093312 -163.899252966 0.537171670239 -36.9302574302 0.539143096248 -36.9538145469 0.648679123733 120.884860054 0.000885259835944 57.9544668607 0.533041303767 16.1165987755 0.530959093312 -163.899252966 0.000885259835899 57.9544668424 0.658747778945 -176.951940386
9.225 0.604934921694 4.61632686596 0.244250752054 -87.3400018314 0.539134338018 -41.3653642704 0.532662218785 13.3840857893 0.244250752054 -87.3400018313 0.605004189384 4.23306240072 0.54110012112 -41.3903694198 0.530586206429 -166.632130369 0.539134338018 -41.3653642705 0.54110012112 -41.3903694198 0.645409979408 115.048517428 0.000886930768997 53.5004623827 0.532662218785 13.3840857893 0.530586206429 -166.632130369 0.000886930768965 53.500462369 0.659354577537 -179.405070125
9.25 0.603680409503 1.67006699559 0.243941170721 -90.7757843069 0.541055500617 -45.7872967321 0.532279364124 10.6581699824 0.243941170721 -90.7757843069 0.603742519938 1.28506851858 0.543015124991 -45.8137446011 0.530209351054 -169.358393536 0.541055500617 -45.7872967321 0.543015124991 -45.8137446011 0.642183096844 109.230331439 0.000888541206407 49.0432545609 0.532279364124 10.6581699824 0.530209351054 -169.358393536 0.000888541206387 49.0432545518 0.659966618709 178.146777691
9.275 0.602446602089 -1.26846456794 0.243652647683 -94.2007194486 0.542937676641 -50.1962208392 0.531892844112 7.9387420963 0.243652647683 -94.2007194486 0.602502313672 -1.65514522666 0.544890630172 -50.224104835 0.529828641419 -172.07815021 0.54293767664 -50.1962208392 0.544890630172 -50.224104835 0.638995668307 103.430340199 0.000890087005235 44.5827455494 0.531892844112 7.9387420963 0.529828641419 -172.07815021 0.000890087005224 44.5827455443 0.660583698995 175.70352364
9.3 0.601231591114 -4.19945150592 0.243385309285 -97.6152419559 0.544783382628 -54.5923159848 0.531502759225 5.22569518043 0.243385309285 -97.6152419559 0.601281649966 -4.5877587484 0.546729157288 -54.6216282291 0.529444188708 -174.791505845 0.544783382628 -54.5923159848 0.546729157288 -54.6216282291 0.635844691432 97.6485186475 0.000891564209185 40.1188356395 0.531502759225 5.22569518043 0.529444188708 -174.791505845 0.000891564209181 40.1188356379 0.66120562144 173.265089861
9.325 0.600033467101 -7.12306047395 0.243139187837 -101.019790216 0.546595121608 -58.9757740369 0.531109206238 2.51892453124 0.243139187837 -101.019790216 0.600078605652 -7.51293485832 0.548533213796 -59.0065053589 0.529056101193 -177.498563685 0.546595121608 -58.9757740369 0.548533213796 -59.0065053589 0.632727005932 91.8847834117 0.000892969035489 35.6514239922 0.531109206238 2.51892453124 0.529056101193 -177.498563685 0.000892969035491 35.6514239936 0.661832195363 170.831399995
9.35 0.598850329275 -10.0394414228 0.242914224595 -104.414804217 0.548375372674 -63.3467984985 0.530712278363 -0.181672368303 0.242914224595 -104.414804217 0.598891264984 -10.4308195957 0.550305283533 -63.3789384269 0.528664484367 179.800575166 0.548375372674 -63.3467984985 0.550305283533 -63.3789384269 0.62963932673 86.1389971198 0.000894297862562 31.1804091917 0.530712278363 -0.181672368306 0.528664484367 179.800575166 0.000894297862566 31.1804091953 0.662463236121 168.402379126
9.375 0.597680294668 -12.9487279427 0.242710272783 -107.80072367 0.550126581517 -67.7056037179 0.530312065394 -2.8761959084 0.242710272783 -107.80072367 0.597717728845 -13.3415425808 0.552047817223 -67.7391404727 0.528269441062 177.105811674 0.550126581517 -67.7056037179 0.552047817223 -67.7391404728 0.626578273673 80.4109721879 0.000895547218504 26.7056896355 0.530312065394 -2.8761959084 0.528269441062 177.105811674 0.000895547218511 26.7056896406 0.663098564884 165.97795373
9.4 0.596521506523 -15.8510376267 0.242527100616 -111.17798634 0.55185115187 -72.0524141441 0.529908653846 -5.56474441125 0.242527100616 -111.17798634 0.596556123264 -16.2452173876 0.553763223896 -72.0873346293 0.527871071567 174.417048805 0.55185115187 -72.0524141441 0.553763223896 -72.0873346293 0.623540398043 74.7004741237 0.000896713770524 22.2271637792 0.529908653846 -5.56474441126 0.527871071567 174.417048805 0.000896713770531 22.2271637853 0.663738008411 163.558051609
9.425 0.595372142062 -18.7464724495 0.242364394305 -114.547026555 0.553551437787 -76.3874636256 0.529502127092 -8.24741418894 0.242364394304 -114.547026555 0.59540460729 -19.1419419327 0.555453863148 -76.4237534221 0.52746947373 171.734191458 0.553551437787 -76.3874636256 0.555453863148 -76.4237534221 0.620522206102 69.0072243847 0.000897794315298 17.7447302513 0.529502127092 -8.24741418894 0.52746947373 171.734191458 0.000897794315305 17.7447302578 0.664381398841 161.142601846
9.45 0.594230419669 -21.6351191581 0.242221761029 -117.908273893 0.555229736698 -80.7109947459 0.529092565499 -10.9242996001 0.242221761028 -117.908273893 0.594261380273 -22.0317988769 0.557122038181 -80.7486381068 0.527064743059 169.057146406 0.555229736698 -80.7109947459 0.557122038181 -80.7486381068 0.617520179949 63.3309028364 0.000898785770286 13.2582878554 0.529092565499 -10.9242996001 0.527064743059 169.057146406 0.000898785770291 13.2582878618 0.665028573484 158.731534748
9.475 0.59309460553 -24.5170496723 0.242098731859 -121.262152028 0.55688828319 -85.0232581949 0.528680046558 -13.5954931055 0.242098731859 -121.262152028 0.5931246886 -24.9148560355 0.558769989562 -85.062238042 0.526656972819 166.385822228 0.55688828319 -85.0232581949 0.558769989562 -85.062238042 0.614530795931 57.6711498535 0.000899685165991 8.76773547624 0.528680046558 -13.5954931055 0.526656972819 166.385822228 0.000899685165995 8.76773548222 0.66567937462 156.324781797
9.5 0.591963019775 -27.3923214905 0.241994764618 -124.609077721 0.558529243438 -89.3245121712 0.528264645018 -16.2610853222 0.241994764618 -124.609077721 0.59199283194 -27.7911667967 0.560399889643 -89.364810094 0.526246254113 163.720129252 0.558529243438 -89.3245121712 0.560399889643 -89.364810094 0.611550540902 52.0275681098 0.000900489639138 4.27297190662 0.528264645017 -16.2610853222 0.526246254113 163.720129252 0.000900489639141 4.27297191185 0.666333649308 153.922275596
9.525 0.59083404217 -30.2609781005 0.241909246666 -127.949459947 0.560154710236 -93.6150218119 0.527846433012 -18.9211650768 0.241909246666 -127.949459947 0.59086416902 -30.6607705427 0.562013837584 -93.6566180694 0.525832675969 161.059979495 0.560154710236 -93.6150218119 0.562013837584 -93.6566180694 0.608575926577 46.3997240993 0.000901196426726 -0.226104390845 0.527846433012 -18.9211650768 0.525832675969 161.059979495 0.000901196426728 -0.226104386564 0.666991249193 151.523949825
9.55 0.589706117399 -33.1230493918 0.241841497609 -131.283699137 0.561766698579 -97.8950586493 0.527425480184 -21.5758194568 0.241841497609 -131.283699137 0.589737123001 -33.5236930742 0.563613854916 -97.9379321735 0.525416325413 158.405286608 0.561766698579 -97.8950586493 0.563613854916 -97.9379321735 0.605603502239 40.7871494283 0.000901802860905 -4.72959557042 0.527425480184 -21.5758194568 0.525416325413 158.405286608 0.000901802860906 -4.7295955672 0.66765203033 149.129739192
9.575 0.588577759963 -35.978552068 0.241790771926 -134.612186536 0.563367141728 -102.164900088 0.527001853815 -24.2251338611 0.241790771926 -134.612186536 0.588610186467 -36.3799470351 0.565201881606 -102.209028492 0.524997287539 155.755965821 0.563367141728 -102.164900088 0.565201881606 -102.209028492 0.60262986604 35.189341917 0.000902306364611 -9.23760472528 0.527001853815 -24.2251338611 0.524997287539 155.755965821 0.000902306364611 -9.23760472316 0.668315853007 146.739579387
9.6 0.587447558753 -38.8274900583 0.241756261503 -137.935303657 0.564957887727 -106.424828906 0.52657561894 -26.8691920488 0.241756261503 -137.935303657 0.587481926076 -39.2295323354 0.566779772558 -106.470188492 0.524575645578 153.111933891 0.564957887727 -106.424828906 0.566779772558 -106.470188492 0.599651675106 29.6057665432 0.000902704447903 -13.7502362316 0.52657561894 -26.8691920488 0.524575645578 153.111933891 0.000902704447903 -13.7502362305 0.668982581573 144.353407037
9.625 0.586314181315 -41.6698549262 0.241737098072 -141.253421819 0.566540696305 -110.675132769 0.526146838473 -29.5080761871 0.241737098072 -141.253421819 0.586350986912 -42.0724365724 0.568349294512 -110.721698544 0.524151480957 150.473109048 0.566540696305 -110.675132769 0.568349294512 -110.721698544 0.596665654666 24.0358562584 0.000902994704913 -18.2675961024 0.526146838473 -29.5080761871 0.524151480957 150.473109048 0.000902994704913 -18.2675961023 0.669652084276 141.971159665
9.65 0.585176377846 -44.5056262751 0.241732355566 -144.566901767 0.568117236145 -114.916103767 0.525715573324 -32.1418668976 0.241732355566 -144.566901767 0.585216096563 -44.9086354489 0.569912123308 -114.963849456 0.523724873358 147.839410949 0.568117236145 -114.916103767 0.569912123308 -114.963849456 0.593668606378 18.4790127025 0.00090317481135 -22.7897923407 0.525715573324 -32.1418668976 0.523724873358 147.839410949 0.00090317481135 -22.7897923415 0.670324233104 139.592775647
9.675 0.58403298496 -47.3347721496 0.241741052364 -147.876093359 0.569689082455 -119.148037962 0.525281882515 -34.7706433015 0.241741052364 -147.876093359 0.584076068957 -47.7380931863 0.571469841447 -119.19693603 0.523295900769 145.210760631 0.569689082455 -119.148037962 0.571469841447 -119.19693603 0.590657416019 12.9346068371 0.000903242522485 -27.3169352819 0.525281882515 -34.7706433015 0.523295900769 145.210760631 0.000903242522485 -27.3169352834 0.670998903631 137.218194173
9.7 0.582882929242 -50.1572494331 0.241762153457 -151.181335318 0.571257714821 -123.371234951 0.524845823297 -37.3944830632 0.241762153457 -151.181335318 0.582929808003 -50.5607629343 0.573023935945 -123.421256622 0.522864639532 142.58708046 0.571257714821 -123.371234951 0.573023935945 -123.421256622 0.58762906071 7.40197951654 0.000903195671548 -31.8491379173 0.524845823297 -37.3944830632 0.522864639532 142.58708046 0.000903195671549 -31.8491379193 0.671675974869 134.847355204
9.725 0.581725230636 -52.9730042404 0.241794572502 -154.482955027 0.572824515303 -127.585997441 0.524407451258 -40.0134624338 0.241794572502 -154.482955027 0.581776311041 -53.3765871761 0.57457579642 -127.637112726 0.522431164393 139.96829409 0.572824515303 -127.585997441 0.57457579642 -127.637112726 0.584580615781 1.88044200946 0.000903032168471 -36.3865161914 0.524407451258 -40.0134624338 0.522431164393 139.96829409 0.000903032168473 -36.3865161937 0.672355329124 132.48019944
9.75 0.580559005683 -55.7819723069 0.241837173789 -157.781268383 0.574390766739 -131.792630839 0.523966820441 -42.627656292 0.241837173789 -157.781268383 0.580614672156 -56.1854981296 0.576126713397 -131.844808561 0.521995548541 137.354326421 0.574390766739 -131.792630839 0.576126713397 -131.844808561 0.58150926142 -3.63072351908 0.000902749998932 -40.9291892673 0.523966820441 -42.627656292 0.521995548541 137.354326421 0.000902749998933 -40.9291892698 0.673036851858 130.116668279
9.775 0.579383470635 -58.584079374 0.241888774112 -161.076579681 0.575957651241 -135.991442846 0.523523983452 -45.2371381853 0.241888774112 -161.076579681 0.579444085363 -58.9874181445 0.577677876798 -136.044650675 0.521557863644 134.745103554 0.575957651241 -135.991442846 0.577677876798 -136.044650675 0.5784122892 -9.13226355784 0.000902347223637 -45.4772797555 0.523523983452 -45.2371381853 0.521557863644 134.745103554 0.000902347223639 -45.4772797579 0.673720431555 127.756703783
9.8 0.578197944493 -61.379241573 0.241948144544 -164.369181535 0.577526248842 -140.182743071 0.523078991564 -47.8419803694 0.241948144544 -164.369181535 0.578263847704 -61.7822600978 0.579230374586 -140.236947553 0.521118179893 132.140552752 0.577526248842 -140.182743071 0.579230374586 -140.236947553 0.575287108585 -14.6249528281 0.000901821977825 -50.0309139027 0.523078991564 -47.8419803694 0.521118179893 132.140552752 0.000901821977827 -50.030913905 0.67440595959 125.400248645
9.825 0.577001851954 -64.1673658068 0.242014012125 -167.65935483 0.579097536285 -144.366842648 0.52263189483 -50.4422538473 0.242014012125 -167.65935483 0.577073362266 -64.569927787 0.580785191556 -144.422009245 0.520676566027 129.540602403 0.579097536285 -144.366842648 0.580785191556 -144.422009245 0.572131253491 -20.1095938896 0.000901172470944 -54.5902217383 0.52263189483 -50.4422538472 0.520676566027 129.540602403 0.000901172470946 -54.5902217403 0.675093330104 123.047246153
9.85 0.575794726338 -66.9483501329 0.242085061451 -170.947368696 0.580672385927 -148.544053863 0.522182742185 -53.0380284067 0.242085061451 -170.947368696 0.575872141165 -67.3503163248 0.582343208231 -148.600146989 0.520233089369 126.945181979 0.580672385927 -148.544053863 0.582343208231 -148.600146989 0.568942388983 -25.5870167735 0.000900396986496 -59.1553371777 0.522182742185 -53.0380284067 0.520233089369 126.945181979 0.000900396986498 -59.1553371793 0.675782439883 120.697640165
9.875 0.574576212466 -69.7220841489 0.242159936185 -174.233480498 0.582251564738 -152.714689796 0.521731581551 -55.629372658 0.242159936185 -174.233480498 0.574659808485 -70.1233125348 0.583905199866 -152.771672862 0.519787815852 124.354222001 0.582251564738 -152.714689796 0.583905199866 -152.771672862 0.56571831817 -31.058078645 0.000899493882036 -63.7263980816 0.521731581551 -55.629372658 0.519787815852 124.354222001 0.000899493882037 -63.7263980827 0.676473188238 118.351375068
9.9 0.573346069554 -72.4884493825 0.24223724048 -177.517935848 0.583835733393 -156.879063967 0.521278459937 -58.2163540699 0.24223724048 -177.517935848 0.573436103227 -72.8887953525 0.585471835528 -156.936899419 0.519340810048 121.767654003 0.583835733393 -156.879063967 0.585471835528 -156.936899419 0.562456989368 -36.5236634989 0.000898461589329 -68.3035462727 0.521278459937 -58.2163540699 0.519340810048 121.767654003 0.00089846158933 -68.3035462734 0.677165476895 116.008395757
9.925 0.572104174109 -75.2473196896 0.242315540318 179.199031376 0.585425445419 -161.037489992 0.520823423541 -60.7990390058 0.242315540318 179.199031376 0.572200882261 -75.6466362336 0.587043677254 -161.096139362 0.51889213519 119.185410499 0.585425445419 -161.037489992 0.587043677254 -161.096139362 0.559156503575 -41.9846818915 0.000897298614687 -72.8869275111 0.520823423541 -60.7990390058 0.51889213519 119.185410499 0.000897298614687 -72.8869275113 0.677859209878 113.668647606
9.95 0.570850522847 -77.9985616625 0.242393364777 175.917199 0.587021146413 -165.190281249 0.520366517848 -63.3774927591 0.242393364777 175.917199 0.570954123296 -78.3966995722 0.588621179255 -165.2497052 0.518441853197 116.60742495 0.587021146413 -165.190281249 0.588621179255 -165.2497052 0.555815122313 -47.442070712 0.000896003539482 -77.4766914292 0.520366517848 -63.3774927591 0.518441853197 116.60742495 0.000896003539481 -77.4766914289 0.678554293409 111.332076434
9.975 0.56958523566 -80.7420350526 0.242469207222 172.636356524 0.588623173298 -169.337750552 0.519907787727 -65.9517795876 0.242469207222 172.636356524 0.569695927894 -81.1388431326 0.590204687179 -169.397908927 0.517990024696 114.033631728 0.588623173298 -169.337750552 0.590204687179 -169.397908927 0.552431275893 -52.8967929996 0.000894575020889 -82.0729914313 0.519907787727 -65.9517795876 0.517990024696 114.033631728 0.000894575020887 -82.0729914306 0.6792506358 108.998628487
10 0.568308558623 -83.4775932103 0.242541526427 169.356305083 0.590231753627 -173.480209832 0.519447277526 -68.5219627482 0.242541526427 169.356305083 0.568426524528 -83.8729184991 0.591794437405 -173.54106171 0.517536709041 111.463966091 0.590231753627 -173.480209832 0.591794437405 -173.54106171 0.54900357215 -58.3498378072 0.000893011792886 -86.6759845583 0.519447277526 -68.5219627482 0.517536709041 111.463966091 0.000893011792883 -86.6759845572 0.679948147351 106.668250406
10.025 0.567020867055 -86.2050835472 0.242608747642 166.076857413 0.591847004912 -177.617969829 0.518985031162 -71.0881045309 0.242608747642 166.076857413 0.567146271682 -86.598771546 0.593390556376 -177.679473574 0.517081964336 108.898364147 0.591847004912 -177.617969829 0.593390556376 -177.679473574 0.54553080568 -63.8022201148 0.000891312667534 -91.2858313217 0.518985031162 -71.0881045309 0.517081964336 108.898364147 0.000891312667531 -91.2858313203 0.680646740256 104.340889207
10.05 0.565722668634 -88.9243480241 0.2426692636 162.797837822 0.59346893399 178.248660212 0.518521092217 -73.6502662919 0.2426692636 162.797837822 0.565855661018 -89.3162429347 0.594993059957 178.186546893 0.516625847453 106.336762829 0.59346893399 178.248660212 0.594993059957 178.186546893 0.542011967646 -69.2549807934 0.000889476536616 -95.9026955106 0.518521092217 -73.6502662919 0.516625847453 106.336762829 0.000889476536612 -95.902695509 0.681346328505 102.016492257
10.075 0.56441460657 -91.6352236703 0.242721435476 159.519082164 0.595097436412 174.119372833 0.518055504021 -76.2085084877 0.242721435476 159.519082164 0.564555320574 -92.0251686405 0.59660185282 174.056692833 0.516168414051 103.779099862 0.595097436412 174.119372833 0.59660185282 174.056692833 0.538446256189 -74.709186619 0.000887502373634 -100.526743974 0.518055504021 -76.2085084877 0.516168414051 103.779099862 0.000887502373629 -100.526743972 0.682046827792 99.6950072494
10.1 0.563097462818 -94.3375431379 0.242763593808 156.240437824 0.59673229585 169.99386265 0.517588309741 -78.7628907079 0.242763593808 156.240437824 0.563246018028 -94.7253805147 0.598216727852 169.930659408 0.515709718594 101.225313741 0.59673229585 169.99386265 0.598216727852 169.930659408 0.534833087484 -80.1659303326 0.000885389236256 -105.158146383 0.517588309741 -78.7628907079 0.515709718594 101.225313741 0.000885389236252 -105.158146381 0.682748155426 97.3763821847
10.125 0.561772161338 -97.0311352985 0.24279403939 152.961763715 0.598373183538 165.871826639 0.517119552463 -81.3134717079 0.24279403939 152.961763715 0.561928663982 -97.4167068879 0.599837365586 165.808144074 0.515249814375 98.6753437005 0.598373183538 165.871826639 0.599837365586 165.808144074 0.531172107502 -85.6263307415 0.000883136269225 -109.797074971 0.517119552463 -81.3134717079 0.515249814375 98.6753437005 0.00088313626922 -109.797074969 0.683450230244 95.0605653495
10.15 0.560439771367 -99.715825885 0.24281104414 149.682930288 0.600019657737 161.752964402 0.516649275274 -83.8603094422 0.24281104414 149.682930288 0.560604315272 -100.098973219 0.601463333657 161.688846855 0.514788753531 96.129129688 0.600019657737 161.752964402 0.601463333657 161.688846855 0.527463204517 -91.0915328537 0.000880742707776 -114.443704263 0.516649275274 -83.8603094422 0.514788753531 96.129129688 0.000880742707772 -114.443704262 0.684152972525 92.7475052968
10.175 0.559101510706 -102.391438186 0.242812851961 146.40381956 0.601671163218 157.636978441 0.516177521337 -86.4034610969 0.242812851961 146.40381956 0.559274178275 -102.772002796 0.603094086291 157.572470615 0.514326587065 93.5866123408 0.601671163218 157.636978441 0.603094086291 157.572470615 0.523706522407 -96.5627080333 0.000878207881619 -119.098210789 0.516177521337 -86.4034610969 0.514326587065 93.5866123408 0.000878207881615 -119.098210787 0.684856303909 90.4371508272
10.2 0.557758748977 -105.057793799 0.242797679601 143.124325161 0.603327030795 153.523574422 0.515704333971 -88.9429831222 0.242797679601 143.124325161 0.557939612201 -105.435617492 0.604728963813 153.458721314 0.513863364868 91.0477329601 0.603327030795 153.523574422 0.604728963813 153.458721314 0.519902474787 -102.041054163 0.000875531219487 -123.760772777 0.515704333971 -88.9429831222 0.513863364868 91.0477329601 0.000875531219483 -123.760772775 0.685560147312 88.129450971
10.225 0.556413010833 -107.714713443 0.242763717531 139.844352398 0.604986476882 149.412461429 0.515229756718 -91.4789312655 0.242763717531 139.844352398 0.556602132316 -108.089638591 0.60636719221 149.347308269 0.513399135745 88.5124334871 0.604986476882 149.412461429 0.60636719221 149.347308269 0.516051760034 -107.527795791 0.000872712254296 -128.431569846 0.515229756718 -91.4789312655 0.513399135745 88.5124334871 0.000872712254293 -128.431569845 0.686264426856 85.8243549713
10.25 0.555065979084 -110.362017847 0.242709130847 136.563818356 0.606648603108 145.30335222 0.514753833414 -94.0113606033 0.242709130847 136.563818356 0.555263413087 -110.733887671 0.608007882729 145.237944404 0.512933947435 85.9806564794 0.606648603108 145.30335222 0.608007882729 145.237944404 0.512155377225 -113.02418425 0.000869750628928 -133.110782676 0.514753833414 -94.0113606033 0.512933947435 85.9806564794 0.000869750628924 -133.110782675 0.686969067782 83.5218122674
10.275 0.553719497683 -112.999528706 0.242632060209 133.282652012 0.608312395982 141.19596348 0.514276608251 -96.5403255747 0.242632060209 133.282652012 0.553925291187 -113.368187573 0.609650031527 141.130346504 0.512467846637 83.4523450882 0.608312395982 141.19596348 0.609650031527 141.130346504 0.508214643037 -118.531497701 0.000866646102632 -137.798592671 0.514276608251 -96.5403255747 0.512467846637 83.4523450882 0.000866646102629 -137.798592671 0.687673996383 81.22177248
10.3 0.55237557455 -115.627069721 0.242530622845 130.000794382 0.609976726624 137.090016063 0.513798125845 -99.065880013 0.242530622845 130.000794382 0.552589768322 -115.992363441 0.6112925194 137.024235459 0.512000879046 80.9274430359 0.609976726624 137.090016063 0.6112925194 137.024235459 0.504231209632 -124.051041091 0.000863398558063 -142.495181601 0.513798125845 -99.065880013 0.512000879046 80.9274430359 0.000863398558061 -142.4951816 0.68837913993 78.9241853956
10.325 0.551036384158 -118.244467724 0.242402913616 126.71819871 0.611640350573 132.985235244 0.513318431285 -101.588077179 0.242402913616 126.71819871 0.551259013827 -118.606243851 0.612934111573 132.919336506 0.511533089376 78.4058945937 0.611640350573 132.985235244 0.612934111573 132.919336506 0.500207083538 -129.584145965 0.000860008008929 -147.20073123 0.513318431285 -101.588077179 0.511533089376 78.4058945937 0.000860008008926 -147.20073123 0.689084426595 76.6290009534
10.35 0.549704269833 -120.851553888 0.242247006169 123.434830675 0.613301907698 128.881350954 0.512837570195 -104.106969794 0.242247006169 123.434830675 0.549935366962 -121.209662027 0.614573457587 128.815379475 0.511064521397 75.8876445605 0.613301907698 128.881350954 0.614573457587 128.815379475 0.496144645546 -135.132170108 0.000856474608228 -151.915422926 0.512837570195 -104.106969794 0.511064521397 75.8876445605 0.000856474608226 -151.915422926 0.68978978539 74.3361692314
10.375 0.548381745696 -123.448165037 0.242060954191 120.150668646 0.614959922198 124.778098022 0.512355588779 -106.622610072 0.242060954191 120.150668646 0.548621338854 -123.80245715 0.616209091297 124.712099026 0.510595217973 73.3726382411 0.614959922198 124.778098022 0.616209091297 124.712099026 0.492046671596 -140.696496941 0.000852798657069 -156.639437242 0.512355588779 -106.622610072 0.510595217973 73.3726382411 0.000852798657067 -156.639437242 0.690495146088 72.0456404342
10.4 0.547071498184 -126.034145044 0.24184279278 116.865703974 0.616612802734 120.675216417 0.511872533867 -109.135049753 0.24184279278 116.865703974 0.547319614004 -126.384475762 0.617839430977 120.609234886 0.5101252211 70.8608214254 0.616612802734 120.675216417 0.617839430977 120.609234886 0.48791635463 -146.278534639 0.000848980614005 -161.37295347 0.511872533867 -109.135049753 0.5101252211 70.8608214254 0.000848980614003 -161.372953471 0.691200439166 69.7573648812
10.425 0.545776387063 -128.609346335 0.241590539948 113.579941322 0.618258842709 116.57245148 0.511388452961 -111.644340135 0.241590539948 113.579941322 0.54603305129 -128.955573268 0.61946277958 116.506532088 0.509654571948 68.3521403679 0.618258842709 116.57245148 0.61946277958 116.506532088 0.483757327353 -151.879714883 0.000845021104868 -166.116149168 0.511388452961 -111.644340135 0.509654571948 68.3521403679 0.000845021104866 -166.116149169 0.691905595732 67.4712929952
10.45 0.544499445862 -131.173631485 0.241302198269 110.293399042 0.61989622069 112.469554162 0.510903394268 -114.150532107 0.241302198269 110.293399042 0.544764684374 -131.515615538 0.621077325142 112.403741203 0.509183310915 65.8465417664 0.61989622069 112.469554162 0.621077325142 112.403741203 0.479573685814 -157.501491177 0.000840920933047 -170.869199641 0.510903394268 -114.150532107 0.509183310915 65.8465417664 0.000840920933043 -170.869199641 0.692610547462 65.1873752919
10.475 0.543243881629 -133.726874915 0.240975756689 107.006109594 0.621523001021 108.366281253 0.510417406734 -116.653676185 0.240975756689 107.006109594 0.543517721432 -134.0644806 0.622681141373 108.300618576 0.508711477669 63.3439727422 0.621523001021 108.366281253 0.622681141373 108.300618576 0.475370013687 -163.145336659 0.000836681090149 -175.632277386 0.510417406734 -116.653676185 0.508711477669 63.3439727422 0.000836681090146 -175.632277386 0.693315226535 62.9055623701
10.5 0.54201307393 -136.268964688 0.240609192515 103.718120019 0.623137134636 104.262395618 0.509930540077 -119.15382254 0.240609192515 103.718120019 0.54229554412 -136.602060441 0.624272188439 104.196926552 0.508239111212 60.8443808193 0.623137134636 104.262395618 0.624272188439 104.196926552 0.471151407084 -168.812741293 0.000832302767019 179.594448513 0.509930540077 -119.15382254 0.508239111212 60.8443808193 0.000832302767015 179.594448513 0.694019565569 60.625804902
10.525 0.540810572984 -138.799804391 0.240200473583 100.429492457 0.624736460088 100.157666417 0.509442844807 -121.651021036 0.240200473583 100.429492457 0.541101705673 -139.128262884 0.625848313971 100.092433708 0.507766249935 58.3477139038 0.624736460088 100.157666417 0.625848313971 100.092433708 0.466923499691 -174.505208365 0.000827787365036 174.810813039 0.509442844807 -121.651021036 0.507766249935 58.3477139038 0.000827787365032 174.810813039 0.694723497561 58.3480536248
10.55 0.539640096855 -141.319315109 0.23974756064 97.1403047183 0.626318704823 96.0518693358 0.50895437225 -124.145321259 0.23974756064 97.1403047183 0.53993992804 -141.643013561 0.627407254306 95.9869150732 0.507292931682 55.8539202636 0.626318704823 96.0518693358 0.627407254306 95.9869150732 0.462692487957 179.775749843 0.00082313650766 170.016655958 0.50895437225 -124.145321259 0.507292931682 55.8539202636 0.000823136507656 170.016655958 0.695426955817 56.0722593321
10.575 0.538505527585 -143.827437473 0.239248409917 93.8506509117 0.627881486722 91.9447867985 0.508465174563 -126.636772553 0.239248409917 93.8506509117 0.538814097975 -144.146257961 0.628946636003 91.8801523477 0.506819193824 53.362948507 0.627881486722 91.9447867985 0.628946636003 91.8801523477 0.45846515599 174.028617311 0.000818352052181 165.211822595 0.508465174563 -126.636772553 0.506819193824 53.362948507 0.000818352052177 165.211822595 0.696129873896 53.7983728665
10.6 0.537410906187 -146.324133772 0.238700975936 90.5606421272 0.629422315929 87.8362081815 0.507975304746 -129.125424054 0.238700975936 90.5606421272 0.537728261961 -146.637963542 0.630463977634 87.7719341166 0.506345073333 50.8747475623 0.629422315929 87.8362081815 0.630463977634 87.7719341166 0.454248899783 168.251880586 0.000813436101627 160.396164669 0.507975304746 -129.125424054 0.506345073333 50.8747475623 0.000813436101624 160.396164669 0.696832185543 51.5263451121
10.625 0.536360426394 -148.809390128 0.238103214527 87.2704071798 0.630938596989 83.7259300167 0.507484816655 -131.61132472 0.238103214527 87.2704071798 0.536686619898 -149.118121891 0.631956691888 83.6620560527 0.505870606858 48.3892666558 0.630938596989 83.7259300167 0.631956691888 83.6620560527 0.450051750248 162.444036271 0.000808391016807 155.569541209 0.507484816655 -131.61132472 0.505870606858 48.3892666558 0.000808391016805 155.569541209 0.697533824627 49.2561269876
10.65 0.535358427081 -151.283218697 0.237453086077 83.980093415 0.632427631313 79.6137561847 0.506993765001 -134.094523366 0.237453086077 83.980093415 0.535693517452 -151.58675093 0.633422088004 79.5503211101 0.505395830815 45.9064552902 0.632427631313 79.6137561847 0.633422088004 79.5503211101 0.445882394526 156.603599814 0.000803219428469 150.731819531 0.506993765001 -134.094523366 0.505395830815 45.9064552902 0.000803219428468 150.731819531 0.698234725073 46.9876694405
10.675 0.534409383271 -153.745659891 0.236748559004 80.6898675801 0.633886619992 75.4994980955 0.506502205357 -136.575068699 0.236748559004 80.6898675801 0.53475343698 -154.043897128 0.634857374543 75.4365397064 0.504920781477 43.4262632218 0.633886619992 75.4994980955 0.634857374543 75.4365397064 0.441750194875 150.729115729 0.000797924249556 145.882876292 0.506502205357 -136.575068699 0.504920781477 43.4262632218 0.000797924249555 145.882876292 0.698934820802 44.7209234405
10.7 0.533517895654 -156.196784598 0.235987613456 77.3999167643 0.635312666982 71.3829748545 0.506010194155 -139.053009349 0.235987613456 77.3999167643 0.533870986966 -156.489637711 0.636259662532 71.3205298886 0.504445495072 40.9486404377 0.635312666982 71.3829748545 0.636259662532 71.3205298886 0.437665204405 144.819169364 0.000792508687563 141.022598624 0.506010194155 -139.053009349 0.504445495072 40.9486404377 0.000792508687564 141.022598624 0.699634045662 42.4558399744
10.725 0.532688678556 -158.636696367 0.235168245224 74.1104494123 0.636702782663 67.2640134102 0.505517788683 -141.528393903 0.235168245224 74.1104494123 0.533050889906 -158.924082841 0.637625968978 67.2021174817 0.503970007886 38.4735371318 0.636702782663 67.2640134102 0.637625968978 67.2021174817 0.433638178781 138.872400306 0.000786976257009 136.15088534 0.505517788683 -141.528393903 0.503970007886 38.4735371318 0.000786976257011 136.15088534 0.700332333355 40.1923700407
10.75 0.531926546305 -161.065533537 0.234288469877 70.8216964165 0.63805388779 63.1424486807 0.505025047077 -144.00127094 0.234288469877 70.8216964165 0.532297968577 -161.347377732 0.638953220777 63.0811362164 0.50349435637 36.0009036799 0.63805388779 63.1424486807 0.638953220777 63.0811362164 0.429680582946 132.887517521 0.000781330792018 131.267648218 0.505025047077 -144.00127094 0.50349435637 36.0009036799 0.000781330792021 131.267648218 0.701029617375 37.9304646452
10.775 0.531236397967 -163.483471271 0.233346327085 67.5339122929 0.639362817844 59.018123656 0.504532028316 -146.471689063 0.233346327085 67.5339122929 0.53161713068 -163.759704671 0.640238259016 58.9574278317 0.503018577261 33.5306906142 0.639362817844 59.018123656 0.640238259016 58.9574278317 0.425804591814 126.863316251 0.000775576459059 126.372813369 0.504532028316 -146.471689063 0.503018577261 33.5306906142 0.000775576459064 126.372813369 0.701725830927 35.6700747956
10.8 0.530623200443 -165.890723469 0.232339885135 64.2473764492 0.640626327789 54.8908894718 0.50403879221 -148.939696932 0.232339885135 64.2473764492 0.531013351841 -166.161284922 0.641477843674 54.830842149 0.502542707699 31.0628485962 0.640626327789 54.8908894718 0.641477843674 54.830842149 0.422023083805 120.798696688 0.000769717769843 121.466322679 0.50403879221 -148.939696932 0.502542707699 31.0628485962 0.000769717769849 121.46632268 0.702420906854 33.411151498
10.825 0.530091969926 -168.287544522 0.231267245614 60.962394553 0.641841097219 50.7606054506 0.503545399397 -151.405343302 0.231267245614 60.9623945531 0.53049165697 -168.552380458 0.642668658722 50.7012371152 0.502066785358 28.5973283888 0.641841097219 50.7606054506 0.642668658722 50.7012371152 0.418349626021 114.692684354 0.000763759594418 116.548135335 0.503545399397 -151.405343302 0.502066785358 28.5973283888 0.000763759594424 116.548135335 0.703114777559 31.1536457528
10.85 0.529647751771 -170.674230864 0.230126548245 57.6793000101 0.643003735908 46.6271391074 0.503051911324 -153.868677051 0.230126548245 57.6793000101 0.530057100035 -170.933295498 0.643807317608 46.5684788074 0.501590848578 26.1340808268 0.643003735908 46.6271391074 0.643807317608 46.5684788074 0.414798449849 108.544452057 0.000757707174462 111.618229431 0.503051911324 -153.868677051 0.501590848578 26.1340808268 0.000757707174468 111.618229431 0.703807374918 28.8975085504
10.875 0.529295598839 -173.051122291 0.22891597585 54.3984555662 0.644110789724 42.4903661139 0.50255839025 -156.329747217 0.22891597585 54.3984555662 0.529714742311 -173.304377809 0.64489036912 42.4324413987 0.501114936511 23.6730567863 0.644110789724 42.4903661139 0.64489036912 42.4324413987 0.411384415754 102.353343223 0.000751566136798 106.676603667 0.50255839025 -156.329747217 0.501114936511 23.6730567863 0.000751566136803 106.676603667 0.704498630192 26.6426908683
10.9 0.529040548404 -175.418603002 0.227633759422 51.1202550474 0.645158746917 38.3501702178 0.502064899231 -158.788603032 0.227633759422 51.1202550474 0.529469629198 -175.666019726 0.645914303601 38.2930070778 0.500639089264 21.2142071516 0.645158746917 38.3501702178 0.645914303601 38.2930070778 0.408122966083 96.1188962528 0.000745342507103 101.723279135 0.502064899231 -158.788603032 0.500639089264 21.2142071516 0.000745342507106 101.723279135 0.705188473937 24.3891436671
10.925 0.528887597768 -177.777102334 0.226278183284 47.8451252557 0.646144044713 34.2064431137 0.501571502123 -161.245293959 0.226278183284 47.8451252557 0.529326765747 -178.018658861 0.646875559485 34.1500659199 0.500163348055 18.7574827815 0.646144044713 34.2064431137 0.646875559485 34.1500659199 0.405030064815 89.8408695131 0.000739042723779 96.7583012037 0.501571502123 -161.245293959 0.500163348055 18.7574827815 0.000739042723781 96.7583012042 0.705876835899 22.1368178877
10.95 0.528841678736 179.872904862 0.224847590307 44.5735280426 0.647063076217 30.0590842591 0.501078263576 -163.69986972 0.224847590307 44.5735280426 0.529291091065 179.637221539 0.647770530121 30.0035157029 0.499687755375 16.3028344728 0.647063076217 30.0590842591 0.647770530121 30.0035157029 0.402122123339 83.5192663669 0.000732673651927 91.7817415143 0.501078263576 -163.69986972 0.499687755375 16.3028344728 0.000732673651926 91.7817415149 0.706563644914 19.885664448
10.975 0.52890763116 177.530898215 0.223340387178 41.3059625852 0.647912197551 25.9080006334 0.500585249051 -166.152380338 0.223340387178 41.3059625852 0.529367451783 177.30109261 0.648595570841 25.8532616668 0.499212355153 13.8502129222 0.647912197551 25.9080006334 0.648595570841 25.8532616668 0.399415911627 77.154359591 0.000726242597297 86.7937000988 0.500585249051 -166.152380338 0.499212355153 13.8502129222 0.000726242597295 86.7937000996 0.707248828788 17.6356342394
11 0.52909017578 175.196312245 0.22175504969 38.0429678948 0.648687735185 21.7531064352 0.500092524821 -168.602876168 0.22175504969 38.0429678948 0.52956057484 174.972380312 0.649347006213 21.6992162103 0.49873719293 11.3995686859 0.648687735185 21.7531064352 0.649347006213 21.6992162103 0.396928454479 70.7467143619 0.000719757320081 81.7943076357 0.500092524821 -168.602876168 0.49873719293 11.3995686859 0.000719757320077 81.7943076368 0.707932314183 15.3866781248
11.025 0.529393886626 172.868537203 0.220090128045 34.785125594 0.649385993402 17.5943227139 0.499600157999 -171.051407936 0.220090128045 34.7851255939 0.529875039848 172.650466293 0.650021137421 17.5412985223 0.498262316039 8.95085213676 0.649385993402 17.594322714 0.650021137421 17.5412985223 0.394676912932 64.2972089041 0.000713226048327 76.7837278656 0.499600157999 -171.051407936 0.498262316039 8.95085213676 0.000713226048324 76.783727867 0.708614026479 13.1387469347
11.05 0.529823163293 170.546920366 0.218344252171 31.5330630017 0.650003261819 13.4315769328 0.49910821657 -173.498026773 0.218344252171 31.5330630017 0.530315251324 170.334689206 0.650614249697 13.3794341445 0.497787773793 6.50401341931 0.650003261819 13.4315769329 0.650614249697 13.3794341445 0.392678451465 57.8070518033 0.000706657490713 71.7621601893 0.49910821657 -173.498026773 0.497787773793 6.50401341931 0.000706657490711 71.7621601911 0.70929388964 10.8917914648
11.075 0.530382203397 168.230767785 0.216516137037 28.2874565775 0.650535822893 9.26480246115 0.498616769427 -175.942784253 0.216516137037 28.2874565775 0.530885411137 168.024346488 0.651122619742 9.2135544622 0.497313617671 4.05900240149 0.650535822893 9.26480246115 0.651122619742 9.2135544622 0.390950092135 51.277794945 0.000700060848339 66.7298424783 0.498616769427 -175.942784253 0.497313617671 4.0590024015 0.000700060848342 66.7298424805 0.70997182606 8.64576247323
11.1 0.531074975564 165.919346496 0.214604588006 25.0490357791 0.650979959323 5.09393799257 0.49812588643 -178.38573243 0.214604588006 25.0490357791 0.531589491503 165.718696591 0.65154252302 5.04359612229 0.496839901524 1.61576862411 0.650979959323 5.09393799257 0.65154252302 5.04359612229 0.389508557472 44.7113410453 0.000693445825157 61.6870541269 0.49812588643 -178.38573243 0.496839901524 1.61576862411 0.000693445825168 61.6870541295 0.710647756399 6.40061067731
11.125 0.531905193333 163.61188718 0.212608506222 21.8185873999 0.651331961254 0.918926889335 0.497635638479 179.173076121 0.212608506222 21.8185873999 0.532431208901 163.416961674 0.651870240876 0.869500375567 0.496366681773 -0.825738752938 0.651331961254 0.918926889338 0.651870240876 0.869500375564 0.38837010453 38.1099448085 0.000686822636529 56.6341193814 0.497635638479 179.173076121 0.496366681773 -0.825738752935 0.000686822636551 56.6341193846 0.711321599411 4.15628675091
11.15 0.532876290319 161.307587253 0.210526894097 18.5969604636 0.6515881332 -3.26028354895 0.497146097599 176.733588267 0.210526894096 18.5969604636 0.533413999281 161.118330709 0.652102067336 -3.30878765582 0.495894017618 -3.26557100755 0.6515881332 -3.26028354895 0.652102067336 -3.30878765582 0.387550353158 31.4762068858 0.000680202015402 51.5714109826 0.497146097599 176.733588267 0.495894017618 -3.26557100754 0.000680202015441 51.5714109864 0.71199327175 1.91274132142
11.175 0.533991397034 159.005614362 0.208358860946 15.3850717636 0.651744800562 -7.44374289105 0.49665733705 174.295750275 0.208358860946 15.3850717636 0.534540994949 158.821962998 0.65223431553 -7.49131978591 0.495421971259 -5.70377991562 0.651744800562 -7.44374289104 0.65223431553 -7.49131978591 0.387064112067 24.8130600277 0.00067359521547 46.4993541555 0.49665733705 174.295750275 0.495421971259 -5.70377991561 0.000673595215532 46.49935416 0.712662687771 -0.330075033134
11.2 0.535253319726 156.705110233 0.206103628858 12.1839121512 0.651798315664 -11.6314984528 0.496169431459 171.859507774 0.206103628858 12.1839121512 0.535815003483 156.526992047 0.652263323598 -11.6781456458 0.494950608109 -8.14041781477 0.651798315664 -11.6314984528 0.652263323598 -11.6781456458 0.386925206729 18.123747104 0.000667014010645 41.4184309824 0.496169431459 171.859507774 0.494950608109 -8.14041781476 0.000667014010734 41.4184309877 0.713329759303 -2.57221178718
11.225 0.536664521594 154.405194839 0.203760538909 8.99455368958 0.651745063184 -15.8235962464 0.495682456978 169.424805703 0.203760538909 8.99455368961 0.537238489058 154.232529742 0.652185460011 -15.869313635 0.494479997022 -10.5755376717 0.651745063184 -15.8235962464 0.652185460011 -15.869313635 0.387146313406 11.4117910161 0.000660470690113 36.3291851885 0.495682456978 169.424805703 0.494479997022 -10.5755376717 0.000660470690235 36.3291851947 0.713994395416 -4.81371847059
11.25 0.538227106696 152.104970817 0.201329057856 5.81815781374 0.651581464888 -20.0200819958 0.495196491468 166.991588279 0.201329057856 5.81815781379 0.538813556481 151.937670785 0.651997128175 -20.0648719393 0.494010210526 -13.0091931534 0.651581464888 -20.0200819958 0.651997128175 -20.0648719393 0.387738803668 4.68095691358 0.000653978048205 31.2322273612 0.495196491468 166.991588279 0.494010210526 -13.0091931534 0.000653978048365 31.2322273684 0.71465650216 -7.05464467177
11.275 0.53994280686 149.80352807 0.198808785493 2.65598465191 0.651303983573 -24.2210022134 0.494711614718 164.55979894 0.198808785493 2.65598465199 0.540541938246 149.641497299 0.651694770247 -24.2648696106 0.493541325053 -15.4414387024 0.651303983573 -24.2210022134 0.651694770247 -24.2648696105 0.388712603602 -2.0647924704 0.000647549368287 26.1282406158 0.494711614718 164.55979894 0.493541325053 -15.4414387024 0.000647549368487 26.1282406241 0.715315982291 -9.29504004083
11.3 0.541812971823 147.499948478 0.196199462876 -0.490596306337 0.650909126124 -28.4264053311 0.4942279087 162.129380305 0.196199462876 -0.490596306229 0.542424984855 147.343083548 0.651274870057 -28.4693576996 0.493073421179 -17.8723296164 0.650909126124 -28.4264053311 0.651274870057 -28.4693576996 0.390076071508 -8.8213471587 0.000641198399867 21.0179867027 0.4942279087 162.129380305 0.493073421179 -17.8723296163 0.000641198400109 21.0179867123 0.715972734972 -11.5349542927
11.325 0.543838562816 145.193310639 0.193500981673 -3.6200939858 0.650393445601 -32.6363428779 0.493745457857 159.700274119 0.193500981673 -3.62009398566 0.544463658584 145.041500681 0.650733955064 -32.6783904373 0.49260658387 -20.3019221314 0.650393445601 -32.6363428779 0.650733955064 -32.6783904373 0.391835897197 -15.5845044016 0.000634939328151 15.9023125329 0.493745457858 159.700274119 0.49260658387 -20.3019221314 0.000634939328433 15.9023125437 0.716626655448 -13.7744372102
11.35 0.546020149709 142.882694565 0.190713394959 -6.73088170225 0.649753542302 -36.8508706937 0.493264349449 157.272421205 0.190713394959 -6.73088170208 0.546658530848 142.735821421 0.650068597277 -36.8920264508 0.492140902727 -22.7302735111 0.649753542302 -36.8508706937 0.650068597277 -36.8920264508 0.393997025194 -22.3500254739 0.000628786735319 10.7821570741 0.493264349449 157.272421205 0.492140902727 -22.7302735111 0.000628786735634 10.7821570861 0.717277634705 -16.0135386475
11.375 0.548357911793 140.567186236 0.18783692982 -9.82118106122 0.648986063739 -41.0700501695 0.492784673927 154.845761412 0.18783692982 -9.82118106102 0.549009783214 140.425124609 0.649275413096 -41.1103300063 0.491676472235 -25.1574421389 0.648986063739 -41.0700501695 0.649275413096 -41.1103300063 0.396562603113 -29.1136928368 0.000622755552872 5.65855854233 0.492784673927 154.845761412 0.491676472235 -25.1574421389 0.000622755553208 5.65855855526 0.717925559096 -18.2523085327
11.4 0.550851642189 138.245881941 0.184872002211 -12.8890434588 0.648087703497 -45.2939494996 0.492306525381 152.420233552 0.184872002211 -12.8890434586 0.551517212057 138.108499533 0.64835106203 -45.3333722642 0.491213392021 -27.5834876168 0.648087703497 -45.2939494996 0.648351062031 -45.3333722642 0.399533955384 -35.8713656631 0.000616861004525 0.532661777909 0.492306525381 152.420233552 0.491213392021 -27.5834876167 0.000616861004865 0.532661791265 0.718570309942 -20.4907968714
11.425 0.553500755807 135.917892317 0.181819234577 -15.9323288181 0.647055198968 -49.522644934 0.491830002029 149.995775352 0.181819234577 -15.9323288179 0.554180236787 135.785049953 0.647292244299 -49.5612325329 0.490751767108 -30.0084708677 0.647055198967 -49.522644934 0.6472922443 -49.5612325329 0.402910581415 -42.619031816 0.000611118539274 -4.59427433755 0.49183000203 149.995775352 0.490751767108 -30.0084708677 0.000611118539592 -4.59427432465 0.719211763105 -22.7290537494
11.45 0.556304300692 133.582346024 0.178679476848 -18.9486811429 0.64588532797 -53.7562220129 0.491355206784 147.572323383 0.178679476848 -18.9486811427 0.55699791147 133.453897742 0.646095697317 -53.7939995062 0.490291708177 -32.4324542443 0.645885327969 -53.7562220129 0.646095697317 -53.7939995062 0.406690176249 -49.3528545661 0.000605543754447 -9.72086960863 0.491355206784 147.572323383 0.490291708177 -32.4324542443 0.000605543754708 -9.72086959761 0.719849788528 -24.9671293352
11.475 0.559260972517 131.23839298 0.175453831521 -21.9355004129 0.644574904299 -57.994776769 0.490882247876 145.149813004 0.175453831521 -21.9355004128 0.559968939609 131.114186096 0.644758191115 -58.0317724659 0.489833331828 -34.8555016427 0.644574904298 -57.994776769 0.644758191115 -58.0317724659 0.410868670887 -56.069212634 0.000600152308782 -14.8456156214 0.490882247876 145.149813004 0.489833331828 -34.8555016427 0.000600152308941 -14.8456156144 0.720484249746 -27.2050738828
11.5 0.562369131927 128.885207095 0.172143683661 -24.8899102837 0.643120772279 -62.2384168776 0.490411239568 142.728178292 0.172143683661 -24.8899102837 0.563091691785 128.765082236 0.643276522781 -62.2746624328 0.489376760846 -37.2776786217 0.643120772279 -62.2384168776 0.643276522781 -62.2746624328 0.41544028876 -62.7647325071 0.000594959825848 -19.9668694685 0.490411239568 142.728178292 0.489376760846 -37.2776786217 0.000594959825849 -19.9668694684 0.72111500336 -29.4429377342
